p cnf 1425 12545
1 2 3 4 5 0
-1 -2 0
-1 -3 0
-1 -4 0
-1 -5 0
-2 -3 0
-2 -4 0
-2 -5 0
-3 -4 0
-3 -5 0
-4 -5 0
6 7 8 9 10 0
-6 -7 0
-6 -8 0
-6 -9 0
-6 -10 0
-7 -8 0
-7 -9 0
-7 -10 0
-8 -9 0
-8 -10 0
-9 -10 0
11 12 13 14 15 0
-11 -12 0
-11 -13 0
-11 -14 0
-11 -15 0
-12 -13 0
-12 -14 0
-12 -15 0
-13 -14 0
-13 -15 0
-14 -15 0
16 17 18 19 20 0
-16 -17 0
-16 -18 0
-16 -19 0
-16 -20 0
-17 -18 0
-17 -19 0
-17 -20 0
-18 -19 0
-18 -20 0
-19 -20 0
21 22 23 24 25 0
-21 -22 0
-21 -23 0
-21 -24 0
-21 -25 0
-22 -23 0
-22 -24 0
-22 -25 0
-23 -24 0
-23 -25 0
-24 -25 0
26 27 28 29 30 0
-26 -27 0
-26 -28 0
-26 -29 0
-26 -30 0
-27 -28 0
-27 -29 0
-27 -30 0
-28 -29 0
-28 -30 0
-29 -30 0
31 32 33 34 35 0
-31 -32 0
-31 -33 0
-31 -34 0
-31 -35 0
-32 -33 0
-32 -34 0
-32 -35 0
-33 -34 0
-33 -35 0
-34 -35 0
36 37 38 39 40 0
-36 -37 0
-36 -38 0
-36 -39 0
-36 -40 0
-37 -38 0
-37 -39 0
-37 -40 0
-38 -39 0
-38 -40 0
-39 -40 0
41 42 43 44 45 0
-41 -42 0
-41 -43 0
-41 -44 0
-41 -45 0
-42 -43 0
-42 -44 0
-42 -45 0
-43 -44 0
-43 -45 0
-44 -45 0
46 47 48 49 50 0
-46 -47 0
-46 -48 0
-46 -49 0
-46 -50 0
-47 -48 0
-47 -49 0
-47 -50 0
-48 -49 0
-48 -50 0
-49 -50 0
51 52 53 54 55 0
-51 -52 0
-51 -53 0
-51 -54 0
-51 -55 0
-52 -53 0
-52 -54 0
-52 -55 0
-53 -54 0
-53 -55 0
-54 -55 0
56 57 58 59 60 0
-56 -57 0
-56 -58 0
-56 -59 0
-56 -60 0
-57 -58 0
-57 -59 0
-57 -60 0
-58 -59 0
-58 -60 0
-59 -60 0
61 62 63 64 65 0
-61 -62 0
-61 -63 0
-61 -64 0
-61 -65 0
-62 -63 0
-62 -64 0
-62 -65 0
-63 -64 0
-63 -65 0
-64 -65 0
66 67 68 69 70 0
-66 -67 0
-66 -68 0
-66 -69 0
-66 -70 0
-67 -68 0
-67 -69 0
-67 -70 0
-68 -69 0
-68 -70 0
-69 -70 0
71 72 73 74 75 0
-71 -72 0
-71 -73 0
-71 -74 0
-71 -75 0
-72 -73 0
-72 -74 0
-72 -75 0
-73 -74 0
-73 -75 0
-74 -75 0
76 77 78 79 80 0
-76 -77 0
-76 -78 0
-76 -79 0
-76 -80 0
-77 -78 0
-77 -79 0
-77 -80 0
-78 -79 0
-78 -80 0
-79 -80 0
81 82 83 84 85 0
-81 -82 0
-81 -83 0
-81 -84 0
-81 -85 0
-82 -83 0
-82 -84 0
-82 -85 0
-83 -84 0
-83 -85 0
-84 -85 0
86 87 88 89 90 0
-86 -87 0
-86 -88 0
-86 -89 0
-86 -90 0
-87 -88 0
-87 -89 0
-87 -90 0
-88 -89 0
-88 -90 0
-89 -90 0
91 92 93 94 95 0
-91 -92 0
-91 -93 0
-91 -94 0
-91 -95 0
-92 -93 0
-92 -94 0
-92 -95 0
-93 -94 0
-93 -95 0
-94 -95 0
96 97 98 99 100 0
-96 -97 0
-96 -98 0
-96 -99 0
-96 -100 0
-97 -98 0
-97 -99 0
-97 -100 0
-98 -99 0
-98 -100 0
-99 -100 0
101 102 103 104 105 0
-101 -102 0
-101 -103 0
-101 -104 0
-101 -105 0
-102 -103 0
-102 -104 0
-102 -105 0
-103 -104 0
-103 -105 0
-104 -105 0
106 107 108 109 110 0
-106 -107 0
-106 -108 0
-106 -109 0
-106 -110 0
-107 -108 0
-107 -109 0
-107 -110 0
-108 -109 0
-108 -110 0
-109 -110 0
111 112 113 114 115 0
-111 -112 0
-111 -113 0
-111 -114 0
-111 -115 0
-112 -113 0
-112 -114 0
-112 -115 0
-113 -114 0
-113 -115 0
-114 -115 0
116 117 118 119 120 0
-116 -117 0
-116 -118 0
-116 -119 0
-116 -120 0
-117 -118 0
-117 -119 0
-117 -120 0
-118 -119 0
-118 -120 0
-119 -120 0
121 122 123 124 125 0
-121 -122 0
-121 -123 0
-121 -124 0
-121 -125 0
-122 -123 0
-122 -124 0
-122 -125 0
-123 -124 0
-123 -125 0
-124 -125 0
126 127 128 129 130 0
-126 -127 0
-126 -128 0
-126 -129 0
-126 -130 0
-127 -128 0
-127 -129 0
-127 -130 0
-128 -129 0
-128 -130 0
-129 -130 0
131 132 133 134 135 0
-131 -132 0
-131 -133 0
-131 -134 0
-131 -135 0
-132 -133 0
-132 -134 0
-132 -135 0
-133 -134 0
-133 -135 0
-134 -135 0
136 137 138 139 140 0
-136 -137 0
-136 -138 0
-136 -139 0
-136 -140 0
-137 -138 0
-137 -139 0
-137 -140 0
-138 -139 0
-138 -140 0
-139 -140 0
141 142 143 144 145 0
-141 -142 0
-141 -143 0
-141 -144 0
-141 -145 0
-142 -143 0
-142 -144 0
-142 -145 0
-143 -144 0
-143 -145 0
-144 -145 0
146 147 148 149 150 0
-146 -147 0
-146 -148 0
-146 -149 0
-146 -150 0
-147 -148 0
-147 -149 0
-147 -150 0
-148 -149 0
-148 -150 0
-149 -150 0
151 152 153 154 155 0
-151 -152 0
-151 -153 0
-151 -154 0
-151 -155 0
-152 -153 0
-152 -154 0
-152 -155 0
-153 -154 0
-153 -155 0
-154 -155 0
156 157 158 159 160 0
-156 -157 0
-156 -158 0
-156 -159 0
-156 -160 0
-157 -158 0
-157 -159 0
-157 -160 0
-158 -159 0
-158 -160 0
-159 -160 0
161 162 163 164 165 0
-161 -162 0
-161 -163 0
-161 -164 0
-161 -165 0
-162 -163 0
-162 -164 0
-162 -165 0
-163 -164 0
-163 -165 0
-164 -165 0
166 167 168 169 170 0
-166 -167 0
-166 -168 0
-166 -169 0
-166 -170 0
-167 -168 0
-167 -169 0
-167 -170 0
-168 -169 0
-168 -170 0
-169 -170 0
171 172 173 174 175 0
-171 -172 0
-171 -173 0
-171 -174 0
-171 -175 0
-172 -173 0
-172 -174 0
-172 -175 0
-173 -174 0
-173 -175 0
-174 -175 0
176 177 178 179 180 0
-176 -177 0
-176 -178 0
-176 -179 0
-176 -180 0
-177 -178 0
-177 -179 0
-177 -180 0
-178 -179 0
-178 -180 0
-179 -180 0
181 182 183 184 185 0
-181 -182 0
-181 -183 0
-181 -184 0
-181 -185 0
-182 -183 0
-182 -184 0
-182 -185 0
-183 -184 0
-183 -185 0
-184 -185 0
186 187 188 189 190 0
-186 -187 0
-186 -188 0
-186 -189 0
-186 -190 0
-187 -188 0
-187 -189 0
-187 -190 0
-188 -189 0
-188 -190 0
-189 -190 0
191 192 193 194 195 0
-191 -192 0
-191 -193 0
-191 -194 0
-191 -195 0
-192 -193 0
-192 -194 0
-192 -195 0
-193 -194 0
-193 -195 0
-194 -195 0
196 197 198 199 200 0
-196 -197 0
-196 -198 0
-196 -199 0
-196 -200 0
-197 -198 0
-197 -199 0
-197 -200 0
-198 -199 0
-198 -200 0
-199 -200 0
201 202 203 204 205 0
-201 -202 0
-201 -203 0
-201 -204 0
-201 -205 0
-202 -203 0
-202 -204 0
-202 -205 0
-203 -204 0
-203 -205 0
-204 -205 0
206 207 208 209 210 0
-206 -207 0
-206 -208 0
-206 -209 0
-206 -210 0
-207 -208 0
-207 -209 0
-207 -210 0
-208 -209 0
-208 -210 0
-209 -210 0
211 212 213 214 215 0
-211 -212 0
-211 -213 0
-211 -214 0
-211 -215 0
-212 -213 0
-212 -214 0
-212 -215 0
-213 -214 0
-213 -215 0
-214 -215 0
216 217 218 219 220 0
-216 -217 0
-216 -218 0
-216 -219 0
-216 -220 0
-217 -218 0
-217 -219 0
-217 -220 0
-218 -219 0
-218 -220 0
-219 -220 0
221 222 223 224 225 0
-221 -222 0
-221 -223 0
-221 -224 0
-221 -225 0
-222 -223 0
-222 -224 0
-222 -225 0
-223 -224 0
-223 -225 0
-224 -225 0
226 227 228 229 230 0
-226 -227 0
-226 -228 0
-226 -229 0
-226 -230 0
-227 -228 0
-227 -229 0
-227 -230 0
-228 -229 0
-228 -230 0
-229 -230 0
231 232 233 234 235 0
-231 -232 0
-231 -233 0
-231 -234 0
-231 -235 0
-232 -233 0
-232 -234 0
-232 -235 0
-233 -234 0
-233 -235 0
-234 -235 0
236 237 238 239 240 0
-236 -237 0
-236 -238 0
-236 -239 0
-236 -240 0
-237 -238 0
-237 -239 0
-237 -240 0
-238 -239 0
-238 -240 0
-239 -240 0
241 242 243 244 245 0
-241 -242 0
-241 -243 0
-241 -244 0
-241 -245 0
-242 -243 0
-242 -244 0
-242 -245 0
-243 -244 0
-243 -245 0
-244 -245 0
246 247 248 249 250 0
-246 -247 0
-246 -248 0
-246 -249 0
-246 -250 0
-247 -248 0
-247 -249 0
-247 -250 0
-248 -249 0
-248 -250 0
-249 -250 0
251 252 253 254 255 0
-251 -252 0
-251 -253 0
-251 -254 0
-251 -255 0
-252 -253 0
-252 -254 0
-252 -255 0
-253 -254 0
-253 -255 0
-254 -255 0
256 257 258 259 260 0
-256 -257 0
-256 -258 0
-256 -259 0
-256 -260 0
-257 -258 0
-257 -259 0
-257 -260 0
-258 -259 0
-258 -260 0
-259 -260 0
261 262 263 264 265 0
-261 -262 0
-261 -263 0
-261 -264 0
-261 -265 0
-262 -263 0
-262 -264 0
-262 -265 0
-263 -264 0
-263 -265 0
-264 -265 0
266 267 268 269 270 0
-266 -267 0
-266 -268 0
-266 -269 0
-266 -270 0
-267 -268 0
-267 -269 0
-267 -270 0
-268 -269 0
-268 -270 0
-269 -270 0
271 272 273 274 275 0
-271 -272 0
-271 -273 0
-271 -274 0
-271 -275 0
-272 -273 0
-272 -274 0
-272 -275 0
-273 -274 0
-273 -275 0
-274 -275 0
276 277 278 279 280 0
-276 -277 0
-276 -278 0
-276 -279 0
-276 -280 0
-277 -278 0
-277 -279 0
-277 -280 0
-278 -279 0
-278 -280 0
-279 -280 0
281 282 283 284 285 0
-281 -282 0
-281 -283 0
-281 -284 0
-281 -285 0
-282 -283 0
-282 -284 0
-282 -285 0
-283 -284 0
-283 -285 0
-284 -285 0
286 287 288 289 290 0
-286 -287 0
-286 -288 0
-286 -289 0
-286 -290 0
-287 -288 0
-287 -289 0
-287 -290 0
-288 -289 0
-288 -290 0
-289 -290 0
291 292 293 294 295 0
-291 -292 0
-291 -293 0
-291 -294 0
-291 -295 0
-292 -293 0
-292 -294 0
-292 -295 0
-293 -294 0
-293 -295 0
-294 -295 0
296 297 298 299 300 0
-296 -297 0
-296 -298 0
-296 -299 0
-296 -300 0
-297 -298 0
-297 -299 0
-297 -300 0
-298 -299 0
-298 -300 0
-299 -300 0
301 302 303 304 305 0
-301 -302 0
-301 -303 0
-301 -304 0
-301 -305 0
-302 -303 0
-302 -304 0
-302 -305 0
-303 -304 0
-303 -305 0
-304 -305 0
306 307 308 309 310 0
-306 -307 0
-306 -308 0
-306 -309 0
-306 -310 0
-307 -308 0
-307 -309 0
-307 -310 0
-308 -309 0
-308 -310 0
-309 -310 0
311 312 313 314 315 0
-311 -312 0
-311 -313 0
-311 -314 0
-311 -315 0
-312 -313 0
-312 -314 0
-312 -315 0
-313 -314 0
-313 -315 0
-314 -315 0
316 317 318 319 320 0
-316 -317 0
-316 -318 0
-316 -319 0
-316 -320 0
-317 -318 0
-317 -319 0
-317 -320 0
-318 -319 0
-318 -320 0
-319 -320 0
321 322 323 324 325 0
-321 -322 0
-321 -323 0
-321 -324 0
-321 -325 0
-322 -323 0
-322 -324 0
-322 -325 0
-323 -324 0
-323 -325 0
-324 -325 0
326 327 328 329 330 0
-326 -327 0
-326 -328 0
-326 -329 0
-326 -330 0
-327 -328 0
-327 -329 0
-327 -330 0
-328 -329 0
-328 -330 0
-329 -330 0
331 332 333 334 335 0
-331 -332 0
-331 -333 0
-331 -334 0
-331 -335 0
-332 -333 0
-332 -334 0
-332 -335 0
-333 -334 0
-333 -335 0
-334 -335 0
336 337 338 339 340 0
-336 -337 0
-336 -338 0
-336 -339 0
-336 -340 0
-337 -338 0
-337 -339 0
-337 -340 0
-338 -339 0
-338 -340 0
-339 -340 0
341 342 343 344 345 0
-341 -342 0
-341 -343 0
-341 -344 0
-341 -345 0
-342 -343 0
-342 -344 0
-342 -345 0
-343 -344 0
-343 -345 0
-344 -345 0
346 347 348 349 350 0
-346 -347 0
-346 -348 0
-346 -349 0
-346 -350 0
-347 -348 0
-347 -349 0
-347 -350 0
-348 -349 0
-348 -350 0
-349 -350 0
351 352 353 354 355 0
-351 -352 0
-351 -353 0
-351 -354 0
-351 -355 0
-352 -353 0
-352 -354 0
-352 -355 0
-353 -354 0
-353 -355 0
-354 -355 0
356 357 358 359 360 0
-356 -357 0
-356 -358 0
-356 -359 0
-356 -360 0
-357 -358 0
-357 -359 0
-357 -360 0
-358 -359 0
-358 -360 0
-359 -360 0
361 362 363 364 365 0
-361 -362 0
-361 -363 0
-361 -364 0
-361 -365 0
-362 -363 0
-362 -364 0
-362 -365 0
-363 -364 0
-363 -365 0
-364 -365 0
366 367 368 369 370 0
-366 -367 0
-366 -368 0
-366 -369 0
-366 -370 0
-367 -368 0
-367 -369 0
-367 -370 0
-368 -369 0
-368 -370 0
-369 -370 0
371 372 373 374 375 0
-371 -372 0
-371 -373 0
-371 -374 0
-371 -375 0
-372 -373 0
-372 -374 0
-372 -375 0
-373 -374 0
-373 -375 0
-374 -375 0
376 377 378 379 380 0
-376 -377 0
-376 -378 0
-376 -379 0
-376 -380 0
-377 -378 0
-377 -379 0
-377 -380 0
-378 -379 0
-378 -380 0
-379 -380 0
381 382 383 384 385 0
-381 -382 0
-381 -383 0
-381 -384 0
-381 -385 0
-382 -383 0
-382 -384 0
-382 -385 0
-383 -384 0
-383 -385 0
-384 -385 0
386 387 388 389 390 0
-386 -387 0
-386 -388 0
-386 -389 0
-386 -390 0
-387 -388 0
-387 -389 0
-387 -390 0
-388 -389 0
-388 -390 0
-389 -390 0
391 392 393 394 395 0
-391 -392 0
-391 -393 0
-391 -394 0
-391 -395 0
-392 -393 0
-392 -394 0
-392 -395 0
-393 -394 0
-393 -395 0
-394 -395 0
396 397 398 399 400 0
-396 -397 0
-396 -398 0
-396 -399 0
-396 -400 0
-397 -398 0
-397 -399 0
-397 -400 0
-398 -399 0
-398 -400 0
-399 -400 0
401 402 403 404 405 0
-401 -402 0
-401 -403 0
-401 -404 0
-401 -405 0
-402 -403 0
-402 -404 0
-402 -405 0
-403 -404 0
-403 -405 0
-404 -405 0
406 407 408 409 410 0
-406 -407 0
-406 -408 0
-406 -409 0
-406 -410 0
-407 -408 0
-407 -409 0
-407 -410 0
-408 -409 0
-408 -410 0
-409 -410 0
411 412 413 414 415 0
-411 -412 0
-411 -413 0
-411 -414 0
-411 -415 0
-412 -413 0
-412 -414 0
-412 -415 0
-413 -414 0
-413 -415 0
-414 -415 0
416 417 418 419 420 0
-416 -417 0
-416 -418 0
-416 -419 0
-416 -420 0
-417 -418 0
-417 -419 0
-417 -420 0
-418 -419 0
-418 -420 0
-419 -420 0
421 422 423 424 425 0
-421 -422 0
-421 -423 0
-421 -424 0
-421 -425 0
-422 -423 0
-422 -424 0
-422 -425 0
-423 -424 0
-423 -425 0
-424 -425 0
426 427 428 429 430 0
-426 -427 0
-426 -428 0
-426 -429 0
-426 -430 0
-427 -428 0
-427 -429 0
-427 -430 0
-428 -429 0
-428 -430 0
-429 -430 0
431 432 433 434 435 0
-431 -432 0
-431 -433 0
-431 -434 0
-431 -435 0
-432 -433 0
-432 -434 0
-432 -435 0
-433 -434 0
-433 -435 0
-434 -435 0
436 437 438 439 440 0
-436 -437 0
-436 -438 0
-436 -439 0
-436 -440 0
-437 -438 0
-437 -439 0
-437 -440 0
-438 -439 0
-438 -440 0
-439 -440 0
441 442 443 444 445 0
-441 -442 0
-441 -443 0
-441 -444 0
-441 -445 0
-442 -443 0
-442 -444 0
-442 -445 0
-443 -444 0
-443 -445 0
-444 -445 0
446 447 448 449 450 0
-446 -447 0
-446 -448 0
-446 -449 0
-446 -450 0
-447 -448 0
-447 -449 0
-447 -450 0
-448 -449 0
-448 -450 0
-449 -450 0
451 452 453 454 455 0
-451 -452 0
-451 -453 0
-451 -454 0
-451 -455 0
-452 -453 0
-452 -454 0
-452 -455 0
-453 -454 0
-453 -455 0
-454 -455 0
456 457 458 459 460 0
-456 -457 0
-456 -458 0
-456 -459 0
-456 -460 0
-457 -458 0
-457 -459 0
-457 -460 0
-458 -459 0
-458 -460 0
-459 -460 0
461 462 463 464 465 0
-461 -462 0
-461 -463 0
-461 -464 0
-461 -465 0
-462 -463 0
-462 -464 0
-462 -465 0
-463 -464 0
-463 -465 0
-464 -465 0
466 467 468 469 470 0
-466 -467 0
-466 -468 0
-466 -469 0
-466 -470 0
-467 -468 0
-467 -469 0
-467 -470 0
-468 -469 0
-468 -470 0
-469 -470 0
471 472 473 474 475 0
-471 -472 0
-471 -473 0
-471 -474 0
-471 -475 0
-472 -473 0
-472 -474 0
-472 -475 0
-473 -474 0
-473 -475 0
-474 -475 0
476 477 478 479 480 0
-476 -477 0
-476 -478 0
-476 -479 0
-476 -480 0
-477 -478 0
-477 -479 0
-477 -480 0
-478 -479 0
-478 -480 0
-479 -480 0
481 482 483 484 485 0
-481 -482 0
-481 -483 0
-481 -484 0
-481 -485 0
-482 -483 0
-482 -484 0
-482 -485 0
-483 -484 0
-483 -485 0
-484 -485 0
486 487 488 489 490 0
-486 -487 0
-486 -488 0
-486 -489 0
-486 -490 0
-487 -488 0
-487 -489 0
-487 -490 0
-488 -489 0
-488 -490 0
-489 -490 0
491 492 493 494 495 0
-491 -492 0
-491 -493 0
-491 -494 0
-491 -495 0
-492 -493 0
-492 -494 0
-492 -495 0
-493 -494 0
-493 -495 0
-494 -495 0
496 497 498 499 500 0
-496 -497 0
-496 -498 0
-496 -499 0
-496 -500 0
-497 -498 0
-497 -499 0
-497 -500 0
-498 -499 0
-498 -500 0
-499 -500 0
501 502 503 504 505 0
-501 -502 0
-501 -503 0
-501 -504 0
-501 -505 0
-502 -503 0
-502 -504 0
-502 -505 0
-503 -504 0
-503 -505 0
-504 -505 0
506 507 508 509 510 0
-506 -507 0
-506 -508 0
-506 -509 0
-506 -510 0
-507 -508 0
-507 -509 0
-507 -510 0
-508 -509 0
-508 -510 0
-509 -510 0
511 512 513 514 515 0
-511 -512 0
-511 -513 0
-511 -514 0
-511 -515 0
-512 -513 0
-512 -514 0
-512 -515 0
-513 -514 0
-513 -515 0
-514 -515 0
516 517 518 519 520 0
-516 -517 0
-516 -518 0
-516 -519 0
-516 -520 0
-517 -518 0
-517 -519 0
-517 -520 0
-518 -519 0
-518 -520 0
-519 -520 0
521 522 523 524 525 0
-521 -522 0
-521 -523 0
-521 -524 0
-521 -525 0
-522 -523 0
-522 -524 0
-522 -525 0
-523 -524 0
-523 -525 0
-524 -525 0
526 527 528 529 530 0
-526 -527 0
-526 -528 0
-526 -529 0
-526 -530 0
-527 -528 0
-527 -529 0
-527 -530 0
-528 -529 0
-528 -530 0
-529 -530 0
531 532 533 534 535 0
-531 -532 0
-531 -533 0
-531 -534 0
-531 -535 0
-532 -533 0
-532 -534 0
-532 -535 0
-533 -534 0
-533 -535 0
-534 -535 0
536 537 538 539 540 0
-536 -537 0
-536 -538 0
-536 -539 0
-536 -540 0
-537 -538 0
-537 -539 0
-537 -540 0
-538 -539 0
-538 -540 0
-539 -540 0
541 542 543 544 545 0
-541 -542 0
-541 -543 0
-541 -544 0
-541 -545 0
-542 -543 0
-542 -544 0
-542 -545 0
-543 -544 0
-543 -545 0
-544 -545 0
546 547 548 549 550 0
-546 -547 0
-546 -548 0
-546 -549 0
-546 -550 0
-547 -548 0
-547 -549 0
-547 -550 0
-548 -549 0
-548 -550 0
-549 -550 0
551 552 553 554 555 0
-551 -552 0
-551 -553 0
-551 -554 0
-551 -555 0
-552 -553 0
-552 -554 0
-552 -555 0
-553 -554 0
-553 -555 0
-554 -555 0
556 557 558 559 560 0
-556 -557 0
-556 -558 0
-556 -559 0
-556 -560 0
-557 -558 0
-557 -559 0
-557 -560 0
-558 -559 0
-558 -560 0
-559 -560 0
561 562 563 564 565 0
-561 -562 0
-561 -563 0
-561 -564 0
-561 -565 0
-562 -563 0
-562 -564 0
-562 -565 0
-563 -564 0
-563 -565 0
-564 -565 0
566 567 568 569 570 0
-566 -567 0
-566 -568 0
-566 -569 0
-566 -570 0
-567 -568 0
-567 -569 0
-567 -570 0
-568 -569 0
-568 -570 0
-569 -570 0
571 572 573 574 575 0
-571 -572 0
-571 -573 0
-571 -574 0
-571 -575 0
-572 -573 0
-572 -574 0
-572 -575 0
-573 -574 0
-573 -575 0
-574 -575 0
576 577 578 579 580 0
-576 -577 0
-576 -578 0
-576 -579 0
-576 -580 0
-577 -578 0
-577 -579 0
-577 -580 0
-578 -579 0
-578 -580 0
-579 -580 0
581 582 583 584 585 0
-581 -582 0
-581 -583 0
-581 -584 0
-581 -585 0
-582 -583 0
-582 -584 0
-582 -585 0
-583 -584 0
-583 -585 0
-584 -585 0
586 587 588 589 590 0
-586 -587 0
-586 -588 0
-586 -589 0
-586 -590 0
-587 -588 0
-587 -589 0
-587 -590 0
-588 -589 0
-588 -590 0
-589 -590 0
591 592 593 594 595 0
-591 -592 0
-591 -593 0
-591 -594 0
-591 -595 0
-592 -593 0
-592 -594 0
-592 -595 0
-593 -594 0
-593 -595 0
-594 -595 0
596 597 598 599 600 0
-596 -597 0
-596 -598 0
-596 -599 0
-596 -600 0
-597 -598 0
-597 -599 0
-597 -600 0
-598 -599 0
-598 -600 0
-599 -600 0
601 602 603 604 605 0
-601 -602 0
-601 -603 0
-601 -604 0
-601 -605 0
-602 -603 0
-602 -604 0
-602 -605 0
-603 -604 0
-603 -605 0
-604 -605 0
606 607 608 609 610 0
-606 -607 0
-606 -608 0
-606 -609 0
-606 -610 0
-607 -608 0
-607 -609 0
-607 -610 0
-608 -609 0
-608 -610 0
-609 -610 0
611 612 613 614 615 0
-611 -612 0
-611 -613 0
-611 -614 0
-611 -615 0
-612 -613 0
-612 -614 0
-612 -615 0
-613 -614 0
-613 -615 0
-614 -615 0
616 617 618 619 620 0
-616 -617 0
-616 -618 0
-616 -619 0
-616 -620 0
-617 -618 0
-617 -619 0
-617 -620 0
-618 -619 0
-618 -620 0
-619 -620 0
621 622 623 624 625 0
-621 -622 0
-621 -623 0
-621 -624 0
-621 -625 0
-622 -623 0
-622 -624 0
-622 -625 0
-623 -624 0
-623 -625 0
-624 -625 0
626 627 628 629 630 0
-626 -627 0
-626 -628 0
-626 -629 0
-626 -630 0
-627 -628 0
-627 -629 0
-627 -630 0
-628 -629 0
-628 -630 0
-629 -630 0
631 632 633 634 635 0
-631 -632 0
-631 -633 0
-631 -634 0
-631 -635 0
-632 -633 0
-632 -634 0
-632 -635 0
-633 -634 0
-633 -635 0
-634 -635 0
636 637 638 639 640 0
-636 -637 0
-636 -638 0
-636 -639 0
-636 -640 0
-637 -638 0
-637 -639 0
-637 -640 0
-638 -639 0
-638 -640 0
-639 -640 0
641 642 643 644 645 0
-641 -642 0
-641 -643 0
-641 -644 0
-641 -645 0
-642 -643 0
-642 -644 0
-642 -645 0
-643 -644 0
-643 -645 0
-644 -645 0
646 647 648 649 650 0
-646 -647 0
-646 -648 0
-646 -649 0
-646 -650 0
-647 -648 0
-647 -649 0
-647 -650 0
-648 -649 0
-648 -650 0
-649 -650 0
651 652 653 654 655 0
-651 -652 0
-651 -653 0
-651 -654 0
-651 -655 0
-652 -653 0
-652 -654 0
-652 -655 0
-653 -654 0
-653 -655 0
-654 -655 0
656 657 658 659 660 0
-656 -657 0
-656 -658 0
-656 -659 0
-656 -660 0
-657 -658 0
-657 -659 0
-657 -660 0
-658 -659 0
-658 -660 0
-659 -660 0
661 662 663 664 665 0
-661 -662 0
-661 -663 0
-661 -664 0
-661 -665 0
-662 -663 0
-662 -664 0
-662 -665 0
-663 -664 0
-663 -665 0
-664 -665 0
666 667 668 669 670 0
-666 -667 0
-666 -668 0
-666 -669 0
-666 -670 0
-667 -668 0
-667 -669 0
-667 -670 0
-668 -669 0
-668 -670 0
-669 -670 0
671 672 673 674 675 0
-671 -672 0
-671 -673 0
-671 -674 0
-671 -675 0
-672 -673 0
-672 -674 0
-672 -675 0
-673 -674 0
-673 -675 0
-674 -675 0
676 677 678 679 680 0
-676 -677 0
-676 -678 0
-676 -679 0
-676 -680 0
-677 -678 0
-677 -679 0
-677 -680 0
-678 -679 0
-678 -680 0
-679 -680 0
681 682 683 684 685 0
-681 -682 0
-681 -683 0
-681 -684 0
-681 -685 0
-682 -683 0
-682 -684 0
-682 -685 0
-683 -684 0
-683 -685 0
-684 -685 0
686 687 688 689 690 0
-686 -687 0
-686 -688 0
-686 -689 0
-686 -690 0
-687 -688 0
-687 -689 0
-687 -690 0
-688 -689 0
-688 -690 0
-689 -690 0
691 692 693 694 695 0
-691 -692 0
-691 -693 0
-691 -694 0
-691 -695 0
-692 -693 0
-692 -694 0
-692 -695 0
-693 -694 0
-693 -695 0
-694 -695 0
696 697 698 699 700 0
-696 -697 0
-696 -698 0
-696 -699 0
-696 -700 0
-697 -698 0
-697 -699 0
-697 -700 0
-698 -699 0
-698 -700 0
-699 -700 0
701 702 703 704 705 0
-701 -702 0
-701 -703 0
-701 -704 0
-701 -705 0
-702 -703 0
-702 -704 0
-702 -705 0
-703 -704 0
-703 -705 0
-704 -705 0
706 707 708 709 710 0
-706 -707 0
-706 -708 0
-706 -709 0
-706 -710 0
-707 -708 0
-707 -709 0
-707 -710 0
-708 -709 0
-708 -710 0
-709 -710 0
711 712 713 714 715 0
-711 -712 0
-711 -713 0
-711 -714 0
-711 -715 0
-712 -713 0
-712 -714 0
-712 -715 0
-713 -714 0
-713 -715 0
-714 -715 0
716 717 718 719 720 0
-716 -717 0
-716 -718 0
-716 -719 0
-716 -720 0
-717 -718 0
-717 -719 0
-717 -720 0
-718 -719 0
-718 -720 0
-719 -720 0
721 722 723 724 725 0
-721 -722 0
-721 -723 0
-721 -724 0
-721 -725 0
-722 -723 0
-722 -724 0
-722 -725 0
-723 -724 0
-723 -725 0
-724 -725 0
726 727 728 729 730 0
-726 -727 0
-726 -728 0
-726 -729 0
-726 -730 0
-727 -728 0
-727 -729 0
-727 -730 0
-728 -729 0
-728 -730 0
-729 -730 0
731 732 733 734 735 0
-731 -732 0
-731 -733 0
-731 -734 0
-731 -735 0
-732 -733 0
-732 -734 0
-732 -735 0
-733 -734 0
-733 -735 0
-734 -735 0
736 737 738 739 740 0
-736 -737 0
-736 -738 0
-736 -739 0
-736 -740 0
-737 -738 0
-737 -739 0
-737 -740 0
-738 -739 0
-738 -740 0
-739 -740 0
741 742 743 744 745 0
-741 -742 0
-741 -743 0
-741 -744 0
-741 -745 0
-742 -743 0
-742 -744 0
-742 -745 0
-743 -744 0
-743 -745 0
-744 -745 0
746 747 748 749 750 0
-746 -747 0
-746 -748 0
-746 -749 0
-746 -750 0
-747 -748 0
-747 -749 0
-747 -750 0
-748 -749 0
-748 -750 0
-749 -750 0
751 752 753 754 755 0
-751 -752 0
-751 -753 0
-751 -754 0
-751 -755 0
-752 -753 0
-752 -754 0
-752 -755 0
-753 -754 0
-753 -755 0
-754 -755 0
756 757 758 759 760 0
-756 -757 0
-756 -758 0
-756 -759 0
-756 -760 0
-757 -758 0
-757 -759 0
-757 -760 0
-758 -759 0
-758 -760 0
-759 -760 0
761 762 763 764 765 0
-761 -762 0
-761 -763 0
-761 -764 0
-761 -765 0
-762 -763 0
-762 -764 0
-762 -765 0
-763 -764 0
-763 -765 0
-764 -765 0
766 767 768 769 770 0
-766 -767 0
-766 -768 0
-766 -769 0
-766 -770 0
-767 -768 0
-767 -769 0
-767 -770 0
-768 -769 0
-768 -770 0
-769 -770 0
771 772 773 774 775 0
-771 -772 0
-771 -773 0
-771 -774 0
-771 -775 0
-772 -773 0
-772 -774 0
-772 -775 0
-773 -774 0
-773 -775 0
-774 -775 0
776 777 778 779 780 0
-776 -777 0
-776 -778 0
-776 -779 0
-776 -780 0
-777 -778 0
-777 -779 0
-777 -780 0
-778 -779 0
-778 -780 0
-779 -780 0
781 782 783 784 785 0
-781 -782 0
-781 -783 0
-781 -784 0
-781 -785 0
-782 -783 0
-782 -784 0
-782 -785 0
-783 -784 0
-783 -785 0
-784 -785 0
786 787 788 789 790 0
-786 -787 0
-786 -788 0
-786 -789 0
-786 -790 0
-787 -788 0
-787 -789 0
-787 -790 0
-788 -789 0
-788 -790 0
-789 -790 0
791 792 793 794 795 0
-791 -792 0
-791 -793 0
-791 -794 0
-791 -795 0
-792 -793 0
-792 -794 0
-792 -795 0
-793 -794 0
-793 -795 0
-794 -795 0
796 797 798 799 800 0
-796 -797 0
-796 -798 0
-796 -799 0
-796 -800 0
-797 -798 0
-797 -799 0
-797 -800 0
-798 -799 0
-798 -800 0
-799 -800 0
801 802 803 804 805 0
-801 -802 0
-801 -803 0
-801 -804 0
-801 -805 0
-802 -803 0
-802 -804 0
-802 -805 0
-803 -804 0
-803 -805 0
-804 -805 0
806 807 808 809 810 0
-806 -807 0
-806 -808 0
-806 -809 0
-806 -810 0
-807 -808 0
-807 -809 0
-807 -810 0
-808 -809 0
-808 -810 0
-809 -810 0
811 812 813 814 815 0
-811 -812 0
-811 -813 0
-811 -814 0
-811 -815 0
-812 -813 0
-812 -814 0
-812 -815 0
-813 -814 0
-813 -815 0
-814 -815 0
816 817 818 819 820 0
-816 -817 0
-816 -818 0
-816 -819 0
-816 -820 0
-817 -818 0
-817 -819 0
-817 -820 0
-818 -819 0
-818 -820 0
-819 -820 0
821 822 823 824 825 0
-821 -822 0
-821 -823 0
-821 -824 0
-821 -825 0
-822 -823 0
-822 -824 0
-822 -825 0
-823 -824 0
-823 -825 0
-824 -825 0
826 827 828 829 830 0
-826 -827 0
-826 -828 0
-826 -829 0
-826 -830 0
-827 -828 0
-827 -829 0
-827 -830 0
-828 -829 0
-828 -830 0
-829 -830 0
831 832 833 834 835 0
-831 -832 0
-831 -833 0
-831 -834 0
-831 -835 0
-832 -833 0
-832 -834 0
-832 -835 0
-833 -834 0
-833 -835 0
-834 -835 0
836 837 838 839 840 0
-836 -837 0
-836 -838 0
-836 -839 0
-836 -840 0
-837 -838 0
-837 -839 0
-837 -840 0
-838 -839 0
-838 -840 0
-839 -840 0
841 842 843 844 845 0
-841 -842 0
-841 -843 0
-841 -844 0
-841 -845 0
-842 -843 0
-842 -844 0
-842 -845 0
-843 -844 0
-843 -845 0
-844 -845 0
846 847 848 849 850 0
-846 -847 0
-846 -848 0
-846 -849 0
-846 -850 0
-847 -848 0
-847 -849 0
-847 -850 0
-848 -849 0
-848 -850 0
-849 -850 0
851 852 853 854 855 0
-851 -852 0
-851 -853 0
-851 -854 0
-851 -855 0
-852 -853 0
-852 -854 0
-852 -855 0
-853 -854 0
-853 -855 0
-854 -855 0
856 857 858 859 860 0
-856 -857 0
-856 -858 0
-856 -859 0
-856 -860 0
-857 -858 0
-857 -859 0
-857 -860 0
-858 -859 0
-858 -860 0
-859 -860 0
861 862 863 864 865 0
-861 -862 0
-861 -863 0
-861 -864 0
-861 -865 0
-862 -863 0
-862 -864 0
-862 -865 0
-863 -864 0
-863 -865 0
-864 -865 0
866 867 868 869 870 0
-866 -867 0
-866 -868 0
-866 -869 0
-866 -870 0
-867 -868 0
-867 -869 0
-867 -870 0
-868 -869 0
-868 -870 0
-869 -870 0
871 872 873 874 875 0
-871 -872 0
-871 -873 0
-871 -874 0
-871 -875 0
-872 -873 0
-872 -874 0
-872 -875 0
-873 -874 0
-873 -875 0
-874 -875 0
876 877 878 879 880 0
-876 -877 0
-876 -878 0
-876 -879 0
-876 -880 0
-877 -878 0
-877 -879 0
-877 -880 0
-878 -879 0
-878 -880 0
-879 -880 0
881 882 883 884 885 0
-881 -882 0
-881 -883 0
-881 -884 0
-881 -885 0
-882 -883 0
-882 -884 0
-882 -885 0
-883 -884 0
-883 -885 0
-884 -885 0
886 887 888 889 890 0
-886 -887 0
-886 -888 0
-886 -889 0
-886 -890 0
-887 -888 0
-887 -889 0
-887 -890 0
-888 -889 0
-888 -890 0
-889 -890 0
891 892 893 894 895 0
-891 -892 0
-891 -893 0
-891 -894 0
-891 -895 0
-892 -893 0
-892 -894 0
-892 -895 0
-893 -894 0
-893 -895 0
-894 -895 0
896 897 898 899 900 0
-896 -897 0
-896 -898 0
-896 -899 0
-896 -900 0
-897 -898 0
-897 -899 0
-897 -900 0
-898 -899 0
-898 -900 0
-899 -900 0
901 902 903 904 905 0
-901 -902 0
-901 -903 0
-901 -904 0
-901 -905 0
-902 -903 0
-902 -904 0
-902 -905 0
-903 -904 0
-903 -905 0
-904 -905 0
906 907 908 909 910 0
-906 -907 0
-906 -908 0
-906 -909 0
-906 -910 0
-907 -908 0
-907 -909 0
-907 -910 0
-908 -909 0
-908 -910 0
-909 -910 0
911 912 913 914 915 0
-911 -912 0
-911 -913 0
-911 -914 0
-911 -915 0
-912 -913 0
-912 -914 0
-912 -915 0
-913 -914 0
-913 -915 0
-914 -915 0
916 917 918 919 920 0
-916 -917 0
-916 -918 0
-916 -919 0
-916 -920 0
-917 -918 0
-917 -919 0
-917 -920 0
-918 -919 0
-918 -920 0
-919 -920 0
921 922 923 924 925 0
-921 -922 0
-921 -923 0
-921 -924 0
-921 -925 0
-922 -923 0
-922 -924 0
-922 -925 0
-923 -924 0
-923 -925 0
-924 -925 0
926 927 928 929 930 0
-926 -927 0
-926 -928 0
-926 -929 0
-926 -930 0
-927 -928 0
-927 -929 0
-927 -930 0
-928 -929 0
-928 -930 0
-929 -930 0
931 932 933 934 935 0
-931 -932 0
-931 -933 0
-931 -934 0
-931 -935 0
-932 -933 0
-932 -934 0
-932 -935 0
-933 -934 0
-933 -935 0
-934 -935 0
936 937 938 939 940 0
-936 -937 0
-936 -938 0
-936 -939 0
-936 -940 0
-937 -938 0
-937 -939 0
-937 -940 0
-938 -939 0
-938 -940 0
-939 -940 0
941 942 943 944 945 0
-941 -942 0
-941 -943 0
-941 -944 0
-941 -945 0
-942 -943 0
-942 -944 0
-942 -945 0
-943 -944 0
-943 -945 0
-944 -945 0
946 947 948 949 950 0
-946 -947 0
-946 -948 0
-946 -949 0
-946 -950 0
-947 -948 0
-947 -949 0
-947 -950 0
-948 -949 0
-948 -950 0
-949 -950 0
951 952 953 954 955 0
-951 -952 0
-951 -953 0
-951 -954 0
-951 -955 0
-952 -953 0
-952 -954 0
-952 -955 0
-953 -954 0
-953 -955 0
-954 -955 0
956 957 958 959 960 0
-956 -957 0
-956 -958 0
-956 -959 0
-956 -960 0
-957 -958 0
-957 -959 0
-957 -960 0
-958 -959 0
-958 -960 0
-959 -960 0
961 962 963 964 965 0
-961 -962 0
-961 -963 0
-961 -964 0
-961 -965 0
-962 -963 0
-962 -964 0
-962 -965 0
-963 -964 0
-963 -965 0
-964 -965 0
966 967 968 969 970 0
-966 -967 0
-966 -968 0
-966 -969 0
-966 -970 0
-967 -968 0
-967 -969 0
-967 -970 0
-968 -969 0
-968 -970 0
-969 -970 0
971 972 973 974 975 0
-971 -972 0
-971 -973 0
-971 -974 0
-971 -975 0
-972 -973 0
-972 -974 0
-972 -975 0
-973 -974 0
-973 -975 0
-974 -975 0
976 977 978 979 980 0
-976 -977 0
-976 -978 0
-976 -979 0
-976 -980 0
-977 -978 0
-977 -979 0
-977 -980 0
-978 -979 0
-978 -980 0
-979 -980 0
981 982 983 984 985 0
-981 -982 0
-981 -983 0
-981 -984 0
-981 -985 0
-982 -983 0
-982 -984 0
-982 -985 0
-983 -984 0
-983 -985 0
-984 -985 0
986 987 988 989 990 0
-986 -987 0
-986 -988 0
-986 -989 0
-986 -990 0
-987 -988 0
-987 -989 0
-987 -990 0
-988 -989 0
-988 -990 0
-989 -990 0
991 992 993 994 995 0
-991 -992 0
-991 -993 0
-991 -994 0
-991 -995 0
-992 -993 0
-992 -994 0
-992 -995 0
-993 -994 0
-993 -995 0
-994 -995 0
996 997 998 999 1000 0
-996 -997 0
-996 -998 0
-996 -999 0
-996 -1000 0
-997 -998 0
-997 -999 0
-997 -1000 0
-998 -999 0
-998 -1000 0
-999 -1000 0
1001 1002 1003 1004 1005 0
-1001 -1002 0
-1001 -1003 0
-1001 -1004 0
-1001 -1005 0
-1002 -1003 0
-1002 -1004 0
-1002 -1005 0
-1003 -1004 0
-1003 -1005 0
-1004 -1005 0
1006 1007 1008 1009 1010 0
-1006 -1007 0
-1006 -1008 0
-1006 -1009 0
-1006 -1010 0
-1007 -1008 0
-1007 -1009 0
-1007 -1010 0
-1008 -1009 0
-1008 -1010 0
-1009 -1010 0
1011 1012 1013 1014 1015 0
-1011 -1012 0
-1011 -1013 0
-1011 -1014 0
-1011 -1015 0
-1012 -1013 0
-1012 -1014 0
-1012 -1015 0
-1013 -1014 0
-1013 -1015 0
-1014 -1015 0
1016 1017 1018 1019 1020 0
-1016 -1017 0
-1016 -1018 0
-1016 -1019 0
-1016 -1020 0
-1017 -1018 0
-1017 -1019 0
-1017 -1020 0
-1018 -1019 0
-1018 -1020 0
-1019 -1020 0
1021 1022 1023 1024 1025 0
-1021 -1022 0
-1021 -1023 0
-1021 -1024 0
-1021 -1025 0
-1022 -1023 0
-1022 -1024 0
-1022 -1025 0
-1023 -1024 0
-1023 -1025 0
-1024 -1025 0
1026 1027 1028 1029 1030 0
-1026 -1027 0
-1026 -1028 0
-1026 -1029 0
-1026 -1030 0
-1027 -1028 0
-1027 -1029 0
-1027 -1030 0
-1028 -1029 0
-1028 -1030 0
-1029 -1030 0
1031 1032 1033 1034 1035 0
-1031 -1032 0
-1031 -1033 0
-1031 -1034 0
-1031 -1035 0
-1032 -1033 0
-1032 -1034 0
-1032 -1035 0
-1033 -1034 0
-1033 -1035 0
-1034 -1035 0
1036 1037 1038 1039 1040 0
-1036 -1037 0
-1036 -1038 0
-1036 -1039 0
-1036 -1040 0
-1037 -1038 0
-1037 -1039 0
-1037 -1040 0
-1038 -1039 0
-1038 -1040 0
-1039 -1040 0
1041 1042 1043 1044 1045 0
-1041 -1042 0
-1041 -1043 0
-1041 -1044 0
-1041 -1045 0
-1042 -1043 0
-1042 -1044 0
-1042 -1045 0
-1043 -1044 0
-1043 -1045 0
-1044 -1045 0
1046 1047 1048 1049 1050 0
-1046 -1047 0
-1046 -1048 0
-1046 -1049 0
-1046 -1050 0
-1047 -1048 0
-1047 -1049 0
-1047 -1050 0
-1048 -1049 0
-1048 -1050 0
-1049 -1050 0
1051 1052 1053 1054 1055 0
-1051 -1052 0
-1051 -1053 0
-1051 -1054 0
-1051 -1055 0
-1052 -1053 0
-1052 -1054 0
-1052 -1055 0
-1053 -1054 0
-1053 -1055 0
-1054 -1055 0
1056 1057 1058 1059 1060 0
-1056 -1057 0
-1056 -1058 0
-1056 -1059 0
-1056 -1060 0
-1057 -1058 0
-1057 -1059 0
-1057 -1060 0
-1058 -1059 0
-1058 -1060 0
-1059 -1060 0
1061 1062 1063 1064 1065 0
-1061 -1062 0
-1061 -1063 0
-1061 -1064 0
-1061 -1065 0
-1062 -1063 0
-1062 -1064 0
-1062 -1065 0
-1063 -1064 0
-1063 -1065 0
-1064 -1065 0
1066 1067 1068 1069 1070 0
-1066 -1067 0
-1066 -1068 0
-1066 -1069 0
-1066 -1070 0
-1067 -1068 0
-1067 -1069 0
-1067 -1070 0
-1068 -1069 0
-1068 -1070 0
-1069 -1070 0
1071 1072 1073 1074 1075 0
-1071 -1072 0
-1071 -1073 0
-1071 -1074 0
-1071 -1075 0
-1072 -1073 0
-1072 -1074 0
-1072 -1075 0
-1073 -1074 0
-1073 -1075 0
-1074 -1075 0
1076 1077 1078 1079 1080 0
-1076 -1077 0
-1076 -1078 0
-1076 -1079 0
-1076 -1080 0
-1077 -1078 0
-1077 -1079 0
-1077 -1080 0
-1078 -1079 0
-1078 -1080 0
-1079 -1080 0
1081 1082 1083 1084 1085 0
-1081 -1082 0
-1081 -1083 0
-1081 -1084 0
-1081 -1085 0
-1082 -1083 0
-1082 -1084 0
-1082 -1085 0
-1083 -1084 0
-1083 -1085 0
-1084 -1085 0
1086 1087 1088 1089 1090 0
-1086 -1087 0
-1086 -1088 0
-1086 -1089 0
-1086 -1090 0
-1087 -1088 0
-1087 -1089 0
-1087 -1090 0
-1088 -1089 0
-1088 -1090 0
-1089 -1090 0
1091 1092 1093 1094 1095 0
-1091 -1092 0
-1091 -1093 0
-1091 -1094 0
-1091 -1095 0
-1092 -1093 0
-1092 -1094 0
-1092 -1095 0
-1093 -1094 0
-1093 -1095 0
-1094 -1095 0
1096 1097 1098 1099 1100 0
-1096 -1097 0
-1096 -1098 0
-1096 -1099 0
-1096 -1100 0
-1097 -1098 0
-1097 -1099 0
-1097 -1100 0
-1098 -1099 0
-1098 -1100 0
-1099 -1100 0
1101 1102 1103 1104 1105 0
-1101 -1102 0
-1101 -1103 0
-1101 -1104 0
-1101 -1105 0
-1102 -1103 0
-1102 -1104 0
-1102 -1105 0
-1103 -1104 0
-1103 -1105 0
-1104 -1105 0
1106 1107 1108 1109 1110 0
-1106 -1107 0
-1106 -1108 0
-1106 -1109 0
-1106 -1110 0
-1107 -1108 0
-1107 -1109 0
-1107 -1110 0
-1108 -1109 0
-1108 -1110 0
-1109 -1110 0
1111 1112 1113 1114 1115 0
-1111 -1112 0
-1111 -1113 0
-1111 -1114 0
-1111 -1115 0
-1112 -1113 0
-1112 -1114 0
-1112 -1115 0
-1113 -1114 0
-1113 -1115 0
-1114 -1115 0
1116 1117 1118 1119 1120 0
-1116 -1117 0
-1116 -1118 0
-1116 -1119 0
-1116 -1120 0
-1117 -1118 0
-1117 -1119 0
-1117 -1120 0
-1118 -1119 0
-1118 -1120 0
-1119 -1120 0
1121 1122 1123 1124 1125 0
-1121 -1122 0
-1121 -1123 0
-1121 -1124 0
-1121 -1125 0
-1122 -1123 0
-1122 -1124 0
-1122 -1125 0
-1123 -1124 0
-1123 -1125 0
-1124 -1125 0
1126 1127 1128 1129 1130 0
-1126 -1127 0
-1126 -1128 0
-1126 -1129 0
-1126 -1130 0
-1127 -1128 0
-1127 -1129 0
-1127 -1130 0
-1128 -1129 0
-1128 -1130 0
-1129 -1130 0
1131 1132 1133 1134 1135 0
-1131 -1132 0
-1131 -1133 0
-1131 -1134 0
-1131 -1135 0
-1132 -1133 0
-1132 -1134 0
-1132 -1135 0
-1133 -1134 0
-1133 -1135 0
-1134 -1135 0
1136 1137 1138 1139 1140 0
-1136 -1137 0
-1136 -1138 0
-1136 -1139 0
-1136 -1140 0
-1137 -1138 0
-1137 -1139 0
-1137 -1140 0
-1138 -1139 0
-1138 -1140 0
-1139 -1140 0
1141 1142 1143 1144 1145 0
-1141 -1142 0
-1141 -1143 0
-1141 -1144 0
-1141 -1145 0
-1142 -1143 0
-1142 -1144 0
-1142 -1145 0
-1143 -1144 0
-1143 -1145 0
-1144 -1145 0
1146 1147 1148 1149 1150 0
-1146 -1147 0
-1146 -1148 0
-1146 -1149 0
-1146 -1150 0
-1147 -1148 0
-1147 -1149 0
-1147 -1150 0
-1148 -1149 0
-1148 -1150 0
-1149 -1150 0
1151 1152 1153 1154 1155 0
-1151 -1152 0
-1151 -1153 0
-1151 -1154 0
-1151 -1155 0
-1152 -1153 0
-1152 -1154 0
-1152 -1155 0
-1153 -1154 0
-1153 -1155 0
-1154 -1155 0
1156 1157 1158 1159 1160 0
-1156 -1157 0
-1156 -1158 0
-1156 -1159 0
-1156 -1160 0
-1157 -1158 0
-1157 -1159 0
-1157 -1160 0
-1158 -1159 0
-1158 -1160 0
-1159 -1160 0
1161 1162 1163 1164 1165 0
-1161 -1162 0
-1161 -1163 0
-1161 -1164 0
-1161 -1165 0
-1162 -1163 0
-1162 -1164 0
-1162 -1165 0
-1163 -1164 0
-1163 -1165 0
-1164 -1165 0
1166 1167 1168 1169 1170 0
-1166 -1167 0
-1166 -1168 0
-1166 -1169 0
-1166 -1170 0
-1167 -1168 0
-1167 -1169 0
-1167 -1170 0
-1168 -1169 0
-1168 -1170 0
-1169 -1170 0
1171 1172 1173 1174 1175 0
-1171 -1172 0
-1171 -1173 0
-1171 -1174 0
-1171 -1175 0
-1172 -1173 0
-1172 -1174 0
-1172 -1175 0
-1173 -1174 0
-1173 -1175 0
-1174 -1175 0
1176 1177 1178 1179 1180 0
-1176 -1177 0
-1176 -1178 0
-1176 -1179 0
-1176 -1180 0
-1177 -1178 0
-1177 -1179 0
-1177 -1180 0
-1178 -1179 0
-1178 -1180 0
-1179 -1180 0
1181 1182 1183 1184 1185 0
-1181 -1182 0
-1181 -1183 0
-1181 -1184 0
-1181 -1185 0
-1182 -1183 0
-1182 -1184 0
-1182 -1185 0
-1183 -1184 0
-1183 -1185 0
-1184 -1185 0
1186 1187 1188 1189 1190 0
-1186 -1187 0
-1186 -1188 0
-1186 -1189 0
-1186 -1190 0
-1187 -1188 0
-1187 -1189 0
-1187 -1190 0
-1188 -1189 0
-1188 -1190 0
-1189 -1190 0
1191 1192 1193 1194 1195 0
-1191 -1192 0
-1191 -1193 0
-1191 -1194 0
-1191 -1195 0
-1192 -1193 0
-1192 -1194 0
-1192 -1195 0
-1193 -1194 0
-1193 -1195 0
-1194 -1195 0
1196 1197 1198 1199 1200 0
-1196 -1197 0
-1196 -1198 0
-1196 -1199 0
-1196 -1200 0
-1197 -1198 0
-1197 -1199 0
-1197 -1200 0
-1198 -1199 0
-1198 -1200 0
-1199 -1200 0
1201 1202 1203 1204 1205 0
-1201 -1202 0
-1201 -1203 0
-1201 -1204 0
-1201 -1205 0
-1202 -1203 0
-1202 -1204 0
-1202 -1205 0
-1203 -1204 0
-1203 -1205 0
-1204 -1205 0
1206 1207 1208 1209 1210 0
-1206 -1207 0
-1206 -1208 0
-1206 -1209 0
-1206 -1210 0
-1207 -1208 0
-1207 -1209 0
-1207 -1210 0
-1208 -1209 0
-1208 -1210 0
-1209 -1210 0
1211 1212 1213 1214 1215 0
-1211 -1212 0
-1211 -1213 0
-1211 -1214 0
-1211 -1215 0
-1212 -1213 0
-1212 -1214 0
-1212 -1215 0
-1213 -1214 0
-1213 -1215 0
-1214 -1215 0
1216 1217 1218 1219 1220 0
-1216 -1217 0
-1216 -1218 0
-1216 -1219 0
-1216 -1220 0
-1217 -1218 0
-1217 -1219 0
-1217 -1220 0
-1218 -1219 0
-1218 -1220 0
-1219 -1220 0
1221 1222 1223 1224 1225 0
-1221 -1222 0
-1221 -1223 0
-1221 -1224 0
-1221 -1225 0
-1222 -1223 0
-1222 -1224 0
-1222 -1225 0
-1223 -1224 0
-1223 -1225 0
-1224 -1225 0
1226 1227 1228 1229 1230 0
-1226 -1227 0
-1226 -1228 0
-1226 -1229 0
-1226 -1230 0
-1227 -1228 0
-1227 -1229 0
-1227 -1230 0
-1228 -1229 0
-1228 -1230 0
-1229 -1230 0
1231 1232 1233 1234 1235 0
-1231 -1232 0
-1231 -1233 0
-1231 -1234 0
-1231 -1235 0
-1232 -1233 0
-1232 -1234 0
-1232 -1235 0
-1233 -1234 0
-1233 -1235 0
-1234 -1235 0
1236 1237 1238 1239 1240 0
-1236 -1237 0
-1236 -1238 0
-1236 -1239 0
-1236 -1240 0
-1237 -1238 0
-1237 -1239 0
-1237 -1240 0
-1238 -1239 0
-1238 -1240 0
-1239 -1240 0
1241 1242 1243 1244 1245 0
-1241 -1242 0
-1241 -1243 0
-1241 -1244 0
-1241 -1245 0
-1242 -1243 0
-1242 -1244 0
-1242 -1245 0
-1243 -1244 0
-1243 -1245 0
-1244 -1245 0
1246 1247 1248 1249 1250 0
-1246 -1247 0
-1246 -1248 0
-1246 -1249 0
-1246 -1250 0
-1247 -1248 0
-1247 -1249 0
-1247 -1250 0
-1248 -1249 0
-1248 -1250 0
-1249 -1250 0
1251 1252 1253 1254 1255 0
-1251 -1252 0
-1251 -1253 0
-1251 -1254 0
-1251 -1255 0
-1252 -1253 0
-1252 -1254 0
-1252 -1255 0
-1253 -1254 0
-1253 -1255 0
-1254 -1255 0
1256 1257 1258 1259 1260 0
-1256 -1257 0
-1256 -1258 0
-1256 -1259 0
-1256 -1260 0
-1257 -1258 0
-1257 -1259 0
-1257 -1260 0
-1258 -1259 0
-1258 -1260 0
-1259 -1260 0
1261 1262 1263 1264 1265 0
-1261 -1262 0
-1261 -1263 0
-1261 -1264 0
-1261 -1265 0
-1262 -1263 0
-1262 -1264 0
-1262 -1265 0
-1263 -1264 0
-1263 -1265 0
-1264 -1265 0
1266 1267 1268 1269 1270 0
-1266 -1267 0
-1266 -1268 0
-1266 -1269 0
-1266 -1270 0
-1267 -1268 0
-1267 -1269 0
-1267 -1270 0
-1268 -1269 0
-1268 -1270 0
-1269 -1270 0
1271 1272 1273 1274 1275 0
-1271 -1272 0
-1271 -1273 0
-1271 -1274 0
-1271 -1275 0
-1272 -1273 0
-1272 -1274 0
-1272 -1275 0
-1273 -1274 0
-1273 -1275 0
-1274 -1275 0
1276 1277 1278 1279 1280 0
-1276 -1277 0
-1276 -1278 0
-1276 -1279 0
-1276 -1280 0
-1277 -1278 0
-1277 -1279 0
-1277 -1280 0
-1278 -1279 0
-1278 -1280 0
-1279 -1280 0
1281 1282 1283 1284 1285 0
-1281 -1282 0
-1281 -1283 0
-1281 -1284 0
-1281 -1285 0
-1282 -1283 0
-1282 -1284 0
-1282 -1285 0
-1283 -1284 0
-1283 -1285 0
-1284 -1285 0
1286 1287 1288 1289 1290 0
-1286 -1287 0
-1286 -1288 0
-1286 -1289 0
-1286 -1290 0
-1287 -1288 0
-1287 -1289 0
-1287 -1290 0
-1288 -1289 0
-1288 -1290 0
-1289 -1290 0
1291 1292 1293 1294 1295 0
-1291 -1292 0
-1291 -1293 0
-1291 -1294 0
-1291 -1295 0
-1292 -1293 0
-1292 -1294 0
-1292 -1295 0
-1293 -1294 0
-1293 -1295 0
-1294 -1295 0
1296 1297 1298 1299 1300 0
-1296 -1297 0
-1296 -1298 0
-1296 -1299 0
-1296 -1300 0
-1297 -1298 0
-1297 -1299 0
-1297 -1300 0
-1298 -1299 0
-1298 -1300 0
-1299 -1300 0
1301 1302 1303 1304 1305 0
-1301 -1302 0
-1301 -1303 0
-1301 -1304 0
-1301 -1305 0
-1302 -1303 0
-1302 -1304 0
-1302 -1305 0
-1303 -1304 0
-1303 -1305 0
-1304 -1305 0
1306 1307 1308 1309 1310 0
-1306 -1307 0
-1306 -1308 0
-1306 -1309 0
-1306 -1310 0
-1307 -1308 0
-1307 -1309 0
-1307 -1310 0
-1308 -1309 0
-1308 -1310 0
-1309 -1310 0
1311 1312 1313 1314 1315 0
-1311 -1312 0
-1311 -1313 0
-1311 -1314 0
-1311 -1315 0
-1312 -1313 0
-1312 -1314 0
-1312 -1315 0
-1313 -1314 0
-1313 -1315 0
-1314 -1315 0
1316 1317 1318 1319 1320 0
-1316 -1317 0
-1316 -1318 0
-1316 -1319 0
-1316 -1320 0
-1317 -1318 0
-1317 -1319 0
-1317 -1320 0
-1318 -1319 0
-1318 -1320 0
-1319 -1320 0
1321 1322 1323 1324 1325 0
-1321 -1322 0
-1321 -1323 0
-1321 -1324 0
-1321 -1325 0
-1322 -1323 0
-1322 -1324 0
-1322 -1325 0
-1323 -1324 0
-1323 -1325 0
-1324 -1325 0
1326 1327 1328 1329 1330 0
-1326 -1327 0
-1326 -1328 0
-1326 -1329 0
-1326 -1330 0
-1327 -1328 0
-1327 -1329 0
-1327 -1330 0
-1328 -1329 0
-1328 -1330 0
-1329 -1330 0
1331 1332 1333 1334 1335 0
-1331 -1332 0
-1331 -1333 0
-1331 -1334 0
-1331 -1335 0
-1332 -1333 0
-1332 -1334 0
-1332 -1335 0
-1333 -1334 0
-1333 -1335 0
-1334 -1335 0
1336 1337 1338 1339 1340 0
-1336 -1337 0
-1336 -1338 0
-1336 -1339 0
-1336 -1340 0
-1337 -1338 0
-1337 -1339 0
-1337 -1340 0
-1338 -1339 0
-1338 -1340 0
-1339 -1340 0
1341 1342 1343 1344 1345 0
-1341 -1342 0
-1341 -1343 0
-1341 -1344 0
-1341 -1345 0
-1342 -1343 0
-1342 -1344 0
-1342 -1345 0
-1343 -1344 0
-1343 -1345 0
-1344 -1345 0
1346 1347 1348 1349 1350 0
-1346 -1347 0
-1346 -1348 0
-1346 -1349 0
-1346 -1350 0
-1347 -1348 0
-1347 -1349 0
-1347 -1350 0
-1348 -1349 0
-1348 -1350 0
-1349 -1350 0
1351 1352 1353 1354 1355 0
-1351 -1352 0
-1351 -1353 0
-1351 -1354 0
-1351 -1355 0
-1352 -1353 0
-1352 -1354 0
-1352 -1355 0
-1353 -1354 0
-1353 -1355 0
-1354 -1355 0
1356 1357 1358 1359 1360 0
-1356 -1357 0
-1356 -1358 0
-1356 -1359 0
-1356 -1360 0
-1357 -1358 0
-1357 -1359 0
-1357 -1360 0
-1358 -1359 0
-1358 -1360 0
-1359 -1360 0
1361 1362 1363 1364 1365 0
-1361 -1362 0
-1361 -1363 0
-1361 -1364 0
-1361 -1365 0
-1362 -1363 0
-1362 -1364 0
-1362 -1365 0
-1363 -1364 0
-1363 -1365 0
-1364 -1365 0
1366 1367 1368 1369 1370 0
-1366 -1367 0
-1366 -1368 0
-1366 -1369 0
-1366 -1370 0
-1367 -1368 0
-1367 -1369 0
-1367 -1370 0
-1368 -1369 0
-1368 -1370 0
-1369 -1370 0
1371 1372 1373 1374 1375 0
-1371 -1372 0
-1371 -1373 0
-1371 -1374 0
-1371 -1375 0
-1372 -1373 0
-1372 -1374 0
-1372 -1375 0
-1373 -1374 0
-1373 -1375 0
-1374 -1375 0
1376 1377 1378 1379 1380 0
-1376 -1377 0
-1376 -1378 0
-1376 -1379 0
-1376 -1380 0
-1377 -1378 0
-1377 -1379 0
-1377 -1380 0
-1378 -1379 0
-1378 -1380 0
-1379 -1380 0
1381 1382 1383 1384 1385 0
-1381 -1382 0
-1381 -1383 0
-1381 -1384 0
-1381 -1385 0
-1382 -1383 0
-1382 -1384 0
-1382 -1385 0
-1383 -1384 0
-1383 -1385 0
-1384 -1385 0
1386 1387 1388 1389 1390 0
-1386 -1387 0
-1386 -1388 0
-1386 -1389 0
-1386 -1390 0
-1387 -1388 0
-1387 -1389 0
-1387 -1390 0
-1388 -1389 0
-1388 -1390 0
-1389 -1390 0
1391 1392 1393 1394 1395 0
-1391 -1392 0
-1391 -1393 0
-1391 -1394 0
-1391 -1395 0
-1392 -1393 0
-1392 -1394 0
-1392 -1395 0
-1393 -1394 0
-1393 -1395 0
-1394 -1395 0
1396 1397 1398 1399 1400 0
-1396 -1397 0
-1396 -1398 0
-1396 -1399 0
-1396 -1400 0
-1397 -1398 0
-1397 -1399 0
-1397 -1400 0
-1398 -1399 0
-1398 -1400 0
-1399 -1400 0
1401 1402 1403 1404 1405 0
-1401 -1402 0
-1401 -1403 0
-1401 -1404 0
-1401 -1405 0
-1402 -1403 0
-1402 -1404 0
-1402 -1405 0
-1403 -1404 0
-1403 -1405 0
-1404 -1405 0
1406 1407 1408 1409 1410 0
-1406 -1407 0
-1406 -1408 0
-1406 -1409 0
-1406 -1410 0
-1407 -1408 0
-1407 -1409 0
-1407 -1410 0
-1408 -1409 0
-1408 -1410 0
-1409 -1410 0
1411 1412 1413 1414 1415 0
-1411 -1412 0
-1411 -1413 0
-1411 -1414 0
-1411 -1415 0
-1412 -1413 0
-1412 -1414 0
-1412 -1415 0
-1413 -1414 0
-1413 -1415 0
-1414 -1415 0
1416 1417 1418 1419 1420 0
-1416 -1417 0
-1416 -1418 0
-1416 -1419 0
-1416 -1420 0
-1417 -1418 0
-1417 -1419 0
-1417 -1420 0
-1418 -1419 0
-1418 -1420 0
-1419 -1420 0
1421 1422 1423 1424 1425 0
-1421 -1422 0
-1421 -1423 0
-1421 -1424 0
-1421 -1425 0
-1422 -1423 0
-1422 -1424 0
-1422 -1425 0
-1423 -1424 0
-1423 -1425 0
-1424 -1425 0
1 6 11 16 21 0
-1 -6 0
-1 -11 0
-1 -16 0
-1 -21 0
-6 -11 0
-6 -16 0
-6 -21 0
-11 -16 0
-11 -21 0
-16 -21 0
2 7 12 17 22 0
-2 -7 0
-2 -12 0
-2 -17 0
-2 -22 0
-7 -12 0
-7 -17 0
-7 -22 0
-12 -17 0
-12 -22 0
-17 -22 0
3 8 13 18 23 0
-3 -8 0
-3 -13 0
-3 -18 0
-3 -23 0
-8 -13 0
-8 -18 0
-8 -23 0
-13 -18 0
-13 -23 0
-18 -23 0
4 9 14 19 24 0
-4 -9 0
-4 -14 0
-4 -19 0
-4 -24 0
-9 -14 0
-9 -19 0
-9 -24 0
-14 -19 0
-14 -24 0
-19 -24 0
5 10 15 20 25 0
-5 -10 0
-5 -15 0
-5 -20 0
-5 -25 0
-10 -15 0
-10 -20 0
-10 -25 0
-15 -20 0
-15 -25 0
-20 -25 0
1 26 31 36 41 0
-1 -26 0
-1 -31 0
-1 -36 0
-1 -41 0
-26 -31 0
-26 -36 0
-26 -41 0
-31 -36 0
-31 -41 0
-36 -41 0
2 27 32 37 42 0
-2 -27 0
-2 -32 0
-2 -37 0
-2 -42 0
-27 -32 0
-27 -37 0
-27 -42 0
-32 -37 0
-32 -42 0
-37 -42 0
3 28 33 38 43 0
-3 -28 0
-3 -33 0
-3 -38 0
-3 -43 0
-28 -33 0
-28 -38 0
-28 -43 0
-33 -38 0
-33 -43 0
-38 -43 0
4 29 34 39 44 0
-4 -29 0
-4 -34 0
-4 -39 0
-4 -44 0
-29 -34 0
-29 -39 0
-29 -44 0
-34 -39 0
-34 -44 0
-39 -44 0
5 30 35 40 45 0
-5 -30 0
-5 -35 0
-5 -40 0
-5 -45 0
-30 -35 0
-30 -40 0
-30 -45 0
-35 -40 0
-35 -45 0
-40 -45 0
1 226 231 236 241 0
-1 -226 0
-1 -231 0
-1 -236 0
-1 -241 0
-226 -231 0
-226 -236 0
-226 -241 0
-231 -236 0
-231 -241 0
-236 -241 0
2 227 232 237 242 0
-2 -227 0
-2 -232 0
-2 -237 0
-2 -242 0
-227 -232 0
-227 -237 0
-227 -242 0
-232 -237 0
-232 -242 0
-237 -242 0
3 228 233 238 243 0
-3 -228 0
-3 -233 0
-3 -238 0
-3 -243 0
-228 -233 0
-228 -238 0
-228 -243 0
-233 -238 0
-233 -243 0
-238 -243 0
4 229 234 239 244 0
-4 -229 0
-4 -234 0
-4 -239 0
-4 -244 0
-229 -234 0
-229 -239 0
-229 -244 0
-234 -239 0
-234 -244 0
-239 -244 0
5 230 235 240 245 0
-5 -230 0
-5 -235 0
-5 -240 0
-5 -245 0
-230 -235 0
-230 -240 0
-230 -245 0
-235 -240 0
-235 -245 0
-240 -245 0
6 96 116 121 126 0
-6 -96 0
-6 -116 0
-6 -121 0
-6 -126 0
-96 -116 0
-96 -121 0
-96 -126 0
-116 -121 0
-116 -126 0
-121 -126 0
7 97 117 122 127 0
-7 -97 0
-7 -117 0
-7 -122 0
-7 -127 0
-97 -117 0
-97 -122 0
-97 -127 0
-117 -122 0
-117 -127 0
-122 -127 0
8 98 118 123 128 0
-8 -98 0
-8 -118 0
-8 -123 0
-8 -128 0
-98 -118 0
-98 -123 0
-98 -128 0
-118 -123 0
-118 -128 0
-123 -128 0
9 99 119 124 129 0
-9 -99 0
-9 -119 0
-9 -124 0
-9 -129 0
-99 -119 0
-99 -124 0
-99 -129 0
-119 -124 0
-119 -129 0
-124 -129 0
10 100 120 125 130 0
-10 -100 0
-10 -120 0
-10 -125 0
-10 -130 0
-100 -120 0
-100 -125 0
-100 -130 0
-120 -125 0
-120 -130 0
-125 -130 0
6 306 311 316 321 0
-6 -306 0
-6 -311 0
-6 -316 0
-6 -321 0
-306 -311 0
-306 -316 0
-306 -321 0
-311 -316 0
-311 -321 0
-316 -321 0
7 307 312 317 322 0
-7 -307 0
-7 -312 0
-7 -317 0
-7 -322 0
-307 -312 0
-307 -317 0
-307 -322 0
-312 -317 0
-312 -322 0
-317 -322 0
8 308 313 318 323 0
-8 -308 0
-8 -313 0
-8 -318 0
-8 -323 0
-308 -313 0
-308 -318 0
-308 -323 0
-313 -318 0
-313 -323 0
-318 -323 0
9 309 314 319 324 0
-9 -309 0
-9 -314 0
-9 -319 0
-9 -324 0
-309 -314 0
-309 -319 0
-309 -324 0
-314 -319 0
-314 -324 0
-319 -324 0
10 310 315 320 325 0
-10 -310 0
-10 -315 0
-10 -320 0
-10 -325 0
-310 -315 0
-310 -320 0
-310 -325 0
-315 -320 0
-315 -325 0
-320 -325 0
11 141 156 171 176 0
-11 -141 0
-11 -156 0
-11 -171 0
-11 -176 0
-141 -156 0
-141 -171 0
-141 -176 0
-156 -171 0
-156 -176 0
-171 -176 0
12 142 157 172 177 0
-12 -142 0
-12 -157 0
-12 -172 0
-12 -177 0
-142 -157 0
-142 -172 0
-142 -177 0
-157 -172 0
-157 -177 0
-172 -177 0
13 143 158 173 178 0
-13 -143 0
-13 -158 0
-13 -173 0
-13 -178 0
-143 -158 0
-143 -173 0
-143 -178 0
-158 -173 0
-158 -178 0
-173 -178 0
14 144 159 174 179 0
-14 -144 0
-14 -159 0
-14 -174 0
-14 -179 0
-144 -159 0
-144 -174 0
-144 -179 0
-159 -174 0
-159 -179 0
-174 -179 0
15 145 160 175 180 0
-15 -145 0
-15 -160 0
-15 -175 0
-15 -180 0
-145 -160 0
-145 -175 0
-145 -180 0
-160 -175 0
-160 -180 0
-175 -180 0
11 361 366 371 376 0
-11 -361 0
-11 -366 0
-11 -371 0
-11 -376 0
-361 -366 0
-361 -371 0
-361 -376 0
-366 -371 0
-366 -376 0
-371 -376 0
12 362 367 372 377 0
-12 -362 0
-12 -367 0
-12 -372 0
-12 -377 0
-362 -367 0
-362 -372 0
-362 -377 0
-367 -372 0
-367 -377 0
-372 -377 0
13 363 368 373 378 0
-13 -363 0
-13 -368 0
-13 -373 0
-13 -378 0
-363 -368 0
-363 -373 0
-363 -378 0
-368 -373 0
-368 -378 0
-373 -378 0
14 364 369 374 379 0
-14 -364 0
-14 -369 0
-14 -374 0
-14 -379 0
-364 -369 0
-364 -374 0
-364 -379 0
-369 -374 0
-369 -379 0
-374 -379 0
15 365 370 375 380 0
-15 -365 0
-15 -370 0
-15 -375 0
-15 -380 0
-365 -370 0
-365 -375 0
-365 -380 0
-370 -375 0
-370 -380 0
-375 -380 0
16 36 56 151 191 0
-16 -36 0
-16 -56 0
-16 -151 0
-16 -191 0
-36 -56 0
-36 -151 0
-36 -191 0
-56 -151 0
-56 -191 0
-151 -191 0
17 37 57 152 192 0
-17 -37 0
-17 -57 0
-17 -152 0
-17 -192 0
-37 -57 0
-37 -152 0
-37 -192 0
-57 -152 0
-57 -192 0
-152 -192 0
18 38 58 153 193 0
-18 -38 0
-18 -58 0
-18 -153 0
-18 -193 0
-38 -58 0
-38 -153 0
-38 -193 0
-58 -153 0
-58 -193 0
-153 -193 0
19 39 59 154 194 0
-19 -39 0
-19 -59 0
-19 -154 0
-19 -194 0
-39 -59 0
-39 -154 0
-39 -194 0
-59 -154 0
-59 -194 0
-154 -194 0
20 40 60 155 195 0
-20 -40 0
-20 -60 0
-20 -155 0
-20 -195 0
-40 -60 0
-40 -155 0
-40 -195 0
-60 -155 0
-60 -195 0
-155 -195 0
16 366 386 391 396 0
-16 -366 0
-16 -386 0
-16 -391 0
-16 -396 0
-366 -386 0
-366 -391 0
-366 -396 0
-386 -391 0
-386 -396 0
-391 -396 0
17 367 387 392 397 0
-17 -367 0
-17 -387 0
-17 -392 0
-17 -397 0
-367 -387 0
-367 -392 0
-367 -397 0
-387 -392 0
-387 -397 0
-392 -397 0
18 368 388 393 398 0
-18 -368 0
-18 -388 0
-18 -393 0
-18 -398 0
-368 -388 0
-368 -393 0
-368 -398 0
-388 -393 0
-388 -398 0
-393 -398 0
19 369 389 394 399 0
-19 -369 0
-19 -389 0
-19 -394 0
-19 -399 0
-369 -389 0
-369 -394 0
-369 -399 0
-389 -394 0
-389 -399 0
-394 -399 0
20 370 390 395 400 0
-20 -370 0
-20 -390 0
-20 -395 0
-20 -400 0
-370 -390 0
-370 -395 0
-370 -400 0
-390 -395 0
-390 -400 0
-395 -400 0
21 86 176 191 211 0
-21 -86 0
-21 -176 0
-21 -191 0
-21 -211 0
-86 -176 0
-86 -191 0
-86 -211 0
-176 -191 0
-176 -211 0
-191 -211 0
22 87 177 192 212 0
-22 -87 0
-22 -177 0
-22 -192 0
-22 -212 0
-87 -177 0
-87 -192 0
-87 -212 0
-177 -192 0
-177 -212 0
-192 -212 0
23 88 178 193 213 0
-23 -88 0
-23 -178 0
-23 -193 0
-23 -213 0
-88 -178 0
-88 -193 0
-88 -213 0
-178 -193 0
-178 -213 0
-193 -213 0
24 89 179 194 214 0
-24 -89 0
-24 -179 0
-24 -194 0
-24 -214 0
-89 -179 0
-89 -194 0
-89 -214 0
-179 -194 0
-179 -214 0
-194 -214 0
25 90 180 195 215 0
-25 -90 0
-25 -180 0
-25 -195 0
-25 -215 0
-90 -180 0
-90 -195 0
-90 -215 0
-180 -195 0
-180 -215 0
-195 -215 0
21 301 321 401 411 0
-21 -301 0
-21 -321 0
-21 -401 0
-21 -411 0
-301 -321 0
-301 -401 0
-301 -411 0
-321 -401 0
-321 -411 0
-401 -411 0
22 302 322 402 412 0
-22 -302 0
-22 -322 0
-22 -402 0
-22 -412 0
-302 -322 0
-302 -402 0
-302 -412 0
-322 -402 0
-322 -412 0
-402 -412 0
23 303 323 403 413 0
-23 -303 0
-23 -323 0
-23 -403 0
-23 -413 0
-303 -323 0
-303 -403 0
-303 -413 0
-323 -403 0
-323 -413 0
-403 -413 0
24 304 324 404 414 0
-24 -304 0
-24 -324 0
-24 -404 0
-24 -414 0
-304 -324 0
-304 -404 0
-304 -414 0
-324 -404 0
-324 -414 0
-404 -414 0
25 305 325 405 415 0
-25 -305 0
-25 -325 0
-25 -405 0
-25 -415 0
-305 -325 0
-305 -405 0
-305 -415 0
-325 -405 0
-325 -415 0
-405 -415 0
26 96 101 106 111 0
-26 -96 0
-26 -101 0
-26 -106 0
-26 -111 0
-96 -101 0
-96 -106 0
-96 -111 0
-101 -106 0
-101 -111 0
-106 -111 0
27 97 102 107 112 0
-27 -97 0
-27 -102 0
-27 -107 0
-27 -112 0
-97 -102 0
-97 -107 0
-97 -112 0
-102 -107 0
-102 -112 0
-107 -112 0
28 98 103 108 113 0
-28 -98 0
-28 -103 0
-28 -108 0
-28 -113 0
-98 -103 0
-98 -108 0
-98 -113 0
-103 -108 0
-103 -113 0
-108 -113 0
29 99 104 109 114 0
-29 -99 0
-29 -104 0
-29 -109 0
-29 -114 0
-99 -104 0
-99 -109 0
-99 -114 0
-104 -109 0
-104 -114 0
-109 -114 0
30 100 105 110 115 0
-30 -100 0
-30 -105 0
-30 -110 0
-30 -115 0
-100 -105 0
-100 -110 0
-100 -115 0
-105 -110 0
-105 -115 0
-110 -115 0
26 226 471 476 481 0
-26 -226 0
-26 -471 0
-26 -476 0
-26 -481 0
-226 -471 0
-226 -476 0
-226 -481 0
-471 -476 0
-471 -481 0
-476 -481 0
27 227 472 477 482 0
-27 -227 0
-27 -472 0
-27 -477 0
-27 -482 0
-227 -472 0
-227 -477 0
-227 -482 0
-472 -477 0
-472 -482 0
-477 -482 0
28 228 473 478 483 0
-28 -228 0
-28 -473 0
-28 -478 0
-28 -483 0
-228 -473 0
-228 -478 0
-228 -483 0
-473 -478 0
-473 -483 0
-478 -483 0
29 229 474 479 484 0
-29 -229 0
-29 -474 0
-29 -479 0
-29 -484 0
-229 -474 0
-229 -479 0
-229 -484 0
-474 -479 0
-474 -484 0
-479 -484 0
30 230 475 480 485 0
-30 -230 0
-30 -475 0
-30 -480 0
-30 -485 0
-230 -475 0
-230 -480 0
-230 -485 0
-475 -480 0
-475 -485 0
-480 -485 0
31 46 71 131 136 0
-31 -46 0
-31 -71 0
-31 -131 0
-31 -136 0
-46 -71 0
-46 -131 0
-46 -136 0
-71 -131 0
-71 -136 0
-131 -136 0
32 47 72 132 137 0
-32 -47 0
-32 -72 0
-32 -132 0
-32 -137 0
-47 -72 0
-47 -132 0
-47 -137 0
-72 -132 0
-72 -137 0
-132 -137 0
33 48 73 133 138 0
-33 -48 0
-33 -73 0
-33 -133 0
-33 -138 0
-48 -73 0
-48 -133 0
-48 -138 0
-73 -133 0
-73 -138 0
-133 -138 0
34 49 74 134 139 0
-34 -49 0
-34 -74 0
-34 -134 0
-34 -139 0
-49 -74 0
-49 -134 0
-49 -139 0
-74 -134 0
-74 -139 0
-134 -139 0
35 50 75 135 140 0
-35 -50 0
-35 -75 0
-35 -135 0
-35 -140 0
-50 -75 0
-50 -135 0
-50 -140 0
-75 -135 0
-75 -140 0
-135 -140 0
31 431 471 486 511 0
-31 -431 0
-31 -471 0
-31 -486 0
-31 -511 0
-431 -471 0
-431 -486 0
-431 -511 0
-471 -486 0
-471 -511 0
-486 -511 0
32 432 472 487 512 0
-32 -432 0
-32 -472 0
-32 -487 0
-32 -512 0
-432 -472 0
-432 -487 0
-432 -512 0
-472 -487 0
-472 -512 0
-487 -512 0
33 433 473 488 513 0
-33 -433 0
-33 -473 0
-33 -488 0
-33 -513 0
-433 -473 0
-433 -488 0
-433 -513 0
-473 -488 0
-473 -513 0
-488 -513 0
34 434 474 489 514 0
-34 -434 0
-34 -474 0
-34 -489 0
-34 -514 0
-434 -474 0
-434 -489 0
-434 -514 0
-474 -489 0
-474 -514 0
-489 -514 0
35 435 475 490 515 0
-35 -435 0
-35 -475 0
-35 -490 0
-35 -515 0
-435 -475 0
-435 -490 0
-435 -515 0
-475 -490 0
-475 -515 0
-490 -515 0
36 476 496 576 581 0
-36 -476 0
-36 -496 0
-36 -576 0
-36 -581 0
-476 -496 0
-476 -576 0
-476 -581 0
-496 -576 0
-496 -581 0
-576 -581 0
37 477 497 577 582 0
-37 -477 0
-37 -497 0
-37 -577 0
-37 -582 0
-477 -497 0
-477 -577 0
-477 -582 0
-497 -577 0
-497 -582 0
-577 -582 0
38 478 498 578 583 0
-38 -478 0
-38 -498 0
-38 -578 0
-38 -583 0
-478 -498 0
-478 -578 0
-478 -583 0
-498 -578 0
-498 -583 0
-578 -583 0
39 479 499 579 584 0
-39 -479 0
-39 -499 0
-39 -579 0
-39 -584 0
-479 -499 0
-479 -579 0
-479 -584 0
-499 -579 0
-499 -584 0
-579 -584 0
40 480 500 580 585 0
-40 -480 0
-40 -500 0
-40 -580 0
-40 -585 0
-480 -500 0
-480 -580 0
-480 -585 0
-500 -580 0
-500 -585 0
-580 -585 0
41 121 136 161 196 0
-41 -121 0
-41 -136 0
-41 -161 0
-41 -196 0
-121 -136 0
-121 -161 0
-121 -196 0
-136 -161 0
-136 -196 0
-161 -196 0
42 122 137 162 197 0
-42 -122 0
-42 -137 0
-42 -162 0
-42 -197 0
-122 -137 0
-122 -162 0
-122 -197 0
-137 -162 0
-137 -197 0
-162 -197 0
43 123 138 163 198 0
-43 -123 0
-43 -138 0
-43 -163 0
-43 -198 0
-123 -138 0
-123 -163 0
-123 -198 0
-138 -163 0
-138 -198 0
-163 -198 0
44 124 139 164 199 0
-44 -124 0
-44 -139 0
-44 -164 0
-44 -199 0
-124 -139 0
-124 -164 0
-124 -199 0
-139 -164 0
-139 -199 0
-164 -199 0
45 125 140 165 200 0
-45 -125 0
-45 -140 0
-45 -165 0
-45 -200 0
-125 -140 0
-125 -165 0
-125 -200 0
-140 -165 0
-140 -200 0
-165 -200 0
41 436 501 516 586 0
-41 -436 0
-41 -501 0
-41 -516 0
-41 -586 0
-436 -501 0
-436 -516 0
-436 -586 0
-501 -516 0
-501 -586 0
-516 -586 0
42 437 502 517 587 0
-42 -437 0
-42 -502 0
-42 -517 0
-42 -587 0
-437 -502 0
-437 -517 0
-437 -587 0
-502 -517 0
-502 -587 0
-517 -587 0
43 438 503 518 588 0
-43 -438 0
-43 -503 0
-43 -518 0
-43 -588 0
-438 -503 0
-438 -518 0
-438 -588 0
-503 -518 0
-503 -588 0
-518 -588 0
44 439 504 519 589 0
-44 -439 0
-44 -504 0
-44 -519 0
-44 -589 0
-439 -504 0
-439 -519 0
-439 -589 0
-504 -519 0
-504 -589 0
-519 -589 0
45 440 505 520 590 0
-45 -440 0
-45 -505 0
-45 -520 0
-45 -590 0
-440 -505 0
-440 -520 0
-440 -590 0
-505 -520 0
-505 -590 0
-520 -590 0
46 51 56 61 66 0
-46 -51 0
-46 -56 0
-46 -61 0
-46 -66 0
-51 -56 0
-51 -61 0
-51 -66 0
-56 -61 0
-56 -66 0
-61 -66 0
47 52 57 62 67 0
-47 -52 0
-47 -57 0
-47 -62 0
-47 -67 0
-52 -57 0
-52 -62 0
-52 -67 0
-57 -62 0
-57 -67 0
-62 -67 0
48 53 58 63 68 0
-48 -53 0
-48 -58 0
-48 -63 0
-48 -68 0
-53 -58 0
-53 -63 0
-53 -68 0
-58 -63 0
-58 -68 0
-63 -68 0
49 54 59 64 69 0
-49 -54 0
-49 -59 0
-49 -64 0
-49 -69 0
-54 -59 0
-54 -64 0
-54 -69 0
-59 -64 0
-59 -69 0
-64 -69 0
50 55 60 65 70 0
-50 -55 0
-50 -60 0
-50 -65 0
-50 -70 0
-55 -60 0
-55 -65 0
-55 -70 0
-60 -65 0
-60 -70 0
-65 -70 0
46 251 431 666 671 0
-46 -251 0
-46 -431 0
-46 -666 0
-46 -671 0
-251 -431 0
-251 -666 0
-251 -671 0
-431 -666 0
-431 -671 0
-666 -671 0
47 252 432 667 672 0
-47 -252 0
-47 -432 0
-47 -667 0
-47 -672 0
-252 -432 0
-252 -667 0
-252 -672 0
-432 -667 0
-432 -672 0
-667 -672 0
48 253 433 668 673 0
-48 -253 0
-48 -433 0
-48 -668 0
-48 -673 0
-253 -433 0
-253 -668 0
-253 -673 0
-433 -668 0
-433 -673 0
-668 -673 0
49 254 434 669 674 0
-49 -254 0
-49 -434 0
-49 -669 0
-49 -674 0
-254 -434 0
-254 -669 0
-254 -674 0
-434 -669 0
-434 -674 0
-669 -674 0
50 255 435 670 675 0
-50 -255 0
-50 -435 0
-50 -670 0
-50 -675 0
-255 -435 0
-255 -670 0
-255 -675 0
-435 -670 0
-435 -675 0
-670 -675 0
51 76 156 161 166 0
-51 -76 0
-51 -156 0
-51 -161 0
-51 -166 0
-76 -156 0
-76 -161 0
-76 -166 0
-156 -161 0
-156 -166 0
-161 -166 0
52 77 157 162 167 0
-52 -77 0
-52 -157 0
-52 -162 0
-52 -167 0
-77 -157 0
-77 -162 0
-77 -167 0
-157 -162 0
-157 -167 0
-162 -167 0
53 78 158 163 168 0
-53 -78 0
-53 -158 0
-53 -163 0
-53 -168 0
-78 -158 0
-78 -163 0
-78 -168 0
-158 -163 0
-158 -168 0
-163 -168 0
54 79 159 164 169 0
-54 -79 0
-54 -159 0
-54 -164 0
-54 -169 0
-79 -159 0
-79 -164 0
-79 -169 0
-159 -164 0
-159 -169 0
-164 -169 0
55 80 160 165 170 0
-55 -80 0
-55 -160 0
-55 -165 0
-55 -170 0
-80 -160 0
-80 -165 0
-80 -170 0
-160 -165 0
-160 -170 0
-165 -170 0
51 626 691 696 701 0
-51 -626 0
-51 -691 0
-51 -696 0
-51 -701 0
-626 -691 0
-626 -696 0
-626 -701 0
-691 -696 0
-691 -701 0
-696 -701 0
52 627 692 697 702 0
-52 -627 0
-52 -692 0
-52 -697 0
-52 -702 0
-627 -692 0
-627 -697 0
-627 -702 0
-692 -697 0
-692 -702 0
-697 -702 0
53 628 693 698 703 0
-53 -628 0
-53 -693 0
-53 -698 0
-53 -703 0
-628 -693 0
-628 -698 0
-628 -703 0
-693 -698 0
-693 -703 0
-698 -703 0
54 629 694 699 704 0
-54 -629 0
-54 -694 0
-54 -699 0
-54 -704 0
-629 -694 0
-629 -699 0
-629 -704 0
-694 -699 0
-694 -704 0
-699 -704 0
55 630 695 700 705 0
-55 -630 0
-55 -695 0
-55 -700 0
-55 -705 0
-630 -695 0
-630 -700 0
-630 -705 0
-695 -700 0
-695 -705 0
-700 -705 0
56 616 636 706 731 0
-56 -616 0
-56 -636 0
-56 -706 0
-56 -731 0
-616 -636 0
-616 -706 0
-616 -731 0
-636 -706 0
-636 -731 0
-706 -731 0
57 617 637 707 732 0
-57 -617 0
-57 -637 0
-57 -707 0
-57 -732 0
-617 -637 0
-617 -707 0
-617 -732 0
-637 -707 0
-637 -732 0
-707 -732 0
58 618 638 708 733 0
-58 -618 0
-58 -638 0
-58 -708 0
-58 -733 0
-618 -638 0
-618 -708 0
-618 -733 0
-638 -708 0
-638 -733 0
-708 -733 0
59 619 639 709 734 0
-59 -619 0
-59 -639 0
-59 -709 0
-59 -734 0
-619 -639 0
-619 -709 0
-619 -734 0
-639 -709 0
-639 -734 0
-709 -734 0
60 620 640 710 735 0
-60 -620 0
-60 -640 0
-60 -710 0
-60 -735 0
-620 -640 0
-620 -710 0
-620 -735 0
-640 -710 0
-640 -735 0
-710 -735 0
61 181 201 211 216 0
-61 -181 0
-61 -201 0
-61 -211 0
-61 -216 0
-181 -201 0
-181 -211 0
-181 -216 0
-201 -211 0
-201 -216 0
-211 -216 0
62 182 202 212 217 0
-62 -182 0
-62 -202 0
-62 -212 0
-62 -217 0
-182 -202 0
-182 -212 0
-182 -217 0
-202 -212 0
-202 -217 0
-212 -217 0
63 183 203 213 218 0
-63 -183 0
-63 -203 0
-63 -213 0
-63 -218 0
-183 -203 0
-183 -213 0
-183 -218 0
-203 -213 0
-203 -218 0
-213 -218 0
64 184 204 214 219 0
-64 -184 0
-64 -204 0
-64 -214 0
-64 -219 0
-184 -204 0
-184 -214 0
-184 -219 0
-204 -214 0
-204 -219 0
-214 -219 0
65 185 205 215 220 0
-65 -185 0
-65 -205 0
-65 -215 0
-65 -220 0
-185 -205 0
-185 -215 0
-185 -220 0
-205 -215 0
-205 -220 0
-215 -220 0
61 686 731 741 751 0
-61 -686 0
-61 -731 0
-61 -741 0
-61 -751 0
-686 -731 0
-686 -741 0
-686 -751 0
-731 -741 0
-731 -751 0
-741 -751 0
62 687 732 742 752 0
-62 -687 0
-62 -732 0
-62 -742 0
-62 -752 0
-687 -732 0
-687 -742 0
-687 -752 0
-732 -742 0
-732 -752 0
-742 -752 0
63 688 733 743 753 0
-63 -688 0
-63 -733 0
-63 -743 0
-63 -753 0
-688 -733 0
-688 -743 0
-688 -753 0
-733 -743 0
-733 -753 0
-743 -753 0
64 689 734 744 754 0
-64 -689 0
-64 -734 0
-64 -744 0
-64 -754 0
-689 -734 0
-689 -744 0
-689 -754 0
-734 -744 0
-734 -754 0
-744 -754 0
65 690 735 745 755 0
-65 -690 0
-65 -735 0
-65 -745 0
-65 -755 0
-690 -735 0
-690 -745 0
-690 -755 0
-735 -745 0
-735 -755 0
-745 -755 0
66 91 111 126 221 0
-66 -91 0
-66 -111 0
-66 -126 0
-66 -221 0
-91 -111 0
-91 -126 0
-91 -221 0
-111 -126 0
-111 -221 0
-126 -221 0
67 92 112 127 222 0
-67 -92 0
-67 -112 0
-67 -127 0
-67 -222 0
-92 -112 0
-92 -127 0
-92 -222 0
-112 -127 0
-112 -222 0
-127 -222 0
68 93 113 128 223 0
-68 -93 0
-68 -113 0
-68 -128 0
-68 -223 0
-93 -113 0
-93 -128 0
-93 -223 0
-113 -128 0
-113 -223 0
-128 -223 0
69 94 114 129 224 0
-69 -94 0
-69 -114 0
-69 -129 0
-69 -224 0
-94 -114 0
-94 -129 0
-94 -224 0
-114 -129 0
-114 -224 0
-129 -224 0
70 95 115 130 225 0
-70 -95 0
-70 -115 0
-70 -130 0
-70 -225 0
-95 -115 0
-95 -130 0
-95 -225 0
-115 -130 0
-115 -225 0
-130 -225 0
66 266 446 721 746 0
-66 -266 0
-66 -446 0
-66 -721 0
-66 -746 0
-266 -446 0
-266 -721 0
-266 -746 0
-446 -721 0
-446 -746 0
-721 -746 0
67 267 447 722 747 0
-67 -267 0
-67 -447 0
-67 -722 0
-67 -747 0
-267 -447 0
-267 -722 0
-267 -747 0
-447 -722 0
-447 -747 0
-722 -747 0
68 268 448 723 748 0
-68 -268 0
-68 -448 0
-68 -723 0
-68 -748 0
-268 -448 0
-268 -723 0
-268 -748 0
-448 -723 0
-448 -748 0
-723 -748 0
69 269 449 724 749 0
-69 -269 0
-69 -449 0
-69 -724 0
-69 -749 0
-269 -449 0
-269 -724 0
-269 -749 0
-449 -724 0
-449 -749 0
-724 -749 0
70 270 450 725 750 0
-70 -270 0
-70 -450 0
-70 -725 0
-70 -750 0
-270 -450 0
-270 -725 0
-270 -750 0
-450 -725 0
-450 -750 0
-725 -750 0
71 76 81 86 91 0
-71 -76 0
-71 -81 0
-71 -86 0
-71 -91 0
-76 -81 0
-76 -86 0
-76 -91 0
-81 -86 0
-81 -91 0
-86 -91 0
72 77 82 87 92 0
-72 -77 0
-72 -82 0
-72 -87 0
-72 -92 0
-77 -82 0
-77 -87 0
-77 -92 0
-82 -87 0
-82 -92 0
-87 -92 0
73 78 83 88 93 0
-73 -78 0
-73 -83 0
-73 -88 0
-73 -93 0
-78 -83 0
-78 -88 0
-78 -93 0
-83 -88 0
-83 -93 0
-88 -93 0
74 79 84 89 94 0
-74 -79 0
-74 -84 0
-74 -89 0
-74 -94 0
-79 -84 0
-79 -89 0
-79 -94 0
-84 -89 0
-84 -94 0
-89 -94 0
75 80 85 90 95 0
-75 -80 0
-75 -85 0
-75 -90 0
-75 -95 0
-80 -85 0
-80 -90 0
-80 -95 0
-85 -90 0
-85 -95 0
-90 -95 0
71 761 776 796 801 0
-71 -761 0
-71 -776 0
-71 -796 0
-71 -801 0
-761 -776 0
-761 -796 0
-761 -801 0
-776 -796 0
-776 -801 0
-796 -801 0
72 762 777 797 802 0
-72 -762 0
-72 -777 0
-72 -797 0
-72 -802 0
-762 -777 0
-762 -797 0
-762 -802 0
-777 -797 0
-777 -802 0
-797 -802 0
73 763 778 798 803 0
-73 -763 0
-73 -778 0
-73 -798 0
-73 -803 0
-763 -778 0
-763 -798 0
-763 -803 0
-778 -798 0
-778 -803 0
-798 -803 0
74 764 779 799 804 0
-74 -764 0
-74 -779 0
-74 -799 0
-74 -804 0
-764 -779 0
-764 -799 0
-764 -804 0
-779 -799 0
-779 -804 0
-799 -804 0
75 765 780 800 805 0
-75 -765 0
-75 -780 0
-75 -800 0
-75 -805 0
-765 -780 0
-765 -800 0
-765 -805 0
-780 -800 0
-780 -805 0
-800 -805 0
76 456 816 821 826 0
-76 -456 0
-76 -816 0
-76 -821 0
-76 -826 0
-456 -816 0
-456 -821 0
-456 -826 0
-816 -821 0
-816 -826 0
-821 -826 0
77 457 817 822 827 0
-77 -457 0
-77 -817 0
-77 -822 0
-77 -827 0
-457 -817 0
-457 -822 0
-457 -827 0
-817 -822 0
-817 -827 0
-822 -827 0
78 458 818 823 828 0
-78 -458 0
-78 -818 0
-78 -823 0
-78 -828 0
-458 -818 0
-458 -823 0
-458 -828 0
-818 -823 0
-818 -828 0
-823 -828 0
79 459 819 824 829 0
-79 -459 0
-79 -819 0
-79 -824 0
-79 -829 0
-459 -819 0
-459 -824 0
-459 -829 0
-819 -824 0
-819 -829 0
-824 -829 0
80 460 820 825 830 0
-80 -460 0
-80 -820 0
-80 -825 0
-80 -830 0
-460 -820 0
-460 -825 0
-460 -830 0
-820 -825 0
-820 -830 0
-825 -830 0
81 116 146 181 186 0
-81 -116 0
-81 -146 0
-81 -181 0
-81 -186 0
-116 -146 0
-116 -181 0
-116 -186 0
-146 -181 0
-146 -186 0
-181 -186 0
82 117 147 182 187 0
-82 -117 0
-82 -147 0
-82 -182 0
-82 -187 0
-117 -147 0
-117 -182 0
-117 -187 0
-147 -182 0
-147 -187 0
-182 -187 0
83 118 148 183 188 0
-83 -118 0
-83 -148 0
-83 -183 0
-83 -188 0
-118 -148 0
-118 -183 0
-118 -188 0
-148 -183 0
-148 -188 0
-183 -188 0
84 119 149 184 189 0
-84 -119 0
-84 -149 0
-84 -184 0
-84 -189 0
-119 -149 0
-119 -184 0
-119 -189 0
-149 -184 0
-149 -189 0
-184 -189 0
85 120 150 185 190 0
-85 -120 0
-85 -150 0
-85 -185 0
-85 -190 0
-120 -150 0
-120 -185 0
-120 -190 0
-150 -185 0
-150 -190 0
-185 -190 0
81 611 816 831 846 0
-81 -611 0
-81 -816 0
-81 -831 0
-81 -846 0
-611 -816 0
-611 -831 0
-611 -846 0
-816 -831 0
-816 -846 0
-831 -846 0
82 612 817 832 847 0
-82 -612 0
-82 -817 0
-82 -832 0
-82 -847 0
-612 -817 0
-612 -832 0
-612 -847 0
-817 -832 0
-817 -847 0
-832 -847 0
83 613 818 833 848 0
-83 -613 0
-83 -818 0
-83 -833 0
-83 -848 0
-613 -818 0
-613 -833 0
-613 -848 0
-818 -833 0
-818 -848 0
-833 -848 0
84 614 819 834 849 0
-84 -614 0
-84 -819 0
-84 -834 0
-84 -849 0
-614 -819 0
-614 -834 0
-614 -849 0
-819 -834 0
-819 -849 0
-834 -849 0
85 615 820 835 850 0
-85 -615 0
-85 -820 0
-85 -835 0
-85 -850 0
-615 -820 0
-615 -835 0
-615 -850 0
-820 -835 0
-820 -850 0
-835 -850 0
86 806 856 871 881 0
-86 -806 0
-86 -856 0
-86 -871 0
-86 -881 0
-806 -856 0
-806 -871 0
-806 -881 0
-856 -871 0
-856 -881 0
-871 -881 0
87 807 857 872 882 0
-87 -807 0
-87 -857 0
-87 -872 0
-87 -882 0
-807 -857 0
-807 -872 0
-807 -882 0
-857 -872 0
-857 -882 0
-872 -882 0
88 808 858 873 883 0
-88 -808 0
-88 -858 0
-88 -873 0
-88 -883 0
-808 -858 0
-808 -873 0
-808 -883 0
-858 -873 0
-858 -883 0
-873 -883 0
89 809 859 874 884 0
-89 -809 0
-89 -859 0
-89 -874 0
-89 -884 0
-809 -859 0
-809 -874 0
-809 -884 0
-859 -874 0
-859 -884 0
-874 -884 0
90 810 860 875 885 0
-90 -810 0
-90 -860 0
-90 -875 0
-90 -885 0
-810 -860 0
-810 -875 0
-810 -885 0
-860 -875 0
-860 -885 0
-875 -885 0
91 286 771 826 886 0
-91 -286 0
-91 -771 0
-91 -826 0
-91 -886 0
-286 -771 0
-286 -826 0
-286 -886 0
-771 -826 0
-771 -886 0
-826 -886 0
92 287 772 827 887 0
-92 -287 0
-92 -772 0
-92 -827 0
-92 -887 0
-287 -772 0
-287 -827 0
-287 -887 0
-772 -827 0
-772 -887 0
-827 -887 0
93 288 773 828 888 0
-93 -288 0
-93 -773 0
-93 -828 0
-93 -888 0
-288 -773 0
-288 -828 0
-288 -888 0
-773 -828 0
-773 -888 0
-828 -888 0
94 289 774 829 889 0
-94 -289 0
-94 -774 0
-94 -829 0
-94 -889 0
-289 -774 0
-289 -829 0
-289 -889 0
-774 -829 0
-774 -889 0
-829 -889 0
95 290 775 830 890 0
-95 -290 0
-95 -775 0
-95 -830 0
-95 -890 0
-290 -775 0
-290 -830 0
-290 -890 0
-775 -830 0
-775 -890 0
-830 -890 0
96 621 756 891 896 0
-96 -621 0
-96 -756 0
-96 -891 0
-96 -896 0
-621 -756 0
-621 -891 0
-621 -896 0
-756 -891 0
-756 -896 0
-891 -896 0
97 622 757 892 897 0
-97 -622 0
-97 -757 0
-97 -892 0
-97 -897 0
-622 -757 0
-622 -892 0
-622 -897 0
-757 -892 0
-757 -897 0
-892 -897 0
98 623 758 893 898 0
-98 -623 0
-98 -758 0
-98 -893 0
-98 -898 0
-623 -758 0
-623 -893 0
-623 -898 0
-758 -893 0
-758 -898 0
-893 -898 0
99 624 759 894 899 0
-99 -624 0
-99 -759 0
-99 -894 0
-99 -899 0
-624 -759 0
-624 -894 0
-624 -899 0
-759 -894 0
-759 -899 0
-894 -899 0
100 625 760 895 900 0
-100 -625 0
-100 -760 0
-100 -895 0
-100 -900 0
-625 -760 0
-625 -895 0
-625 -900 0
-760 -895 0
-760 -900 0
-895 -900 0
101 131 141 146 151 0
-101 -131 0
-101 -141 0
-101 -146 0
-101 -151 0
-131 -141 0
-131 -146 0
-131 -151 0
-141 -146 0
-141 -151 0
-146 -151 0
102 132 142 147 152 0
-102 -132 0
-102 -142 0
-102 -147 0
-102 -152 0
-132 -142 0
-132 -147 0
-132 -152 0
-142 -147 0
-142 -152 0
-147 -152 0
103 133 143 148 153 0
-103 -133 0
-103 -143 0
-103 -148 0
-103 -153 0
-133 -143 0
-133 -148 0
-133 -153 0
-143 -148 0
-143 -153 0
-148 -153 0
104 134 144 149 154 0
-104 -134 0
-104 -144 0
-104 -149 0
-104 -154 0
-134 -144 0
-134 -149 0
-134 -154 0
-144 -149 0
-144 -154 0
-149 -154 0
105 135 145 150 155 0
-105 -135 0
-105 -145 0
-105 -150 0
-105 -155 0
-135 -145 0
-135 -150 0
-135 -155 0
-145 -150 0
-145 -155 0
-150 -155 0
101 911 916 921 926 0
-101 -911 0
-101 -916 0
-101 -921 0
-101 -926 0
-911 -916 0
-911 -921 0
-911 -926 0
-916 -921 0
-916 -926 0
-921 -926 0
102 912 917 922 927 0
-102 -912 0
-102 -917 0
-102 -922 0
-102 -927 0
-912 -917 0
-912 -922 0
-912 -927 0
-917 -922 0
-917 -927 0
-922 -927 0
103 913 918 923 928 0
-103 -913 0
-103 -918 0
-103 -923 0
-103 -928 0
-913 -918 0
-913 -923 0
-913 -928 0
-918 -923 0
-918 -928 0
-923 -928 0
104 914 919 924 929 0
-104 -914 0
-104 -919 0
-104 -924 0
-104 -929 0
-914 -919 0
-914 -924 0
-914 -929 0
-919 -924 0
-919 -929 0
-924 -929 0
105 915 920 925 930 0
-105 -915 0
-105 -920 0
-105 -925 0
-105 -930 0
-915 -920 0
-915 -925 0
-915 -930 0
-920 -925 0
-920 -930 0
-925 -930 0
106 186 206 216 221 0
-106 -186 0
-106 -206 0
-106 -216 0
-106 -221 0
-186 -206 0
-186 -216 0
-186 -221 0
-206 -216 0
-206 -221 0
-216 -221 0
107 187 207 217 222 0
-107 -187 0
-107 -207 0
-107 -217 0
-107 -222 0
-187 -207 0
-187 -217 0
-187 -222 0
-207 -217 0
-207 -222 0
-217 -222 0
108 188 208 218 223 0
-108 -188 0
-108 -208 0
-108 -218 0
-108 -223 0
-188 -208 0
-188 -218 0
-188 -223 0
-208 -218 0
-208 -223 0
-218 -223 0
109 189 209 219 224 0
-109 -189 0
-109 -209 0
-109 -219 0
-109 -224 0
-189 -209 0
-189 -219 0
-189 -224 0
-209 -219 0
-209 -224 0
-219 -224 0
110 190 210 220 225 0
-110 -190 0
-110 -210 0
-110 -220 0
-110 -225 0
-190 -210 0
-190 -220 0
-190 -225 0
-210 -220 0
-210 -225 0
-220 -225 0
106 906 946 961 1001 0
-106 -906 0
-106 -946 0
-106 -961 0
-106 -1001 0
-906 -946 0
-906 -961 0
-906 -1001 0
-946 -961 0
-946 -1001 0
-961 -1001 0
107 907 947 962 1002 0
-107 -907 0
-107 -947 0
-107 -962 0
-107 -1002 0
-907 -947 0
-907 -962 0
-907 -1002 0
-947 -962 0
-947 -1002 0
-962 -1002 0
108 908 948 963 1003 0
-108 -908 0
-108 -948 0
-108 -963 0
-108 -1003 0
-908 -948 0
-908 -963 0
-908 -1003 0
-948 -963 0
-948 -1003 0
-963 -1003 0
109 909 949 964 1004 0
-109 -909 0
-109 -949 0
-109 -964 0
-109 -1004 0
-909 -949 0
-909 -964 0
-909 -1004 0
-949 -964 0
-949 -1004 0
-964 -1004 0
110 910 950 965 1005 0
-110 -910 0
-110 -950 0
-110 -965 0
-110 -1005 0
-910 -950 0
-910 -965 0
-910 -1005 0
-950 -965 0
-950 -1005 0
-965 -1005 0
111 771 926 966 1001 0
-111 -771 0
-111 -926 0
-111 -966 0
-111 -1001 0
-771 -926 0
-771 -966 0
-771 -1001 0
-926 -966 0
-926 -1001 0
-966 -1001 0
112 772 927 967 1002 0
-112 -772 0
-112 -927 0
-112 -967 0
-112 -1002 0
-772 -927 0
-772 -967 0
-772 -1002 0
-927 -967 0
-927 -1002 0
-967 -1002 0
113 773 928 968 1003 0
-113 -773 0
-113 -928 0
-113 -968 0
-113 -1003 0
-773 -928 0
-773 -968 0
-773 -1003 0
-928 -968 0
-928 -1003 0
-968 -1003 0
114 774 929 969 1004 0
-114 -774 0
-114 -929 0
-114 -969 0
-114 -1004 0
-774 -929 0
-774 -969 0
-774 -1004 0
-929 -969 0
-929 -1004 0
-969 -1004 0
115 775 930 970 1005 0
-115 -775 0
-115 -930 0
-115 -970 0
-115 -1005 0
-775 -930 0
-775 -970 0
-775 -1005 0
-930 -970 0
-930 -1005 0
-970 -1005 0
116 491 656 1036 1066 0
-116 -491 0
-116 -656 0
-116 -1036 0
-116 -1066 0
-491 -656 0
-491 -1036 0
-491 -1066 0
-656 -1036 0
-656 -1066 0
-1036 -1066 0
117 492 657 1037 1067 0
-117 -492 0
-117 -657 0
-117 -1037 0
-117 -1067 0
-492 -657 0
-492 -1037 0
-492 -1067 0
-657 -1037 0
-657 -1067 0
-1037 -1067 0
118 493 658 1038 1068 0
-118 -493 0
-118 -658 0
-118 -1038 0
-118 -1068 0
-493 -658 0
-493 -1038 0
-493 -1068 0
-658 -1038 0
-658 -1068 0
-1038 -1068 0
119 494 659 1039 1069 0
-119 -494 0
-119 -659 0
-119 -1039 0
-119 -1069 0
-494 -659 0
-494 -1039 0
-494 -1069 0
-659 -1039 0
-659 -1069 0
-1039 -1069 0
120 495 660 1040 1070 0
-120 -495 0
-120 -660 0
-120 -1040 0
-120 -1070 0
-495 -660 0
-495 -1040 0
-495 -1070 0
-660 -1040 0
-660 -1070 0
-1040 -1070 0
121 501 781 1071 1076 0
-121 -501 0
-121 -781 0
-121 -1071 0
-121 -1076 0
-501 -781 0
-501 -1071 0
-501 -1076 0
-781 -1071 0
-781 -1076 0
-1071 -1076 0
122 502 782 1072 1077 0
-122 -502 0
-122 -782 0
-122 -1072 0
-122 -1077 0
-502 -782 0
-502 -1072 0
-502 -1077 0
-782 -1072 0
-782 -1077 0
-1072 -1077 0
123 503 783 1073 1078 0
-123 -503 0
-123 -783 0
-123 -1073 0
-123 -1078 0
-503 -783 0
-503 -1073 0
-503 -1078 0
-783 -1073 0
-783 -1078 0
-1073 -1078 0
124 504 784 1074 1079 0
-124 -504 0
-124 -784 0
-124 -1074 0
-124 -1079 0
-504 -784 0
-504 -1074 0
-504 -1079 0
-784 -1074 0
-784 -1079 0
-1074 -1079 0
125 505 785 1075 1080 0
-125 -505 0
-125 -785 0
-125 -1075 0
-125 -1080 0
-505 -785 0
-505 -1075 0
-505 -1080 0
-785 -1075 0
-785 -1080 0
-1075 -1080 0
126 1016 1061 1066 1096 0
-126 -1016 0
-126 -1061 0
-126 -1066 0
-126 -1096 0
-1016 -1061 0
-1016 -1066 0
-1016 -1096 0
-1061 -1066 0
-1061 -1096 0
-1066 -1096 0
127 1017 1062 1067 1097 0
-127 -1017 0
-127 -1062 0
-127 -1067 0
-127 -1097 0
-1017 -1062 0
-1017 -1067 0
-1017 -1097 0
-1062 -1067 0
-1062 -1097 0
-1067 -1097 0
128 1018 1063 1068 1098 0
-128 -1018 0
-128 -1063 0
-128 -1068 0
-128 -1098 0
-1018 -1063 0
-1018 -1068 0
-1018 -1098 0
-1063 -1068 0
-1063 -1098 0
-1068 -1098 0
129 1019 1064 1069 1099 0
-129 -1019 0
-129 -1064 0
-129 -1069 0
-129 -1099 0
-1019 -1064 0
-1019 -1069 0
-1019 -1099 0
-1064 -1069 0
-1064 -1099 0
-1069 -1099 0
130 1020 1065 1070 1100 0
-130 -1020 0
-130 -1065 0
-130 -1070 0
-130 -1100 0
-1020 -1065 0
-1020 -1070 0
-1020 -1100 0
-1065 -1070 0
-1065 -1100 0
-1070 -1100 0
131 1101 1106 1111 1116 0
-131 -1101 0
-131 -1106 0
-131 -1111 0
-131 -1116 0
-1101 -1106 0
-1101 -1111 0
-1101 -1116 0
-1106 -1111 0
-1106 -1116 0
-1111 -1116 0
132 1102 1107 1112 1117 0
-132 -1102 0
-132 -1107 0
-132 -1112 0
-132 -1117 0
-1102 -1107 0
-1102 -1112 0
-1102 -1117 0
-1107 -1112 0
-1107 -1117 0
-1112 -1117 0
133 1103 1108 1113 1118 0
-133 -1103 0
-133 -1108 0
-133 -1113 0
-133 -1118 0
-1103 -1108 0
-1103 -1113 0
-1103 -1118 0
-1108 -1113 0
-1108 -1118 0
-1113 -1118 0
134 1104 1109 1114 1119 0
-134 -1104 0
-134 -1109 0
-134 -1114 0
-134 -1119 0
-1104 -1109 0
-1104 -1114 0
-1104 -1119 0
-1109 -1114 0
-1109 -1119 0
-1114 -1119 0
135 1105 1110 1115 1120 0
-135 -1105 0
-135 -1110 0
-135 -1115 0
-135 -1120 0
-1105 -1110 0
-1105 -1115 0
-1105 -1120 0
-1110 -1115 0
-1110 -1120 0
-1115 -1120 0
136 901 1136 1166 1171 0
-136 -901 0
-136 -1136 0
-136 -1166 0
-136 -1171 0
-901 -1136 0
-901 -1166 0
-901 -1171 0
-1136 -1166 0
-1136 -1171 0
-1166 -1171 0
137 902 1137 1167 1172 0
-137 -902 0
-137 -1137 0
-137 -1167 0
-137 -1172 0
-902 -1137 0
-902 -1167 0
-902 -1172 0
-1137 -1167 0
-1137 -1172 0
-1167 -1172 0
138 903 1138 1168 1173 0
-138 -903 0
-138 -1138 0
-138 -1168 0
-138 -1173 0
-903 -1138 0
-903 -1168 0
-903 -1173 0
-1138 -1168 0
-1138 -1173 0
-1168 -1173 0
139 904 1139 1169 1174 0
-139 -904 0
-139 -1139 0
-139 -1169 0
-139 -1174 0
-904 -1139 0
-904 -1169 0
-904 -1174 0
-1139 -1169 0
-1139 -1174 0
-1169 -1174 0
140 905 1140 1170 1175 0
-140 -905 0
-140 -1140 0
-140 -1170 0
-140 -1175 0
-905 -1140 0
-905 -1170 0
-905 -1175 0
-1140 -1170 0
-1140 -1175 0
-1170 -1175 0
141 911 1101 1201 1216 0
-141 -911 0
-141 -1101 0
-141 -1201 0
-141 -1216 0
-911 -1101 0
-911 -1201 0
-911 -1216 0
-1101 -1201 0
-1101 -1216 0
-1201 -1216 0
142 912 1102 1202 1217 0
-142 -912 0
-142 -1102 0
-142 -1202 0
-142 -1217 0
-912 -1102 0
-912 -1202 0
-912 -1217 0
-1102 -1202 0
-1102 -1217 0
-1202 -1217 0
143 913 1103 1203 1218 0
-143 -913 0
-143 -1103 0
-143 -1203 0
-143 -1218 0
-913 -1103 0
-913 -1203 0
-913 -1218 0
-1103 -1203 0
-1103 -1218 0
-1203 -1218 0
144 914 1104 1204 1219 0
-144 -914 0
-144 -1104 0
-144 -1204 0
-144 -1219 0
-914 -1104 0
-914 -1204 0
-914 -1219 0
-1104 -1204 0
-1104 -1219 0
-1204 -1219 0
145 915 1105 1205 1220 0
-145 -915 0
-145 -1105 0
-145 -1205 0
-145 -1220 0
-915 -1105 0
-915 -1205 0
-915 -1220 0
-1105 -1205 0
-1105 -1220 0
-1205 -1220 0
146 346 1106 1221 1226 0
-146 -346 0
-146 -1106 0
-146 -1221 0
-146 -1226 0
-346 -1106 0
-346 -1221 0
-346 -1226 0
-1106 -1221 0
-1106 -1226 0
-1221 -1226 0
147 347 1107 1222 1227 0
-147 -347 0
-147 -1107 0
-147 -1222 0
-147 -1227 0
-347 -1107 0
-347 -1222 0
-347 -1227 0
-1107 -1222 0
-1107 -1227 0
-1222 -1227 0
148 348 1108 1223 1228 0
-148 -348 0
-148 -1108 0
-148 -1223 0
-148 -1228 0
-348 -1108 0
-348 -1223 0
-348 -1228 0
-1108 -1223 0
-1108 -1228 0
-1223 -1228 0
149 349 1109 1224 1229 0
-149 -349 0
-149 -1109 0
-149 -1224 0
-149 -1229 0
-349 -1109 0
-349 -1224 0
-349 -1229 0
-1109 -1224 0
-1109 -1229 0
-1224 -1229 0
150 350 1110 1225 1230 0
-150 -350 0
-150 -1110 0
-150 -1225 0
-150 -1230 0
-350 -1110 0
-350 -1225 0
-350 -1230 0
-1110 -1225 0
-1110 -1230 0
-1225 -1230 0
151 1026 1111 1221 1231 0
-151 -1026 0
-151 -1111 0
-151 -1221 0
-151 -1231 0
-1026 -1111 0
-1026 -1221 0
-1026 -1231 0
-1111 -1221 0
-1111 -1231 0
-1221 -1231 0
152 1027 1112 1222 1232 0
-152 -1027 0
-152 -1112 0
-152 -1222 0
-152 -1232 0
-1027 -1112 0
-1027 -1222 0
-1027 -1232 0
-1112 -1222 0
-1112 -1232 0
-1222 -1232 0
153 1028 1113 1223 1233 0
-153 -1028 0
-153 -1113 0
-153 -1223 0
-153 -1233 0
-1028 -1113 0
-1028 -1223 0
-1028 -1233 0
-1113 -1223 0
-1113 -1233 0
-1223 -1233 0
154 1029 1114 1224 1234 0
-154 -1029 0
-154 -1114 0
-154 -1224 0
-154 -1234 0
-1029 -1114 0
-1029 -1224 0
-1029 -1234 0
-1114 -1224 0
-1114 -1234 0
-1224 -1234 0
155 1030 1115 1225 1235 0
-155 -1030 0
-155 -1115 0
-155 -1225 0
-155 -1235 0
-1030 -1115 0
-1030 -1225 0
-1030 -1235 0
-1115 -1225 0
-1115 -1235 0
-1225 -1235 0
156 531 931 1121 1201 0
-156 -531 0
-156 -931 0
-156 -1121 0
-156 -1201 0
-531 -931 0
-531 -1121 0
-531 -1201 0
-931 -1121 0
-931 -1201 0
-1121 -1201 0
157 532 932 1122 1202 0
-157 -532 0
-157 -932 0
-157 -1122 0
-157 -1202 0
-532 -932 0
-532 -1122 0
-532 -1202 0
-932 -1122 0
-932 -1202 0
-1122 -1202 0
158 533 933 1123 1203 0
-158 -533 0
-158 -933 0
-158 -1123 0
-158 -1203 0
-533 -933 0
-533 -1123 0
-533 -1203 0
-933 -1123 0
-933 -1203 0
-1123 -1203 0
159 534 934 1124 1204 0
-159 -534 0
-159 -934 0
-159 -1124 0
-159 -1204 0
-534 -934 0
-534 -1124 0
-534 -1204 0
-934 -1124 0
-934 -1204 0
-1124 -1204 0
160 535 935 1125 1205 0
-160 -535 0
-160 -935 0
-160 -1125 0
-160 -1205 0
-535 -935 0
-535 -1125 0
-535 -1205 0
-935 -1125 0
-935 -1205 0
-1125 -1205 0
161 356 1136 1266 1281 0
-161 -356 0
-161 -1136 0
-161 -1266 0
-161 -1281 0
-356 -1136 0
-356 -1266 0
-356 -1281 0
-1136 -1266 0
-1136 -1281 0
-1266 -1281 0
162 357 1137 1267 1282 0
-162 -357 0
-162 -1137 0
-162 -1267 0
-162 -1282 0
-357 -1137 0
-357 -1267 0
-357 -1282 0
-1137 -1267 0
-1137 -1282 0
-1267 -1282 0
163 358 1138 1268 1283 0
-163 -358 0
-163 -1138 0
-163 -1268 0
-163 -1283 0
-358 -1138 0
-358 -1268 0
-358 -1283 0
-1138 -1268 0
-1138 -1283 0
-1268 -1283 0
164 359 1139 1269 1284 0
-164 -359 0
-164 -1139 0
-164 -1269 0
-164 -1284 0
-359 -1139 0
-359 -1269 0
-359 -1284 0
-1139 -1269 0
-1139 -1284 0
-1269 -1284 0
165 360 1140 1270 1285 0
-165 -360 0
-165 -1140 0
-165 -1270 0
-165 -1285 0
-360 -1140 0
-360 -1270 0
-360 -1285 0
-1140 -1270 0
-1140 -1285 0
-1270 -1285 0
166 171 196 201 206 0
-166 -171 0
-166 -196 0
-166 -201 0
-166 -206 0
-171 -196 0
-171 -201 0
-171 -206 0
-196 -201 0
-196 -206 0
-201 -206 0
167 172 197 202 207 0
-167 -172 0
-167 -197 0
-167 -202 0
-167 -207 0
-172 -197 0
-172 -202 0
-172 -207 0
-197 -202 0
-197 -207 0
-202 -207 0
168 173 198 203 208 0
-168 -173 0
-168 -198 0
-168 -203 0
-168 -208 0
-173 -198 0
-173 -203 0
-173 -208 0
-198 -203 0
-198 -208 0
-203 -208 0
169 174 199 204 209 0
-169 -174 0
-169 -199 0
-169 -204 0
-169 -209 0
-174 -199 0
-174 -204 0
-174 -209 0
-199 -204 0
-199 -209 0
-204 -209 0
170 175 200 205 210 0
-170 -175 0
-170 -200 0
-170 -205 0
-170 -210 0
-175 -200 0
-175 -205 0
-175 -210 0
-200 -205 0
-200 -210 0
-205 -210 0
166 691 1206 1271 1286 0
-166 -691 0
-166 -1206 0
-166 -1271 0
-166 -1286 0
-691 -1206 0
-691 -1271 0
-691 -1286 0
-1206 -1271 0
-1206 -1286 0
-1271 -1286 0
167 692 1207 1272 1287 0
-167 -692 0
-167 -1207 0
-167 -1272 0
-167 -1287 0
-692 -1207 0
-692 -1272 0
-692 -1287 0
-1207 -1272 0
-1207 -1287 0
-1272 -1287 0
168 693 1208 1273 1288 0
-168 -693 0
-168 -1208 0
-168 -1273 0
-168 -1288 0
-693 -1208 0
-693 -1273 0
-693 -1288 0
-1208 -1273 0
-1208 -1288 0
-1273 -1288 0
169 694 1209 1274 1289 0
-169 -694 0
-169 -1209 0
-169 -1274 0
-169 -1289 0
-694 -1209 0
-694 -1274 0
-694 -1289 0
-1209 -1274 0
-1209 -1289 0
-1274 -1289 0
170 695 1210 1275 1290 0
-170 -695 0
-170 -1210 0
-170 -1275 0
-170 -1290 0
-695 -1210 0
-695 -1275 0
-695 -1290 0
-1210 -1275 0
-1210 -1290 0
-1275 -1290 0
171 556 1146 1306 1336 0
-171 -556 0
-171 -1146 0
-171 -1306 0
-171 -1336 0
-556 -1146 0
-556 -1306 0
-556 -1336 0
-1146 -1306 0
-1146 -1336 0
-1306 -1336 0
172 557 1147 1307 1337 0
-172 -557 0
-172 -1147 0
-172 -1307 0
-172 -1337 0
-557 -1147 0
-557 -1307 0
-557 -1337 0
-1147 -1307 0
-1147 -1337 0
-1307 -1337 0
173 558 1148 1308 1338 0
-173 -558 0
-173 -1148 0
-173 -1308 0
-173 -1338 0
-558 -1148 0
-558 -1308 0
-558 -1338 0
-1148 -1308 0
-1148 -1338 0
-1308 -1338 0
174 559 1149 1309 1339 0
-174 -559 0
-174 -1149 0
-174 -1309 0
-174 -1339 0
-559 -1149 0
-559 -1309 0
-559 -1339 0
-1149 -1309 0
-1149 -1339 0
-1309 -1339 0
175 560 1150 1310 1340 0
-175 -560 0
-175 -1150 0
-175 -1310 0
-175 -1340 0
-560 -1150 0
-560 -1310 0
-560 -1340 0
-1150 -1310 0
-1150 -1340 0
-1310 -1340 0
176 711 1051 1326 1341 0
-176 -711 0
-176 -1051 0
-176 -1326 0
-176 -1341 0
-711 -1051 0
-711 -1326 0
-711 -1341 0
-1051 -1326 0
-1051 -1341 0
-1326 -1341 0
177 712 1052 1327 1342 0
-177 -712 0
-177 -1052 0
-177 -1327 0
-177 -1342 0
-712 -1052 0
-712 -1327 0
-712 -1342 0
-1052 -1327 0
-1052 -1342 0
-1327 -1342 0
178 713 1053 1328 1343 0
-178 -713 0
-178 -1053 0
-178 -1328 0
-178 -1343 0
-713 -1053 0
-713 -1328 0
-713 -1343 0
-1053 -1328 0
-1053 -1343 0
-1328 -1343 0
179 714 1054 1329 1344 0
-179 -714 0
-179 -1054 0
-179 -1329 0
-179 -1344 0
-714 -1054 0
-714 -1329 0
-714 -1344 0
-1054 -1329 0
-1054 -1344 0
-1329 -1344 0
180 715 1055 1330 1345 0
-180 -715 0
-180 -1055 0
-180 -1330 0
-180 -1345 0
-715 -1055 0
-715 -1330 0
-715 -1345 0
-1055 -1330 0
-1055 -1345 0
-1330 -1345 0
181 561 846 956 1361 0
-181 -561 0
-181 -846 0
-181 -956 0
-181 -1361 0
-561 -846 0
-561 -956 0
-561 -1361 0
-846 -956 0
-846 -1361 0
-956 -1361 0
182 562 847 957 1362 0
-182 -562 0
-182 -847 0
-182 -957 0
-182 -1362 0
-562 -847 0
-562 -957 0
-562 -1362 0
-847 -957 0
-847 -1362 0
-957 -1362 0
183 563 848 958 1363 0
-183 -563 0
-183 -848 0
-183 -958 0
-183 -1363 0
-563 -848 0
-563 -958 0
-563 -1363 0
-848 -958 0
-848 -1363 0
-958 -1363 0
184 564 849 959 1364 0
-184 -564 0
-184 -849 0
-184 -959 0
-184 -1364 0
-564 -849 0
-564 -959 0
-564 -1364 0
-849 -959 0
-849 -1364 0
-959 -1364 0
185 565 850 960 1365 0
-185 -565 0
-185 -850 0
-185 -960 0
-185 -1365 0
-565 -850 0
-565 -960 0
-565 -1365 0
-850 -960 0
-850 -1365 0
-960 -1365 0
186 381 566 961 1381 0
-186 -381 0
-186 -566 0
-186 -961 0
-186 -1381 0
-381 -566 0
-381 -961 0
-381 -1381 0
-566 -961 0
-566 -1381 0
-961 -1381 0
187 382 567 962 1382 0
-187 -382 0
-187 -567 0
-187 -962 0
-187 -1382 0
-382 -567 0
-382 -962 0
-382 -1382 0
-567 -962 0
-567 -1382 0
-962 -1382 0
188 383 568 963 1383 0
-188 -383 0
-188 -568 0
-188 -963 0
-188 -1383 0
-383 -568 0
-383 -963 0
-383 -1383 0
-568 -963 0
-568 -1383 0
-963 -1383 0
189 384 569 964 1384 0
-189 -384 0
-189 -569 0
-189 -964 0
-189 -1384 0
-384 -569 0
-384 -964 0
-384 -1384 0
-569 -964 0
-569 -1384 0
-964 -1384 0
190 385 570 965 1385 0
-190 -385 0
-190 -570 0
-190 -965 0
-190 -1385 0
-385 -570 0
-385 -965 0
-385 -1385 0
-570 -965 0
-570 -1385 0
-965 -1385 0
191 576 856 1356 1401 0
-191 -576 0
-191 -856 0
-191 -1356 0
-191 -1401 0
-576 -856 0
-576 -1356 0
-576 -1401 0
-856 -1356 0
-856 -1401 0
-1356 -1401 0
192 577 857 1357 1402 0
-192 -577 0
-192 -857 0
-192 -1357 0
-192 -1402 0
-577 -857 0
-577 -1357 0
-577 -1402 0
-857 -1357 0
-857 -1402 0
-1357 -1402 0
193 578 858 1358 1403 0
-193 -578 0
-193 -858 0
-193 -1358 0
-193 -1403 0
-578 -858 0
-578 -1358 0
-578 -1403 0
-858 -1358 0
-858 -1403 0
-1358 -1403 0
194 579 859 1359 1404 0
-194 -579 0
-194 -859 0
-194 -1359 0
-194 -1404 0
-579 -859 0
-579 -1359 0
-579 -1404 0
-859 -1359 0
-859 -1404 0
-1359 -1404 0
195 580 860 1360 1405 0
-195 -580 0
-195 -860 0
-195 -1360 0
-195 -1405 0
-580 -860 0
-580 -1360 0
-580 -1405 0
-860 -1360 0
-860 -1405 0
-1360 -1405 0
196 866 976 1371 1411 0
-196 -866 0
-196 -976 0
-196 -1371 0
-196 -1411 0
-866 -976 0
-866 -1371 0
-866 -1411 0
-976 -1371 0
-976 -1411 0
-1371 -1411 0
197 867 977 1372 1412 0
-197 -867 0
-197 -977 0
-197 -1372 0
-197 -1412 0
-867 -977 0
-867 -1372 0
-867 -1412 0
-977 -1372 0
-977 -1412 0
-1372 -1412 0
198 868 978 1373 1413 0
-198 -868 0
-198 -978 0
-198 -1373 0
-198 -1413 0
-868 -978 0
-868 -1373 0
-868 -1413 0
-978 -1373 0
-978 -1413 0
-1373 -1413 0
199 869 979 1374 1414 0
-199 -869 0
-199 -979 0
-199 -1374 0
-199 -1414 0
-869 -979 0
-869 -1374 0
-869 -1414 0
-979 -1374 0
-979 -1414 0
-1374 -1414 0
200 870 980 1375 1415 0
-200 -870 0
-200 -980 0
-200 -1375 0
-200 -1415 0
-870 -980 0
-870 -1375 0
-870 -1415 0
-980 -1375 0
-980 -1415 0
-1375 -1415 0
201 596 741 996 1411 0
-201 -596 0
-201 -741 0
-201 -996 0
-201 -1411 0
-596 -741 0
-596 -996 0
-596 -1411 0
-741 -996 0
-741 -1411 0
-996 -1411 0
202 597 742 997 1412 0
-202 -597 0
-202 -742 0
-202 -997 0
-202 -1412 0
-597 -742 0
-597 -997 0
-597 -1412 0
-742 -997 0
-742 -1412 0
-997 -1412 0
203 598 743 998 1413 0
-203 -598 0
-203 -743 0
-203 -998 0
-203 -1413 0
-598 -743 0
-598 -998 0
-598 -1413 0
-743 -998 0
-743 -1413 0
-998 -1413 0
204 599 744 999 1414 0
-204 -599 0
-204 -744 0
-204 -999 0
-204 -1414 0
-599 -744 0
-599 -999 0
-599 -1414 0
-744 -999 0
-744 -1414 0
-999 -1414 0
205 600 745 1000 1415 0
-205 -600 0
-205 -745 0
-205 -1000 0
-205 -1415 0
-600 -745 0
-600 -1000 0
-600 -1415 0
-745 -1000 0
-745 -1415 0
-1000 -1415 0
206 406 1246 1336 1396 0
-206 -406 0
-206 -1246 0
-206 -1336 0
-206 -1396 0
-406 -1246 0
-406 -1336 0
-406 -1396 0
-1246 -1336 0
-1246 -1396 0
-1336 -1396 0
207 407 1247 1337 1397 0
-207 -407 0
-207 -1247 0
-207 -1337 0
-207 -1397 0
-407 -1247 0
-407 -1337 0
-407 -1397 0
-1247 -1337 0
-1247 -1397 0
-1337 -1397 0
208 408 1248 1338 1398 0
-208 -408 0
-208 -1248 0
-208 -1338 0
-208 -1398 0
-408 -1248 0
-408 -1338 0
-408 -1398 0
-1248 -1338 0
-1248 -1398 0
-1338 -1398 0
209 409 1249 1339 1399 0
-209 -409 0
-209 -1249 0
-209 -1339 0
-209 -1399 0
-409 -1249 0
-409 -1339 0
-409 -1399 0
-1249 -1339 0
-1249 -1399 0
-1339 -1399 0
210 410 1250 1340 1400 0
-210 -410 0
-210 -1250 0
-210 -1340 0
-210 -1400 0
-410 -1250 0
-410 -1340 0
-410 -1400 0
-1250 -1340 0
-1250 -1400 0
-1340 -1400 0
211 1086 1181 1251 1291 0
-211 -1086 0
-211 -1181 0
-211 -1251 0
-211 -1291 0
-1086 -1181 0
-1086 -1251 0
-1086 -1291 0
-1181 -1251 0
-1181 -1291 0
-1251 -1291 0
212 1087 1182 1252 1292 0
-212 -1087 0
-212 -1182 0
-212 -1252 0
-212 -1292 0
-1087 -1182 0
-1087 -1252 0
-1087 -1292 0
-1182 -1252 0
-1182 -1292 0
-1252 -1292 0
213 1088 1183 1253 1293 0
-213 -1088 0
-213 -1183 0
-213 -1253 0
-213 -1293 0
-1088 -1183 0
-1088 -1253 0
-1088 -1293 0
-1183 -1253 0
-1183 -1293 0
-1253 -1293 0
214 1089 1184 1254 1294 0
-214 -1089 0
-214 -1184 0
-214 -1254 0
-214 -1294 0
-1089 -1184 0
-1089 -1254 0
-1089 -1294 0
-1184 -1254 0
-1184 -1294 0
-1254 -1294 0
215 1090 1185 1255 1295 0
-215 -1090 0
-215 -1185 0
-215 -1255 0
-215 -1295 0
-1090 -1185 0
-1090 -1255 0
-1090 -1295 0
-1185 -1255 0
-1185 -1295 0
-1255 -1295 0
216 416 751 1091 1346 0
-216 -416 0
-216 -751 0
-216 -1091 0
-216 -1346 0
-416 -751 0
-416 -1091 0
-416 -1346 0
-751 -1091 0
-751 -1346 0
-1091 -1346 0
217 417 752 1092 1347 0
-217 -417 0
-217 -752 0
-217 -1092 0
-217 -1347 0
-417 -752 0
-417 -1092 0
-417 -1347 0
-752 -1092 0
-752 -1347 0
-1092 -1347 0
218 418 753 1093 1348 0
-218 -418 0
-218 -753 0
-218 -1093 0
-218 -1348 0
-418 -753 0
-418 -1093 0
-418 -1348 0
-753 -1093 0
-753 -1348 0
-1093 -1348 0
219 419 754 1094 1349 0
-219 -419 0
-219 -754 0
-219 -1094 0
-219 -1349 0
-419 -754 0
-419 -1094 0
-419 -1349 0
-754 -1094 0
-754 -1349 0
-1094 -1349 0
220 420 755 1095 1350 0
-220 -420 0
-220 -755 0
-220 -1095 0
-220 -1350 0
-420 -755 0
-420 -1095 0
-420 -1350 0
-755 -1095 0
-755 -1350 0
-1095 -1350 0
221 1001 1096 1406 1421 0
-221 -1001 0
-221 -1096 0
-221 -1406 0
-221 -1421 0
-1001 -1096 0
-1001 -1406 0
-1001 -1421 0
-1096 -1406 0
-1096 -1421 0
-1406 -1421 0
222 1002 1097 1407 1422 0
-222 -1002 0
-222 -1097 0
-222 -1407 0
-222 -1422 0
-1002 -1097 0
-1002 -1407 0
-1002 -1422 0
-1097 -1407 0
-1097 -1422 0
-1407 -1422 0
223 1003 1098 1408 1423 0
-223 -1003 0
-223 -1098 0
-223 -1408 0
-223 -1423 0
-1003 -1098 0
-1003 -1408 0
-1003 -1423 0
-1098 -1408 0
-1098 -1423 0
-1408 -1423 0
224 1004 1099 1409 1424 0
-224 -1004 0
-224 -1099 0
-224 -1409 0
-224 -1424 0
-1004 -1099 0
-1004 -1409 0
-1004 -1424 0
-1099 -1409 0
-1099 -1424 0
-1409 -1424 0
225 1005 1100 1410 1425 0
-225 -1005 0
-225 -1100 0
-225 -1410 0
-225 -1425 0
-1005 -1100 0
-1005 -1410 0
-1005 -1425 0
-1100 -1410 0
-1100 -1425 0
-1410 -1425 0
226 271 291 296 301 0
-226 -271 0
-226 -291 0
-226 -296 0
-226 -301 0
-271 -291 0
-271 -296 0
-271 -301 0
-291 -296 0
-291 -301 0
-296 -301 0
227 272 292 297 302 0
-227 -272 0
-227 -292 0
-227 -297 0
-227 -302 0
-272 -292 0
-272 -297 0
-272 -302 0
-292 -297 0
-292 -302 0
-297 -302 0
228 273 293 298 303 0
-228 -273 0
-228 -293 0
-228 -298 0
-228 -303 0
-273 -293 0
-273 -298 0
-273 -303 0
-293 -298 0
-293 -303 0
-298 -303 0
229 274 294 299 304 0
-229 -274 0
-229 -294 0
-229 -299 0
-229 -304 0
-274 -294 0
-274 -299 0
-274 -304 0
-294 -299 0
-294 -304 0
-299 -304 0
230 275 295 300 305 0
-230 -275 0
-230 -295 0
-230 -300 0
-230 -305 0
-275 -295 0
-275 -300 0
-275 -305 0
-295 -300 0
-295 -305 0
-300 -305 0
231 276 306 341 346 0
-231 -276 0
-231 -306 0
-231 -341 0
-231 -346 0
-276 -306 0
-276 -341 0
-276 -346 0
-306 -341 0
-306 -346 0
-341 -346 0
232 277 307 342 347 0
-232 -277 0
-232 -307 0
-232 -342 0
-232 -347 0
-277 -307 0
-277 -342 0
-277 -347 0
-307 -342 0
-307 -347 0
-342 -347 0
233 278 308 343 348 0
-233 -278 0
-233 -308 0
-233 -343 0
-233 -348 0
-278 -308 0
-278 -343 0
-278 -348 0
-308 -343 0
-308 -348 0
-343 -348 0
234 279 309 344 349 0
-234 -279 0
-234 -309 0
-234 -344 0
-234 -349 0
-279 -309 0
-279 -344 0
-279 -349 0
-309 -344 0
-309 -349 0
-344 -349 0
235 280 310 345 350 0
-235 -280 0
-235 -310 0
-235 -345 0
-235 -350 0
-280 -310 0
-280 -345 0
-280 -350 0
-310 -345 0
-310 -350 0
-345 -350 0
231 451 516 521 526 0
-231 -451 0
-231 -516 0
-231 -521 0
-231 -526 0
-451 -516 0
-451 -521 0
-451 -526 0
-516 -521 0
-516 -526 0
-521 -526 0
232 452 517 522 527 0
-232 -452 0
-232 -517 0
-232 -522 0
-232 -527 0
-452 -517 0
-452 -522 0
-452 -527 0
-517 -522 0
-517 -527 0
-522 -527 0
233 453 518 523 528 0
-233 -453 0
-233 -518 0
-233 -523 0
-233 -528 0
-453 -518 0
-453 -523 0
-453 -528 0
-518 -523 0
-518 -528 0
-523 -528 0
234 454 519 524 529 0
-234 -454 0
-234 -519 0
-234 -524 0
-234 -529 0
-454 -519 0
-454 -524 0
-454 -529 0
-519 -524 0
-519 -529 0
-524 -529 0
235 455 520 525 530 0
-235 -455 0
-235 -520 0
-235 -525 0
-235 -530 0
-455 -520 0
-455 -525 0
-455 -530 0
-520 -525 0
-520 -530 0
-525 -530 0
236 336 376 416 421 0
-236 -336 0
-236 -376 0
-236 -416 0
-236 -421 0
-336 -376 0
-336 -416 0
-336 -421 0
-376 -416 0
-376 -421 0
-416 -421 0
237 337 377 417 422 0
-237 -337 0
-237 -377 0
-237 -417 0
-237 -422 0
-337 -377 0
-337 -417 0
-337 -422 0
-377 -417 0
-377 -422 0
-417 -422 0
238 338 378 418 423 0
-238 -338 0
-238 -378 0
-238 -418 0
-238 -423 0
-338 -378 0
-338 -418 0
-338 -423 0
-378 -418 0
-378 -423 0
-418 -423 0
239 339 379 419 424 0
-239 -339 0
-239 -379 0
-239 -419 0
-239 -424 0
-339 -379 0
-339 -419 0
-339 -424 0
-379 -419 0
-379 -424 0
-419 -424 0
240 340 380 420 425 0
-240 -340 0
-240 -380 0
-240 -420 0
-240 -425 0
-340 -380 0
-340 -420 0
-340 -425 0
-380 -420 0
-380 -425 0
-420 -425 0
236 541 561 586 596 0
-236 -541 0
-236 -561 0
-236 -586 0
-236 -596 0
-541 -561 0
-541 -586 0
-541 -596 0
-561 -586 0
-561 -596 0
-586 -596 0
237 542 562 587 597 0
-237 -542 0
-237 -562 0
-237 -587 0
-237 -597 0
-542 -562 0
-542 -587 0
-542 -597 0
-562 -587 0
-562 -597 0
-587 -597 0
238 543 563 588 598 0
-238 -543 0
-238 -563 0
-238 -588 0
-238 -598 0
-543 -563 0
-543 -588 0
-543 -598 0
-563 -588 0
-563 -598 0
-588 -598 0
239 544 564 589 599 0
-239 -544 0
-239 -564 0
-239 -589 0
-239 -599 0
-544 -564 0
-544 -589 0
-544 -599 0
-564 -589 0
-564 -599 0
-589 -599 0
240 545 565 590 600 0
-240 -545 0
-240 -565 0
-240 -590 0
-240 -600 0
-545 -565 0
-545 -590 0
-545 -600 0
-565 -590 0
-565 -600 0
-590 -600 0
241 266 286 396 421 0
-241 -266 0
-241 -286 0
-241 -396 0
-241 -421 0
-266 -286 0
-266 -396 0
-266 -421 0
-286 -396 0
-286 -421 0
-396 -421 0
242 267 287 397 422 0
-242 -267 0
-242 -287 0
-242 -397 0
-242 -422 0
-267 -287 0
-267 -397 0
-267 -422 0
-287 -397 0
-287 -422 0
-397 -422 0
243 268 288 398 423 0
-243 -268 0
-243 -288 0
-243 -398 0
-243 -423 0
-268 -288 0
-268 -398 0
-268 -423 0
-288 -398 0
-288 -423 0
-398 -423 0
244 269 289 399 424 0
-244 -269 0
-244 -289 0
-244 -399 0
-244 -424 0
-269 -289 0
-269 -399 0
-269 -424 0
-289 -399 0
-289 -424 0
-399 -424 0
245 270 290 400 425 0
-245 -270 0
-245 -290 0
-245 -400 0
-245 -425 0
-270 -290 0
-270 -400 0
-270 -425 0
-290 -400 0
-290 -425 0
-400 -425 0
241 446 526 571 601 0
-241 -446 0
-241 -526 0
-241 -571 0
-241 -601 0
-446 -526 0
-446 -571 0
-446 -601 0
-526 -571 0
-526 -601 0
-571 -601 0
242 447 527 572 602 0
-242 -447 0
-242 -527 0
-242 -572 0
-242 -602 0
-447 -527 0
-447 -572 0
-447 -602 0
-527 -572 0
-527 -602 0
-572 -602 0
243 448 528 573 603 0
-243 -448 0
-243 -528 0
-243 -573 0
-243 -603 0
-448 -528 0
-448 -573 0
-448 -603 0
-528 -573 0
-528 -603 0
-573 -603 0
244 449 529 574 604 0
-244 -449 0
-244 -529 0
-244 -574 0
-244 -604 0
-449 -529 0
-449 -574 0
-449 -604 0
-529 -574 0
-529 -604 0
-574 -604 0
245 450 530 575 605 0
-245 -450 0
-245 -530 0
-245 -575 0
-245 -605 0
-450 -530 0
-450 -575 0
-450 -605 0
-530 -575 0
-530 -605 0
-575 -605 0
246 251 256 261 266 0
-246 -251 0
-246 -256 0
-246 -261 0
-246 -266 0
-251 -256 0
-251 -261 0
-251 -266 0
-256 -261 0
-256 -266 0
-261 -266 0
247 252 257 262 267 0
-247 -252 0
-247 -257 0
-247 -262 0
-247 -267 0
-252 -257 0
-252 -262 0
-252 -267 0
-257 -262 0
-257 -267 0
-262 -267 0
248 253 258 263 268 0
-248 -253 0
-248 -258 0
-248 -263 0
-248 -268 0
-253 -258 0
-253 -263 0
-253 -268 0
-258 -263 0
-258 -268 0
-263 -268 0
249 254 259 264 269 0
-249 -254 0
-249 -259 0
-249 -264 0
-249 -269 0
-254 -259 0
-254 -264 0
-254 -269 0
-259 -264 0
-259 -269 0
-264 -269 0
250 255 260 265 270 0
-250 -255 0
-250 -260 0
-250 -265 0
-250 -270 0
-255 -260 0
-255 -265 0
-255 -270 0
-260 -265 0
-260 -270 0
-265 -270 0
246 271 276 281 286 0
-246 -271 0
-246 -276 0
-246 -281 0
-246 -286 0
-271 -276 0
-271 -281 0
-271 -286 0
-276 -281 0
-276 -286 0
-281 -286 0
247 272 277 282 287 0
-247 -272 0
-247 -277 0
-247 -282 0
-247 -287 0
-272 -277 0
-272 -282 0
-272 -287 0
-277 -282 0
-277 -287 0
-282 -287 0
248 273 278 283 288 0
-248 -273 0
-248 -278 0
-248 -283 0
-248 -288 0
-273 -278 0
-273 -283 0
-273 -288 0
-278 -283 0
-278 -288 0
-283 -288 0
249 274 279 284 289 0
-249 -274 0
-249 -279 0
-249 -284 0
-249 -289 0
-274 -279 0
-274 -284 0
-274 -289 0
-279 -284 0
-279 -289 0
-284 -289 0
250 275 280 285 290 0
-250 -275 0
-250 -280 0
-250 -285 0
-250 -290 0
-275 -280 0
-275 -285 0
-275 -290 0
-280 -285 0
-280 -290 0
-285 -290 0
246 426 606 611 616 0
-246 -426 0
-246 -606 0
-246 -611 0
-246 -616 0
-426 -606 0
-426 -611 0
-426 -616 0
-606 -611 0
-606 -616 0
-611 -616 0
247 427 607 612 617 0
-247 -427 0
-247 -607 0
-247 -612 0
-247 -617 0
-427 -607 0
-427 -612 0
-427 -617 0
-607 -612 0
-607 -617 0
-612 -617 0
248 428 608 613 618 0
-248 -428 0
-248 -608 0
-248 -613 0
-248 -618 0
-428 -608 0
-428 -613 0
-428 -618 0
-608 -613 0
-608 -618 0
-613 -618 0
249 429 609 614 619 0
-249 -429 0
-249 -609 0
-249 -614 0
-249 -619 0
-429 -609 0
-429 -614 0
-429 -619 0
-609 -614 0
-609 -619 0
-614 -619 0
250 430 610 615 620 0
-250 -430 0
-250 -610 0
-250 -615 0
-250 -620 0
-430 -610 0
-430 -615 0
-430 -620 0
-610 -615 0
-610 -620 0
-615 -620 0
251 291 326 331 336 0
-251 -291 0
-251 -326 0
-251 -331 0
-251 -336 0
-291 -326 0
-291 -331 0
-291 -336 0
-326 -331 0
-326 -336 0
-331 -336 0
252 292 327 332 337 0
-252 -292 0
-252 -327 0
-252 -332 0
-252 -337 0
-292 -327 0
-292 -332 0
-292 -337 0
-327 -332 0
-327 -337 0
-332 -337 0
253 293 328 333 338 0
-253 -293 0
-253 -328 0
-253 -333 0
-253 -338 0
-293 -328 0
-293 -333 0
-293 -338 0
-328 -333 0
-328 -338 0
-333 -338 0
254 294 329 334 339 0
-254 -294 0
-254 -329 0
-254 -334 0
-254 -339 0
-294 -329 0
-294 -334 0
-294 -339 0
-329 -334 0
-329 -339 0
-334 -339 0
255 295 330 335 340 0
-255 -295 0
-255 -330 0
-255 -335 0
-255 -340 0
-295 -330 0
-295 -335 0
-295 -340 0
-330 -335 0
-330 -340 0
-335 -340 0
256 356 371 386 401 0
-256 -356 0
-256 -371 0
-256 -386 0
-256 -401 0
-356 -371 0
-356 -386 0
-356 -401 0
-371 -386 0
-371 -401 0
-386 -401 0
257 357 372 387 402 0
-257 -357 0
-257 -372 0
-257 -387 0
-257 -402 0
-357 -372 0
-357 -387 0
-357 -402 0
-372 -387 0
-372 -402 0
-387 -402 0
258 358 373 388 403 0
-258 -358 0
-258 -373 0
-258 -388 0
-258 -403 0
-358 -373 0
-358 -388 0
-358 -403 0
-373 -388 0
-373 -403 0
-388 -403 0
259 359 374 389 404 0
-259 -359 0
-259 -374 0
-259 -389 0
-259 -404 0
-359 -374 0
-359 -389 0
-359 -404 0
-374 -389 0
-374 -404 0
-389 -404 0
260 360 375 390 405 0
-260 -360 0
-260 -375 0
-260 -390 0
-260 -405 0
-360 -375 0
-360 -390 0
-360 -405 0
-375 -390 0
-375 -405 0
-390 -405 0
256 436 641 676 736 0
-256 -436 0
-256 -641 0
-256 -676 0
-256 -736 0
-436 -641 0
-436 -676 0
-436 -736 0
-641 -676 0
-641 -736 0
-676 -736 0
257 437 642 677 737 0
-257 -437 0
-257 -642 0
-257 -677 0
-257 -737 0
-437 -642 0
-437 -677 0
-437 -737 0
-642 -677 0
-642 -737 0
-677 -737 0
258 438 643 678 738 0
-258 -438 0
-258 -643 0
-258 -678 0
-258 -738 0
-438 -643 0
-438 -678 0
-438 -738 0
-643 -678 0
-643 -738 0
-678 -738 0
259 439 644 679 739 0
-259 -439 0
-259 -644 0
-259 -679 0
-259 -739 0
-439 -644 0
-439 -679 0
-439 -739 0
-644 -679 0
-644 -739 0
-679 -739 0
260 440 645 680 740 0
-260 -440 0
-260 -645 0
-260 -680 0
-260 -740 0
-440 -645 0
-440 -680 0
-440 -740 0
-645 -680 0
-645 -740 0
-680 -740 0
261 381 406 411 416 0
-261 -381 0
-261 -406 0
-261 -411 0
-261 -416 0
-381 -406 0
-381 -411 0
-381 -416 0
-406 -411 0
-406 -416 0
-411 -416 0
262 382 407 412 417 0
-262 -382 0
-262 -407 0
-262 -412 0
-262 -417 0
-382 -407 0
-382 -412 0
-382 -417 0
-407 -412 0
-407 -417 0
-412 -417 0
263 383 408 413 418 0
-263 -383 0
-263 -408 0
-263 -413 0
-263 -418 0
-383 -408 0
-383 -413 0
-383 -418 0
-408 -413 0
-408 -418 0
-413 -418 0
264 384 409 414 419 0
-264 -384 0
-264 -409 0
-264 -414 0
-264 -419 0
-384 -409 0
-384 -414 0
-384 -419 0
-409 -414 0
-409 -419 0
-414 -419 0
265 385 410 415 420 0
-265 -385 0
-265 -410 0
-265 -415 0
-265 -420 0
-385 -410 0
-385 -415 0
-385 -420 0
-410 -415 0
-410 -420 0
-415 -420 0
261 701 716 736 751 0
-261 -701 0
-261 -716 0
-261 -736 0
-261 -751 0
-701 -716 0
-701 -736 0
-701 -751 0
-716 -736 0
-716 -751 0
-736 -751 0
262 702 717 737 752 0
-262 -702 0
-262 -717 0
-262 -737 0
-262 -752 0
-702 -717 0
-702 -737 0
-702 -752 0
-717 -737 0
-717 -752 0
-737 -752 0
263 703 718 738 753 0
-263 -703 0
-263 -718 0
-263 -738 0
-263 -753 0
-703 -718 0
-703 -738 0
-703 -753 0
-718 -738 0
-718 -753 0
-738 -753 0
264 704 719 739 754 0
-264 -704 0
-264 -719 0
-264 -739 0
-264 -754 0
-704 -719 0
-704 -739 0
-704 -754 0
-719 -739 0
-719 -754 0
-739 -754 0
265 705 720 740 755 0
-265 -705 0
-265 -720 0
-265 -740 0
-265 -755 0
-705 -720 0
-705 -740 0
-705 -755 0
-720 -740 0
-720 -755 0
-740 -755 0
271 756 761 766 771 0
-271 -756 0
-271 -761 0
-271 -766 0
-271 -771 0
-756 -761 0
-756 -766 0
-756 -771 0
-761 -766 0
-761 -771 0
-766 -771 0
272 757 762 767 772 0
-272 -757 0
-272 -762 0
-272 -767 0
-272 -772 0
-757 -762 0
-757 -767 0
-757 -772 0
-762 -767 0
-762 -772 0
-767 -772 0
273 758 763 768 773 0
-273 -758 0
-273 -763 0
-273 -768 0
-273 -773 0
-758 -763 0
-758 -768 0
-758 -773 0
-763 -768 0
-763 -773 0
-768 -773 0
274 759 764 769 774 0
-274 -759 0
-274 -764 0
-274 -769 0
-274 -774 0
-759 -764 0
-759 -769 0
-759 -774 0
-764 -769 0
-764 -774 0
-769 -774 0
275 760 765 770 775 0
-275 -760 0
-275 -765 0
-275 -770 0
-275 -775 0
-760 -765 0
-760 -770 0
-760 -775 0
-765 -770 0
-765 -775 0
-770 -775 0
276 451 606 806 811 0
-276 -451 0
-276 -606 0
-276 -806 0
-276 -811 0
-451 -606 0
-451 -806 0
-451 -811 0
-606 -806 0
-606 -811 0
-806 -811 0
277 452 607 807 812 0
-277 -452 0
-277 -607 0
-277 -807 0
-277 -812 0
-452 -607 0
-452 -807 0
-452 -812 0
-607 -807 0
-607 -812 0
-807 -812 0
278 453 608 808 813 0
-278 -453 0
-278 -608 0
-278 -808 0
-278 -813 0
-453 -608 0
-453 -808 0
-453 -813 0
-608 -808 0
-608 -813 0
-808 -813 0
279 454 609 809 814 0
-279 -454 0
-279 -609 0
-279 -809 0
-279 -814 0
-454 -609 0
-454 -809 0
-454 -814 0
-609 -809 0
-609 -814 0
-809 -814 0
280 455 610 810 815 0
-280 -455 0
-280 -610 0
-280 -810 0
-280 -815 0
-455 -610 0
-455 -810 0
-455 -815 0
-610 -810 0
-610 -815 0
-810 -815 0
281 316 331 391 406 0
-281 -316 0
-281 -331 0
-281 -391 0
-281 -406 0
-316 -331 0
-316 -391 0
-316 -406 0
-331 -391 0
-331 -406 0
-391 -406 0
282 317 332 392 407 0
-282 -317 0
-282 -332 0
-282 -392 0
-282 -407 0
-317 -332 0
-317 -392 0
-317 -407 0
-332 -392 0
-332 -407 0
-392 -407 0
283 318 333 393 408 0
-283 -318 0
-283 -333 0
-283 -393 0
-283 -408 0
-318 -333 0
-318 -393 0
-318 -408 0
-333 -393 0
-333 -408 0
-393 -408 0
284 319 334 394 409 0
-284 -319 0
-284 -334 0
-284 -394 0
-284 -409 0
-319 -334 0
-319 -394 0
-319 -409 0
-334 -394 0
-334 -409 0
-394 -409 0
285 320 335 395 410 0
-285 -320 0
-285 -335 0
-285 -395 0
-285 -410 0
-320 -335 0
-320 -395 0
-320 -410 0
-335 -395 0
-335 -410 0
-395 -410 0
281 851 866 881 886 0
-281 -851 0
-281 -866 0
-281 -881 0
-281 -886 0
-851 -866 0
-851 -881 0
-851 -886 0
-866 -881 0
-866 -886 0
-881 -886 0
282 852 867 882 887 0
-282 -852 0
-282 -867 0
-282 -882 0
-282 -887 0
-852 -867 0
-852 -882 0
-852 -887 0
-867 -882 0
-867 -887 0
-882 -887 0
283 853 868 883 888 0
-283 -853 0
-283 -868 0
-283 -883 0
-283 -888 0
-853 -868 0
-853 -883 0
-853 -888 0
-868 -883 0
-868 -888 0
-883 -888 0
284 854 869 884 889 0
-284 -854 0
-284 -869 0
-284 -884 0
-284 -889 0
-854 -869 0
-854 -884 0
-854 -889 0
-869 -884 0
-869 -889 0
-884 -889 0
285 855 870 885 890 0
-285 -855 0
-285 -870 0
-285 -885 0
-285 -890 0
-855 -870 0
-855 -885 0
-855 -890 0
-870 -885 0
-870 -890 0
-885 -890 0
291 471 761 901 906 0
-291 -471 0
-291 -761 0
-291 -901 0
-291 -906 0
-471 -761 0
-471 -901 0
-471 -906 0
-761 -901 0
-761 -906 0
-901 -906 0
292 472 762 902 907 0
-292 -472 0
-292 -762 0
-292 -902 0
-292 -907 0
-472 -762 0
-472 -902 0
-472 -907 0
-762 -902 0
-762 -907 0
-902 -907 0
293 473 763 903 908 0
-293 -473 0
-293 -763 0
-293 -903 0
-293 -908 0
-473 -763 0
-473 -903 0
-473 -908 0
-763 -903 0
-763 -908 0
-903 -908 0
294 474 764 904 909 0
-294 -474 0
-294 -764 0
-294 -904 0
-294 -909 0
-474 -764 0
-474 -904 0
-474 -909 0
-764 -904 0
-764 -909 0
-904 -909 0
295 475 765 905 910 0
-295 -475 0
-295 -765 0
-295 -905 0
-295 -910 0
-475 -765 0
-475 -905 0
-475 -910 0
-765 -905 0
-765 -910 0
-905 -910 0
296 346 351 361 381 0
-296 -346 0
-296 -351 0
-296 -361 0
-296 -381 0
-346 -351 0
-346 -361 0
-346 -381 0
-351 -361 0
-351 -381 0
-361 -381 0
297 347 352 362 382 0
-297 -347 0
-297 -352 0
-297 -362 0
-297 -382 0
-347 -352 0
-347 -362 0
-347 -382 0
-352 -362 0
-352 -382 0
-362 -382 0
298 348 353 363 383 0
-298 -348 0
-298 -353 0
-298 -363 0
-298 -383 0
-348 -353 0
-348 -363 0
-348 -383 0
-353 -363 0
-353 -383 0
-363 -383 0
299 349 354 364 384 0
-299 -349 0
-299 -354 0
-299 -364 0
-299 -384 0
-349 -354 0
-349 -364 0
-349 -384 0
-354 -364 0
-354 -384 0
-364 -384 0
300 350 355 365 385 0
-300 -350 0
-300 -355 0
-300 -365 0
-300 -385 0
-350 -355 0
-350 -365 0
-350 -385 0
-355 -365 0
-355 -385 0
-365 -385 0
296 631 956 961 966 0
-296 -631 0
-296 -956 0
-296 -961 0
-296 -966 0
-631 -956 0
-631 -961 0
-631 -966 0
-956 -961 0
-956 -966 0
-961 -966 0
297 632 957 962 967 0
-297 -632 0
-297 -957 0
-297 -962 0
-297 -967 0
-632 -957 0
-632 -962 0
-632 -967 0
-957 -962 0
-957 -967 0
-962 -967 0
298 633 958 963 968 0
-298 -633 0
-298 -958 0
-298 -963 0
-298 -968 0
-633 -958 0
-633 -963 0
-633 -968 0
-958 -963 0
-958 -968 0
-963 -968 0
299 634 959 964 969 0
-299 -634 0
-299 -959 0
-299 -964 0
-299 -969 0
-634 -959 0
-634 -964 0
-634 -969 0
-959 -964 0
-959 -969 0
-964 -969 0
300 635 960 965 970 0
-300 -635 0
-300 -960 0
-300 -965 0
-300 -970 0
-635 -960 0
-635 -965 0
-635 -970 0
-960 -965 0
-960 -970 0
-965 -970 0
301 921 941 981 991 0
-301 -921 0
-301 -941 0
-301 -981 0
-301 -991 0
-921 -941 0
-921 -981 0
-921 -991 0
-941 -981 0
-941 -991 0
-981 -991 0
302 922 942 982 992 0
-302 -922 0
-302 -942 0
-302 -982 0
-302 -992 0
-922 -942 0
-922 -982 0
-922 -992 0
-942 -982 0
-942 -992 0
-982 -992 0
303 923 943 983 993 0
-303 -923 0
-303 -943 0
-303 -983 0
-303 -993 0
-923 -943 0
-923 -983 0
-923 -993 0
-943 -983 0
-943 -993 0
-983 -993 0
304 924 944 984 994 0
-304 -924 0
-304 -944 0
-304 -984 0
-304 -994 0
-924 -944 0
-924 -984 0
-924 -994 0
-944 -984 0
-944 -994 0
-984 -994 0
305 925 945 985 995 0
-305 -925 0
-305 -945 0
-305 -985 0
-305 -995 0
-925 -945 0
-925 -985 0
-925 -995 0
-945 -985 0
-945 -995 0
-985 -995 0
306 646 1021 1026 1031 0
-306 -646 0
-306 -1021 0
-306 -1026 0
-306 -1031 0
-646 -1021 0
-646 -1026 0
-646 -1031 0
-1021 -1026 0
-1021 -1031 0
-1026 -1031 0
307 647 1022 1027 1032 0
-307 -647 0
-307 -1022 0
-307 -1027 0
-307 -1032 0
-647 -1022 0
-647 -1027 0
-647 -1032 0
-1022 -1027 0
-1022 -1032 0
-1027 -1032 0
308 648 1023 1028 1033 0
-308 -648 0
-308 -1023 0
-308 -1028 0
-308 -1033 0
-648 -1023 0
-648 -1028 0
-648 -1033 0
-1023 -1028 0
-1023 -1033 0
-1028 -1033 0
309 649 1024 1029 1034 0
-309 -649 0
-309 -1024 0
-309 -1029 0
-309 -1034 0
-649 -1024 0
-649 -1029 0
-649 -1034 0
-1024 -1029 0
-1024 -1034 0
-1029 -1034 0
310 650 1025 1030 1035 0
-310 -650 0
-310 -1025 0
-310 -1030 0
-310 -1035 0
-650 -1025 0
-650 -1030 0
-650 -1035 0
-1025 -1030 0
-1025 -1035 0
-1030 -1035 0
311 326 341 351 356 0
-311 -326 0
-311 -341 0
-311 -351 0
-311 -356 0
-326 -341 0
-326 -351 0
-326 -356 0
-341 -351 0
-341 -356 0
-351 -356 0
312 327 342 352 357 0
-312 -327 0
-312 -342 0
-312 -352 0
-312 -357 0
-327 -342 0
-327 -352 0
-327 -357 0
-342 -352 0
-342 -357 0
-352 -357 0
313 328 343 353 358 0
-313 -328 0
-313 -343 0
-313 -353 0
-313 -358 0
-328 -343 0
-328 -353 0
-328 -358 0
-343 -353 0
-343 -358 0
-353 -358 0
314 329 344 354 359 0
-314 -329 0
-314 -344 0
-314 -354 0
-314 -359 0
-329 -344 0
-329 -354 0
-329 -359 0
-344 -354 0
-344 -359 0
-354 -359 0
315 330 345 355 360 0
-315 -330 0
-315 -345 0
-315 -355 0
-315 -360 0
-330 -345 0
-330 -355 0
-330 -360 0
-345 -355 0
-345 -360 0
-355 -360 0
311 1021 1036 1041 1046 0
-311 -1021 0
-311 -1036 0
-311 -1041 0
-311 -1046 0
-1021 -1036 0
-1021 -1041 0
-1021 -1046 0
-1036 -1041 0
-1036 -1046 0
-1041 -1046 0
312 1022 1037 1042 1047 0
-312 -1022 0
-312 -1037 0
-312 -1042 0
-312 -1047 0
-1022 -1037 0
-1022 -1042 0
-1022 -1047 0
-1037 -1042 0
-1037 -1047 0
-1042 -1047 0
313 1023 1038 1043 1048 0
-313 -1023 0
-313 -1038 0
-313 -1043 0
-313 -1048 0
-1023 -1038 0
-1023 -1043 0
-1023 -1048 0
-1038 -1043 0
-1038 -1048 0
-1043 -1048 0
314 1024 1039 1044 1049 0
-314 -1024 0
-314 -1039 0
-314 -1044 0
-314 -1049 0
-1024 -1039 0
-1024 -1044 0
-1024 -1049 0
-1039 -1044 0
-1039 -1049 0
-1044 -1049 0
315 1025 1040 1045 1050 0
-315 -1025 0
-315 -1040 0
-315 -1045 0
-315 -1050 0
-1025 -1040 0
-1025 -1045 0
-1025 -1050 0
-1040 -1045 0
-1040 -1050 0
-1045 -1050 0
316 661 1006 1031 1081 0
-316 -661 0
-316 -1006 0
-316 -1031 0
-316 -1081 0
-661 -1006 0
-661 -1031 0
-661 -1081 0
-1006 -1031 0
-1006 -1081 0
-1031 -1081 0
317 662 1007 1032 1082 0
-317 -662 0
-317 -1007 0
-317 -1032 0
-317 -1082 0
-662 -1007 0
-662 -1032 0
-662 -1082 0
-1007 -1032 0
-1007 -1082 0
-1032 -1082 0
318 663 1008 1033 1083 0
-318 -663 0
-318 -1008 0
-318 -1033 0
-318 -1083 0
-663 -1008 0
-663 -1033 0
-663 -1083 0
-1008 -1033 0
-1008 -1083 0
-1033 -1083 0
319 664 1009 1034 1084 0
-319 -664 0
-319 -1009 0
-319 -1034 0
-319 -1084 0
-664 -1009 0
-664 -1034 0
-664 -1084 0
-1009 -1034 0
-1009 -1084 0
-1034 -1084 0
320 665 1010 1035 1085 0
-320 -665 0
-320 -1010 0
-320 -1035 0
-320 -1085 0
-665 -1010 0
-665 -1035 0
-665 -1085 0
-1010 -1035 0
-1010 -1085 0
-1035 -1085 0
321 506 1051 1081 1086 0
-321 -506 0
-321 -1051 0
-321 -1081 0
-321 -1086 0
-506 -1051 0
-506 -1081 0
-506 -1086 0
-1051 -1081 0
-1051 -1086 0
-1081 -1086 0
322 507 1052 1082 1087 0
-322 -507 0
-322 -1052 0
-322 -1082 0
-322 -1087 0
-507 -1052 0
-507 -1082 0
-507 -1087 0
-1052 -1082 0
-1052 -1087 0
-1082 -1087 0
323 508 1053 1083 1088 0
-323 -508 0
-323 -1053 0
-323 -1083 0
-323 -1088 0
-508 -1053 0
-508 -1083 0
-508 -1088 0
-1053 -1083 0
-1053 -1088 0
-1083 -1088 0
324 509 1054 1084 1089 0
-324 -509 0
-324 -1054 0
-324 -1084 0
-324 -1089 0
-509 -1054 0
-509 -1084 0
-509 -1089 0
-1054 -1084 0
-1054 -1089 0
-1084 -1089 0
325 510 1055 1085 1090 0
-325 -510 0
-325 -1055 0
-325 -1085 0
-325 -1090 0
-510 -1055 0
-510 -1085 0
-510 -1090 0
-1055 -1085 0
-1055 -1090 0
-1085 -1090 0
326 1121 1126 1131 1136 0
-326 -1121 0
-326 -1126 0
-326 -1131 0
-326 -1136 0
-1121 -1126 0
-1121 -1131 0
-1121 -1136 0
-1126 -1131 0
-1126 -1136 0
-1131 -1136 0
327 1122 1127 1132 1137 0
-327 -1122 0
-327 -1127 0
-327 -1132 0
-327 -1137 0
-1122 -1127 0
-1122 -1132 0
-1122 -1137 0
-1127 -1132 0
-1127 -1137 0
-1132 -1137 0
328 1123 1128 1133 1138 0
-328 -1123 0
-328 -1128 0
-328 -1133 0
-328 -1138 0
-1123 -1128 0
-1123 -1133 0
-1123 -1138 0
-1128 -1133 0
-1128 -1138 0
-1133 -1138 0
329 1124 1129 1134 1139 0
-329 -1124 0
-329 -1129 0
-329 -1134 0
-329 -1139 0
-1124 -1129 0
-1124 -1134 0
-1124 -1139 0
-1129 -1134 0
-1129 -1139 0
-1134 -1139 0
330 1125 1130 1135 1140 0
-330 -1125 0
-330 -1130 0
-330 -1135 0
-330 -1140 0
-1125 -1130 0
-1125 -1135 0
-1125 -1140 0
-1130 -1135 0
-1130 -1140 0
-1135 -1140 0
331 1006 1146 1156 1176 0
-331 -1006 0
-331 -1146 0
-331 -1156 0
-331 -1176 0
-1006 -1146 0
-1006 -1156 0
-1006 -1176 0
-1146 -1156 0
-1146 -1176 0
-1156 -1176 0
332 1007 1147 1157 1177 0
-332 -1007 0
-332 -1147 0
-332 -1157 0
-332 -1177 0
-1007 -1147 0
-1007 -1157 0
-1007 -1177 0
-1147 -1157 0
-1147 -1177 0
-1157 -1177 0
333 1008 1148 1158 1178 0
-333 -1008 0
-333 -1148 0
-333 -1158 0
-333 -1178 0
-1008 -1148 0
-1008 -1158 0
-1008 -1178 0
-1148 -1158 0
-1148 -1178 0
-1158 -1178 0
334 1009 1149 1159 1179 0
-334 -1009 0
-334 -1149 0
-334 -1159 0
-334 -1179 0
-1009 -1149 0
-1009 -1159 0
-1009 -1179 0
-1149 -1159 0
-1149 -1179 0
-1159 -1179 0
335 1010 1150 1160 1180 0
-335 -1010 0
-335 -1150 0
-335 -1160 0
-335 -1180 0
-1010 -1150 0
-1010 -1160 0
-1010 -1180 0
-1150 -1160 0
-1150 -1180 0
-1160 -1180 0
336 801 1161 1181 1196 0
-336 -801 0
-336 -1161 0
-336 -1181 0
-336 -1196 0
-801 -1161 0
-801 -1181 0
-801 -1196 0
-1161 -1181 0
-1161 -1196 0
-1181 -1196 0
337 802 1162 1182 1197 0
-337 -802 0
-337 -1162 0
-337 -1182 0
-337 -1197 0
-802 -1162 0
-802 -1182 0
-802 -1197 0
-1162 -1182 0
-1162 -1197 0
-1182 -1197 0
338 803 1163 1183 1198 0
-338 -803 0
-338 -1163 0
-338 -1183 0
-338 -1198 0
-803 -1163 0
-803 -1183 0
-803 -1198 0
-1163 -1183 0
-1163 -1198 0
-1183 -1198 0
339 804 1164 1184 1199 0
-339 -804 0
-339 -1164 0
-339 -1184 0
-339 -1199 0
-804 -1164 0
-804 -1184 0
-804 -1199 0
-1164 -1184 0
-1164 -1199 0
-1184 -1199 0
340 805 1165 1185 1200 0
-340 -805 0
-340 -1165 0
-340 -1185 0
-340 -1200 0
-805 -1165 0
-805 -1185 0
-805 -1200 0
-1165 -1185 0
-1165 -1200 0
-1185 -1200 0
341 1021 1201 1206 1211 0
-341 -1021 0
-341 -1201 0
-341 -1206 0
-341 -1211 0
-1021 -1201 0
-1021 -1206 0
-1021 -1211 0
-1201 -1206 0
-1201 -1211 0
-1206 -1211 0
342 1022 1202 1207 1212 0
-342 -1022 0
-342 -1202 0
-342 -1207 0
-342 -1212 0
-1022 -1202 0
-1022 -1207 0
-1022 -1212 0
-1202 -1207 0
-1202 -1212 0
-1207 -1212 0
343 1023 1203 1208 1213 0
-343 -1023 0
-343 -1203 0
-343 -1208 0
-343 -1213 0
-1023 -1203 0
-1023 -1208 0
-1023 -1213 0
-1203 -1208 0
-1203 -1213 0
-1208 -1213 0
344 1024 1204 1209 1214 0
-344 -1024 0
-344 -1204 0
-344 -1209 0
-344 -1214 0
-1024 -1204 0
-1024 -1209 0
-1024 -1214 0
-1204 -1209 0
-1204 -1214 0
-1209 -1214 0
345 1025 1205 1210 1215 0
-345 -1025 0
-345 -1205 0
-345 -1210 0
-345 -1215 0
-1025 -1205 0
-1025 -1210 0
-1025 -1215 0
-1205 -1210 0
-1205 -1215 0
-1210 -1215 0
351 816 1036 1126 1266 0
-351 -816 0
-351 -1036 0
-351 -1126 0
-351 -1266 0
-816 -1036 0
-816 -1126 0
-816 -1266 0
-1036 -1126 0
-1036 -1266 0
-1126 -1266 0
352 817 1037 1127 1267 0
-352 -817 0
-352 -1037 0
-352 -1127 0
-352 -1267 0
-817 -1037 0
-817 -1127 0
-817 -1267 0
-1037 -1127 0
-1037 -1267 0
-1127 -1267 0
353 818 1038 1128 1268 0
-353 -818 0
-353 -1038 0
-353 -1128 0
-353 -1268 0
-818 -1038 0
-818 -1128 0
-818 -1268 0
-1038 -1128 0
-1038 -1268 0
-1128 -1268 0
354 819 1039 1129 1269 0
-354 -819 0
-354 -1039 0
-354 -1129 0
-354 -1269 0
-819 -1039 0
-819 -1129 0
-819 -1269 0
-1039 -1129 0
-1039 -1269 0
-1129 -1269 0
355 820 1040 1130 1270 0
-355 -820 0
-355 -1040 0
-355 -1130 0
-355 -1270 0
-820 -1040 0
-820 -1130 0
-820 -1270 0
-1040 -1130 0
-1040 -1270 0
-1130 -1270 0
361 551 831 1141 1306 0
-361 -551 0
-361 -831 0
-361 -1141 0
-361 -1306 0
-551 -831 0
-551 -1141 0
-551 -1306 0
-831 -1141 0
-831 -1306 0
-1141 -1306 0
362 552 832 1142 1307 0
-362 -552 0
-362 -832 0
-362 -1142 0
-362 -1307 0
-552 -832 0
-552 -1142 0
-552 -1307 0
-832 -1142 0
-832 -1307 0
-1142 -1307 0
363 553 833 1143 1308 0
-363 -553 0
-363 -833 0
-363 -1143 0
-363 -1308 0
-553 -833 0
-553 -1143 0
-553 -1308 0
-833 -1143 0
-833 -1308 0
-1143 -1308 0
364 554 834 1144 1309 0
-364 -554 0
-364 -834 0
-364 -1144 0
-364 -1309 0
-554 -834 0
-554 -1144 0
-554 -1309 0
-834 -1144 0
-834 -1309 0
-1144 -1309 0
365 555 835 1145 1310 0
-365 -555 0
-365 -835 0
-365 -1145 0
-365 -1310 0
-555 -835 0
-555 -1145 0
-555 -1310 0
-835 -1145 0
-835 -1310 0
-1145 -1310 0
366 706 1311 1316 1321 0
-366 -706 0
-366 -1311 0
-366 -1316 0
-366 -1321 0
-706 -1311 0
-706 -1316 0
-706 -1321 0
-1311 -1316 0
-1311 -1321 0
-1316 -1321 0
367 707 1312 1317 1322 0
-367 -707 0
-367 -1312 0
-367 -1317 0
-367 -1322 0
-707 -1312 0
-707 -1317 0
-707 -1322 0
-1312 -1317 0
-1312 -1322 0
-1317 -1322 0
368 708 1313 1318 1323 0
-368 -708 0
-368 -1313 0
-368 -1318 0
-368 -1323 0
-708 -1313 0
-708 -1318 0
-708 -1323 0
-1313 -1318 0
-1313 -1323 0
-1318 -1323 0
369 709 1314 1319 1324 0
-369 -709 0
-369 -1314 0
-369 -1319 0
-369 -1324 0
-709 -1314 0
-709 -1319 0
-709 -1324 0
-1314 -1319 0
-1314 -1324 0
-1319 -1324 0
370 710 1315 1320 1325 0
-370 -710 0
-370 -1315 0
-370 -1320 0
-370 -1325 0
-710 -1315 0
-710 -1320 0
-710 -1325 0
-1315 -1320 0
-1315 -1325 0
-1320 -1325 0
371 836 1311 1326 1331 0
-371 -836 0
-371 -1311 0
-371 -1326 0
-371 -1331 0
-836 -1311 0
-836 -1326 0
-836 -1331 0
-1311 -1326 0
-1311 -1331 0
-1326 -1331 0
372 837 1312 1327 1332 0
-372 -837 0
-372 -1312 0
-372 -1327 0
-372 -1332 0
-837 -1312 0
-837 -1327 0
-837 -1332 0
-1312 -1327 0
-1312 -1332 0
-1327 -1332 0
373 838 1313 1328 1333 0
-373 -838 0
-373 -1313 0
-373 -1328 0
-373 -1333 0
-838 -1313 0
-838 -1328 0
-838 -1333 0
-1313 -1328 0
-1313 -1333 0
-1328 -1333 0
374 839 1314 1329 1334 0
-374 -839 0
-374 -1314 0
-374 -1329 0
-374 -1334 0
-839 -1314 0
-839 -1329 0
-839 -1334 0
-1314 -1329 0
-1314 -1334 0
-1329 -1334 0
375 840 1315 1330 1335 0
-375 -840 0
-375 -1315 0
-375 -1330 0
-375 -1335 0
-840 -1315 0
-840 -1330 0
-840 -1335 0
-1315 -1330 0
-1315 -1335 0
-1330 -1335 0
376 951 1056 1316 1346 0
-376 -951 0
-376 -1056 0
-376 -1316 0
-376 -1346 0
-951 -1056 0
-951 -1316 0
-951 -1346 0
-1056 -1316 0
-1056 -1346 0
-1316 -1346 0
377 952 1057 1317 1347 0
-377 -952 0
-377 -1057 0
-377 -1317 0
-377 -1347 0
-952 -1057 0
-952 -1317 0
-952 -1347 0
-1057 -1317 0
-1057 -1347 0
-1317 -1347 0
378 953 1058 1318 1348 0
-378 -953 0
-378 -1058 0
-378 -1318 0
-378 -1348 0
-953 -1058 0
-953 -1318 0
-953 -1348 0
-1058 -1318 0
-1058 -1348 0
-1318 -1348 0
379 954 1059 1319 1349 0
-379 -954 0
-379 -1059 0
-379 -1319 0
-379 -1349 0
-954 -1059 0
-954 -1319 0
-954 -1349 0
-1059 -1319 0
-1059 -1349 0
-1319 -1349 0
380 955 1060 1320 1350 0
-380 -955 0
-380 -1060 0
-380 -1320 0
-380 -1350 0
-955 -1060 0
-955 -1320 0
-955 -1350 0
-1060 -1320 0
-1060 -1350 0
-1320 -1350 0
386 1071 1231 1311 1351 0
-386 -1071 0
-386 -1231 0
-386 -1311 0
-386 -1351 0
-1071 -1231 0
-1071 -1311 0
-1071 -1351 0
-1231 -1311 0
-1231 -1351 0
-1311 -1351 0
387 1072 1232 1312 1352 0
-387 -1072 0
-387 -1232 0
-387 -1312 0
-387 -1352 0
-1072 -1232 0
-1072 -1312 0
-1072 -1352 0
-1232 -1312 0
-1232 -1352 0
-1312 -1352 0
388 1073 1233 1313 1353 0
-388 -1073 0
-388 -1233 0
-388 -1313 0
-388 -1353 0
-1073 -1233 0
-1073 -1313 0
-1073 -1353 0
-1233 -1313 0
-1233 -1353 0
-1313 -1353 0
389 1074 1234 1314 1354 0
-389 -1074 0
-389 -1234 0
-389 -1314 0
-389 -1354 0
-1074 -1234 0
-1074 -1314 0
-1074 -1354 0
-1234 -1314 0
-1234 -1354 0
-1314 -1354 0
390 1075 1235 1315 1355 0
-390 -1075 0
-390 -1235 0
-390 -1315 0
-390 -1355 0
-1075 -1235 0
-1075 -1315 0
-1075 -1355 0
-1235 -1315 0
-1235 -1355 0
-1315 -1355 0
391 851 1156 1271 1396 0
-391 -851 0
-391 -1156 0
-391 -1271 0
-391 -1396 0
-851 -1156 0
-851 -1271 0
-851 -1396 0
-1156 -1271 0
-1156 -1396 0
-1271 -1396 0
392 852 1157 1272 1397 0
-392 -852 0
-392 -1157 0
-392 -1272 0
-392 -1397 0
-852 -1157 0
-852 -1272 0
-852 -1397 0
-1157 -1272 0
-1157 -1397 0
-1272 -1397 0
393 853 1158 1273 1398 0
-393 -853 0
-393 -1158 0
-393 -1273 0
-393 -1398 0
-853 -1158 0
-853 -1273 0
-853 -1398 0
-1158 -1273 0
-1158 -1398 0
-1273 -1398 0
394 854 1159 1274 1399 0
-394 -854 0
-394 -1159 0
-394 -1274 0
-394 -1399 0
-854 -1159 0
-854 -1274 0
-854 -1399 0
-1159 -1274 0
-1159 -1399 0
-1274 -1399 0
395 855 1160 1275 1400 0
-395 -855 0
-395 -1160 0
-395 -1275 0
-395 -1400 0
-855 -1160 0
-855 -1275 0
-855 -1400 0
-1160 -1275 0
-1160 -1400 0
-1275 -1400 0
396 1276 1321 1366 1406 0
-396 -1276 0
-396 -1321 0
-396 -1366 0
-396 -1406 0
-1276 -1321 0
-1276 -1366 0
-1276 -1406 0
-1321 -1366 0
-1321 -1406 0
-1366 -1406 0
397 1277 1322 1367 1407 0
-397 -1277 0
-397 -1322 0
-397 -1367 0
-397 -1407 0
-1277 -1322 0
-1277 -1367 0
-1277 -1407 0
-1322 -1367 0
-1322 -1407 0
-1367 -1407 0
398 1278 1323 1368 1408 0
-398 -1278 0
-398 -1323 0
-398 -1368 0
-398 -1408 0
-1278 -1323 0
-1278 -1368 0
-1278 -1408 0
-1323 -1368 0
-1323 -1408 0
-1368 -1408 0
399 1279 1324 1369 1409 0
-399 -1279 0
-399 -1324 0
-399 -1369 0
-399 -1409 0
-1279 -1324 0
-1279 -1369 0
-1279 -1409 0
-1324 -1369 0
-1324 -1409 0
-1369 -1409 0
400 1280 1325 1370 1410 0
-400 -1280 0
-400 -1325 0
-400 -1370 0
-400 -1410 0
-1280 -1325 0
-1280 -1370 0
-1280 -1410 0
-1325 -1370 0
-1325 -1410 0
-1370 -1410 0
401 871 981 1326 1376 0
-401 -871 0
-401 -981 0
-401 -1326 0
-401 -1376 0
-871 -981 0
-871 -1326 0
-871 -1376 0
-981 -1326 0
-981 -1376 0
-1326 -1376 0
402 872 982 1327 1377 0
-402 -872 0
-402 -982 0
-402 -1327 0
-402 -1377 0
-872 -982 0
-872 -1327 0
-872 -1377 0
-982 -1327 0
-982 -1377 0
-1327 -1377 0
403 873 983 1328 1378 0
-403 -873 0
-403 -983 0
-403 -1328 0
-403 -1378 0
-873 -983 0
-873 -1328 0
-873 -1378 0
-983 -1328 0
-983 -1378 0
-1328 -1378 0
404 874 984 1329 1379 0
-404 -874 0
-404 -984 0
-404 -1329 0
-404 -1379 0
-874 -984 0
-874 -1329 0
-874 -1379 0
-984 -1329 0
-984 -1379 0
-1329 -1379 0
405 875 985 1330 1380 0
-405 -875 0
-405 -985 0
-405 -1330 0
-405 -1380 0
-875 -985 0
-875 -1330 0
-875 -1380 0
-985 -1330 0
-985 -1380 0
-1330 -1380 0
411 1186 1296 1401 1421 0
-411 -1186 0
-411 -1296 0
-411 -1401 0
-411 -1421 0
-1186 -1296 0
-1186 -1401 0
-1186 -1421 0
-1296 -1401 0
-1296 -1421 0
-1401 -1421 0
412 1187 1297 1402 1422 0
-412 -1187 0
-412 -1297 0
-412 -1402 0
-412 -1422 0
-1187 -1297 0
-1187 -1402 0
-1187 -1422 0
-1297 -1402 0
-1297 -1422 0
-1402 -1422 0
413 1188 1298 1403 1423 0
-413 -1188 0
-413 -1298 0
-413 -1403 0
-413 -1423 0
-1188 -1298 0
-1188 -1403 0
-1188 -1423 0
-1298 -1403 0
-1298 -1423 0
-1403 -1423 0
414 1189 1299 1404 1424 0
-414 -1189 0
-414 -1299 0
-414 -1404 0
-414 -1424 0
-1189 -1299 0
-1189 -1404 0
-1189 -1424 0
-1299 -1404 0
-1299 -1424 0
-1404 -1424 0
415 1190 1300 1405 1425 0
-415 -1190 0
-415 -1300 0
-415 -1405 0
-415 -1425 0
-1190 -1300 0
-1190 -1405 0
-1190 -1425 0
-1300 -1405 0
-1300 -1425 0
-1405 -1425 0
421 1196 1261 1301 1416 0
-421 -1196 0
-421 -1261 0
-421 -1301 0
-421 -1416 0
-1196 -1261 0
-1196 -1301 0
-1196 -1416 0
-1261 -1301 0
-1261 -1416 0
-1301 -1416 0
422 1197 1262 1302 1417 0
-422 -1197 0
-422 -1262 0
-422 -1302 0
-422 -1417 0
-1197 -1262 0
-1197 -1302 0
-1197 -1417 0
-1262 -1302 0
-1262 -1417 0
-1302 -1417 0
423 1198 1263 1303 1418 0
-423 -1198 0
-423 -1263 0
-423 -1303 0
-423 -1418 0
-1198 -1263 0
-1198 -1303 0
-1198 -1418 0
-1263 -1303 0
-1263 -1418 0
-1303 -1418 0
424 1199 1264 1304 1419 0
-424 -1199 0
-424 -1264 0
-424 -1304 0
-424 -1419 0
-1199 -1264 0
-1199 -1304 0
-1199 -1419 0
-1264 -1304 0
-1264 -1419 0
-1304 -1419 0
425 1200 1265 1305 1420 0
-425 -1200 0
-425 -1265 0
-425 -1305 0
-425 -1420 0
-1200 -1265 0
-1200 -1305 0
-1200 -1420 0
-1265 -1305 0
-1265 -1420 0
-1305 -1420 0
426 431 436 441 446 0
-426 -431 0
-426 -436 0
-426 -441 0
-426 -446 0
-431 -436 0
-431 -441 0
-431 -446 0
-436 -441 0
-436 -446 0
-441 -446 0
427 432 437 442 447 0
-427 -432 0
-427 -437 0
-427 -442 0
-427 -447 0
-432 -437 0
-432 -442 0
-432 -447 0
-437 -442 0
-437 -447 0
-442 -447 0
428 433 438 443 448 0
-428 -433 0
-428 -438 0
-428 -443 0
-428 -448 0
-433 -438 0
-433 -443 0
-433 -448 0
-438 -443 0
-438 -448 0
-443 -448 0
429 434 439 444 449 0
-429 -434 0
-429 -439 0
-429 -444 0
-429 -449 0
-434 -439 0
-434 -444 0
-434 -449 0
-439 -444 0
-439 -449 0
-444 -449 0
430 435 440 445 450 0
-430 -435 0
-430 -440 0
-430 -445 0
-430 -450 0
-435 -440 0
-435 -445 0
-435 -450 0
-440 -445 0
-440 -450 0
-445 -450 0
426 451 456 461 466 0
-426 -451 0
-426 -456 0
-426 -461 0
-426 -466 0
-451 -456 0
-451 -461 0
-451 -466 0
-456 -461 0
-456 -466 0
-461 -466 0
427 452 457 462 467 0
-427 -452 0
-427 -457 0
-427 -462 0
-427 -467 0
-452 -457 0
-452 -462 0
-452 -467 0
-457 -462 0
-457 -467 0
-462 -467 0
428 453 458 463 468 0
-428 -453 0
-428 -458 0
-428 -463 0
-428 -468 0
-453 -458 0
-453 -463 0
-453 -468 0
-458 -463 0
-458 -468 0
-463 -468 0
429 454 459 464 469 0
-429 -454 0
-429 -459 0
-429 -464 0
-429 -469 0
-454 -459 0
-454 -464 0
-454 -469 0
-459 -464 0
-459 -469 0
-464 -469 0
430 455 460 465 470 0
-430 -455 0
-430 -460 0
-430 -465 0
-430 -470 0
-455 -460 0
-455 -465 0
-455 -470 0
-460 -465 0
-460 -470 0
-465 -470 0
441 481 556 591 596 0
-441 -481 0
-441 -556 0
-441 -591 0
-441 -596 0
-481 -556 0
-481 -591 0
-481 -596 0
-556 -591 0
-556 -596 0
-591 -596 0
442 482 557 592 597 0
-442 -482 0
-442 -557 0
-442 -592 0
-442 -597 0
-482 -557 0
-482 -592 0
-482 -597 0
-557 -592 0
-557 -597 0
-592 -597 0
443 483 558 593 598 0
-443 -483 0
-443 -558 0
-443 -593 0
-443 -598 0
-483 -558 0
-483 -593 0
-483 -598 0
-558 -593 0
-558 -598 0
-593 -598 0
444 484 559 594 599 0
-444 -484 0
-444 -559 0
-444 -594 0
-444 -599 0
-484 -559 0
-484 -594 0
-484 -599 0
-559 -594 0
-559 -599 0
-594 -599 0
445 485 560 595 600 0
-445 -485 0
-445 -560 0
-445 -595 0
-445 -600 0
-485 -560 0
-485 -595 0
-485 -600 0
-560 -595 0
-560 -600 0
-595 -600 0
441 661 691 741 746 0
-441 -661 0
-441 -691 0
-441 -741 0
-441 -746 0
-661 -691 0
-661 -741 0
-661 -746 0
-691 -741 0
-691 -746 0
-741 -746 0
442 662 692 742 747 0
-442 -662 0
-442 -692 0
-442 -742 0
-442 -747 0
-662 -692 0
-662 -742 0
-662 -747 0
-692 -742 0
-692 -747 0
-742 -747 0
443 663 693 743 748 0
-443 -663 0
-443 -693 0
-443 -743 0
-443 -748 0
-663 -693 0
-663 -743 0
-663 -748 0
-693 -743 0
-693 -748 0
-743 -748 0
444 664 694 744 749 0
-444 -664 0
-444 -694 0
-444 -744 0
-444 -749 0
-664 -694 0
-664 -744 0
-664 -749 0
-694 -744 0
-694 -749 0
-744 -749 0
445 665 695 745 750 0
-445 -665 0
-445 -695 0
-445 -745 0
-445 -750 0
-665 -695 0
-665 -745 0
-665 -750 0
-695 -745 0
-695 -750 0
-745 -750 0
456 531 536 541 546 0
-456 -531 0
-456 -536 0
-456 -541 0
-456 -546 0
-531 -536 0
-531 -541 0
-531 -546 0
-536 -541 0
-536 -546 0
-541 -546 0
457 532 537 542 547 0
-457 -532 0
-457 -537 0
-457 -542 0
-457 -547 0
-532 -537 0
-532 -542 0
-532 -547 0
-537 -542 0
-537 -547 0
-542 -547 0
458 533 538 543 548 0
-458 -533 0
-458 -538 0
-458 -543 0
-458 -548 0
-533 -538 0
-533 -543 0
-533 -548 0
-538 -543 0
-538 -548 0
-543 -548 0
459 534 539 544 549 0
-459 -534 0
-459 -539 0
-459 -544 0
-459 -549 0
-534 -539 0
-534 -544 0
-534 -549 0
-539 -544 0
-539 -549 0
-544 -549 0
460 535 540 545 550 0
-460 -535 0
-460 -540 0
-460 -545 0
-460 -550 0
-535 -540 0
-535 -545 0
-535 -550 0
-540 -545 0
-540 -550 0
-545 -550 0
461 511 531 551 556 0
-461 -511 0
-461 -531 0
-461 -551 0
-461 -556 0
-511 -531 0
-511 -551 0
-511 -556 0
-531 -551 0
-531 -556 0
-551 -556 0
462 512 532 552 557 0
-462 -512 0
-462 -532 0
-462 -552 0
-462 -557 0
-512 -532 0
-512 -552 0
-512 -557 0
-532 -552 0
-532 -557 0
-552 -557 0
463 513 533 553 558 0
-463 -513 0
-463 -533 0
-463 -553 0
-463 -558 0
-513 -533 0
-513 -553 0
-513 -558 0
-533 -553 0
-533 -558 0
-553 -558 0
464 514 534 554 559 0
-464 -514 0
-464 -534 0
-464 -554 0
-464 -559 0
-514 -534 0
-514 -554 0
-514 -559 0
-534 -554 0
-534 -559 0
-554 -559 0
465 515 535 555 560 0
-465 -515 0
-465 -535 0
-465 -555 0
-465 -560 0
-515 -535 0
-515 -555 0
-515 -560 0
-535 -555 0
-535 -560 0
-555 -560 0
461 766 831 836 841 0
-461 -766 0
-461 -831 0
-461 -836 0
-461 -841 0
-766 -831 0
-766 -836 0
-766 -841 0
-831 -836 0
-831 -841 0
-836 -841 0
462 767 832 837 842 0
-462 -767 0
-462 -832 0
-462 -837 0
-462 -842 0
-767 -832 0
-767 -837 0
-767 -842 0
-832 -837 0
-832 -842 0
-837 -842 0
463 768 833 838 843 0
-463 -768 0
-463 -833 0
-463 -838 0
-463 -843 0
-768 -833 0
-768 -838 0
-768 -843 0
-833 -838 0
-833 -843 0
-838 -843 0
464 769 834 839 844 0
-464 -769 0
-464 -834 0
-464 -839 0
-464 -844 0
-769 -834 0
-769 -839 0
-769 -844 0
-834 -839 0
-834 -844 0
-839 -844 0
465 770 835 840 845 0
-465 -770 0
-465 -835 0
-465 -840 0
-465 -845 0
-770 -835 0
-770 -840 0
-770 -845 0
-835 -840 0
-835 -845 0
-840 -845 0
466 521 546 566 581 0
-466 -521 0
-466 -546 0
-466 -566 0
-466 -581 0
-521 -546 0
-521 -566 0
-521 -581 0
-546 -566 0
-546 -581 0
-566 -581 0
467 522 547 567 582 0
-467 -522 0
-467 -547 0
-467 -567 0
-467 -582 0
-522 -547 0
-522 -567 0
-522 -582 0
-547 -567 0
-547 -582 0
-567 -582 0
468 523 548 568 583 0
-468 -523 0
-468 -548 0
-468 -568 0
-468 -583 0
-523 -548 0
-523 -568 0
-523 -583 0
-548 -568 0
-548 -583 0
-568 -583 0
469 524 549 569 584 0
-469 -524 0
-469 -549 0
-469 -569 0
-469 -584 0
-524 -549 0
-524 -569 0
-524 -584 0
-549 -569 0
-549 -584 0
-569 -584 0
470 525 550 570 585 0
-470 -525 0
-470 -550 0
-470 -570 0
-470 -585 0
-525 -550 0
-525 -570 0
-525 -585 0
-550 -570 0
-550 -585 0
-570 -585 0
466 791 821 841 861 0
-466 -791 0
-466 -821 0
-466 -841 0
-466 -861 0
-791 -821 0
-791 -841 0
-791 -861 0
-821 -841 0
-821 -861 0
-841 -861 0
467 792 822 842 862 0
-467 -792 0
-467 -822 0
-467 -842 0
-467 -862 0
-792 -822 0
-792 -842 0
-792 -862 0
-822 -842 0
-822 -862 0
-842 -862 0
468 793 823 843 863 0
-468 -793 0
-468 -823 0
-468 -843 0
-468 -863 0
-793 -823 0
-793 -843 0
-793 -863 0
-823 -843 0
-823 -863 0
-843 -863 0
469 794 824 844 864 0
-469 -794 0
-469 -824 0
-469 -844 0
-469 -864 0
-794 -824 0
-794 -844 0
-794 -864 0
-824 -844 0
-824 -864 0
-844 -864 0
470 795 825 845 865 0
-470 -795 0
-470 -825 0
-470 -845 0
-470 -865 0
-795 -825 0
-795 -845 0
-795 -865 0
-825 -845 0
-825 -865 0
-845 -865 0
476 636 896 936 971 0
-476 -636 0
-476 -896 0
-476 -936 0
-476 -971 0
-636 -896 0
-636 -936 0
-636 -971 0
-896 -936 0
-896 -971 0
-936 -971 0
477 637 897 937 972 0
-477 -637 0
-477 -897 0
-477 -937 0
-477 -972 0
-637 -897 0
-637 -937 0
-637 -972 0
-897 -937 0
-897 -972 0
-937 -972 0
478 638 898 938 973 0
-478 -638 0
-478 -898 0
-478 -938 0
-478 -973 0
-638 -898 0
-638 -938 0
-638 -973 0
-898 -938 0
-898 -973 0
-938 -973 0
479 639 899 939 974 0
-479 -639 0
-479 -899 0
-479 -939 0
-479 -974 0
-639 -899 0
-639 -939 0
-639 -974 0
-899 -939 0
-899 -974 0
-939 -974 0
480 640 900 940 975 0
-480 -640 0
-480 -900 0
-480 -940 0
-480 -975 0
-640 -900 0
-640 -940 0
-640 -975 0
-900 -940 0
-900 -975 0
-940 -975 0
481 916 976 991 996 0
-481 -916 0
-481 -976 0
-481 -991 0
-481 -996 0
-916 -976 0
-916 -991 0
-916 -996 0
-976 -991 0
-976 -996 0
-991 -996 0
482 917 977 992 997 0
-482 -917 0
-482 -977 0
-482 -992 0
-482 -997 0
-917 -977 0
-917 -992 0
-917 -997 0
-977 -992 0
-977 -997 0
-992 -997 0
483 918 978 993 998 0
-483 -918 0
-483 -978 0
-483 -993 0
-483 -998 0
-918 -978 0
-918 -993 0
-918 -998 0
-978 -993 0
-978 -998 0
-993 -998 0
484 919 979 994 999 0
-484 -919 0
-484 -979 0
-484 -994 0
-484 -999 0
-919 -979 0
-919 -994 0
-919 -999 0
-979 -994 0
-979 -999 0
-994 -999 0
485 920 980 995 1000 0
-485 -920 0
-485 -980 0
-485 -995 0
-485 -1000 0
-920 -980 0
-920 -995 0
-920 -1000 0
-980 -995 0
-980 -1000 0
-995 -1000 0
486 491 496 501 506 0
-486 -491 0
-486 -496 0
-486 -501 0
-486 -506 0
-491 -496 0
-491 -501 0
-491 -506 0
-496 -501 0
-496 -506 0
-501 -506 0
487 492 497 502 507 0
-487 -492 0
-487 -497 0
-487 -502 0
-487 -507 0
-492 -497 0
-492 -502 0
-492 -507 0
-497 -502 0
-497 -507 0
-502 -507 0
488 493 498 503 508 0
-488 -493 0
-488 -498 0
-488 -503 0
-488 -508 0
-493 -498 0
-493 -503 0
-493 -508 0
-498 -503 0
-498 -508 0
-503 -508 0
489 494 499 504 509 0
-489 -494 0
-489 -499 0
-489 -504 0
-489 -509 0
-494 -499 0
-494 -504 0
-494 -509 0
-499 -504 0
-499 -509 0
-504 -509 0
490 495 500 505 510 0
-490 -495 0
-490 -500 0
-490 -505 0
-490 -510 0
-495 -500 0
-495 -505 0
-495 -510 0
-500 -505 0
-500 -510 0
-505 -510 0
486 776 1006 1011 1016 0
-486 -776 0
-486 -1006 0
-486 -1011 0
-486 -1016 0
-776 -1006 0
-776 -1011 0
-776 -1016 0
-1006 -1011 0
-1006 -1016 0
-1011 -1016 0
487 777 1007 1012 1017 0
-487 -777 0
-487 -1007 0
-487 -1012 0
-487 -1017 0
-777 -1007 0
-777 -1012 0
-777 -1017 0
-1007 -1012 0
-1007 -1017 0
-1012 -1017 0
488 778 1008 1013 1018 0
-488 -778 0
-488 -1008 0
-488 -1013 0
-488 -1018 0
-778 -1008 0
-778 -1013 0
-778 -1018 0
-1008 -1013 0
-1008 -1018 0
-1013 -1018 0
489 779 1009 1014 1019 0
-489 -779 0
-489 -1009 0
-489 -1014 0
-489 -1019 0
-779 -1009 0
-779 -1014 0
-779 -1019 0
-1009 -1014 0
-1009 -1019 0
-1014 -1019 0
490 780 1010 1015 1020 0
-490 -780 0
-490 -1010 0
-490 -1015 0
-490 -1020 0
-780 -1010 0
-780 -1015 0
-780 -1020 0
-1010 -1015 0
-1010 -1020 0
-1015 -1020 0
491 551 561 566 571 0
-491 -551 0
-491 -561 0
-491 -566 0
-491 -571 0
-551 -561 0
-551 -566 0
-551 -571 0
-561 -566 0
-561 -571 0
-566 -571 0
492 552 562 567 572 0
-492 -552 0
-492 -562 0
-492 -567 0
-492 -572 0
-552 -562 0
-552 -567 0
-552 -572 0
-562 -567 0
-562 -572 0
-567 -572 0
493 553 563 568 573 0
-493 -553 0
-493 -563 0
-493 -568 0
-493 -573 0
-553 -563 0
-553 -568 0
-553 -573 0
-563 -568 0
-563 -573 0
-568 -573 0
494 554 564 569 574 0
-494 -554 0
-494 -564 0
-494 -569 0
-494 -574 0
-554 -564 0
-554 -569 0
-554 -574 0
-564 -569 0
-564 -574 0
-569 -574 0
495 555 565 570 575 0
-495 -555 0
-495 -565 0
-495 -570 0
-495 -575 0
-555 -565 0
-555 -570 0
-555 -575 0
-565 -570 0
-565 -575 0
-570 -575 0
496 896 1026 1041 1071 0
-496 -896 0
-496 -1026 0
-496 -1041 0
-496 -1071 0
-896 -1026 0
-896 -1041 0
-896 -1071 0
-1026 -1041 0
-1026 -1071 0
-1041 -1071 0
497 897 1027 1042 1072 0
-497 -897 0
-497 -1027 0
-497 -1042 0
-497 -1072 0
-897 -1027 0
-897 -1042 0
-897 -1072 0
-1027 -1042 0
-1027 -1072 0
-1042 -1072 0
498 898 1028 1043 1073 0
-498 -898 0
-498 -1028 0
-498 -1043 0
-498 -1073 0
-898 -1028 0
-898 -1043 0
-898 -1073 0
-1028 -1043 0
-1028 -1073 0
-1043 -1073 0
499 899 1029 1044 1074 0
-499 -899 0
-499 -1029 0
-499 -1044 0
-499 -1074 0
-899 -1029 0
-899 -1044 0
-899 -1074 0
-1029 -1044 0
-1029 -1074 0
-1044 -1074 0
500 900 1030 1045 1075 0
-500 -900 0
-500 -1030 0
-500 -1045 0
-500 -1075 0
-900 -1030 0
-900 -1045 0
-900 -1075 0
-1030 -1045 0
-1030 -1075 0
-1045 -1075 0
506 536 576 591 601 0
-506 -536 0
-506 -576 0
-506 -591 0
-506 -601 0
-536 -576 0
-536 -591 0
-536 -601 0
-576 -591 0
-576 -601 0
-591 -601 0
507 537 577 592 602 0
-507 -537 0
-507 -577 0
-507 -592 0
-507 -602 0
-537 -577 0
-537 -592 0
-537 -602 0
-577 -592 0
-577 -602 0
-592 -602 0
508 538 578 593 603 0
-508 -538 0
-508 -578 0
-508 -593 0
-508 -603 0
-538 -578 0
-538 -593 0
-538 -603 0
-578 -593 0
-578 -603 0
-593 -603 0
509 539 579 594 604 0
-509 -539 0
-509 -579 0
-509 -594 0
-509 -604 0
-539 -579 0
-539 -594 0
-539 -604 0
-579 -594 0
-579 -604 0
-594 -604 0
510 540 580 595 605 0
-510 -540 0
-510 -580 0
-510 -595 0
-510 -605 0
-540 -580 0
-540 -595 0
-540 -605 0
-580 -595 0
-580 -605 0
-595 -605 0
511 1101 1121 1141 1146 0
-511 -1101 0
-511 -1121 0
-511 -1141 0
-511 -1146 0
-1101 -1121 0
-1101 -1141 0
-1101 -1146 0
-1121 -1141 0
-1121 -1146 0
-1141 -1146 0
512 1102 1122 1142 1147 0
-512 -1102 0
-512 -1122 0
-512 -1142 0
-512 -1147 0
-1102 -1122 0
-1102 -1142 0
-1102 -1147 0
-1122 -1142 0
-1122 -1147 0
-1142 -1147 0
513 1103 1123 1143 1148 0
-513 -1103 0
-513 -1123 0
-513 -1143 0
-513 -1148 0
-1103 -1123 0
-1103 -1143 0
-1103 -1148 0
-1123 -1143 0
-1123 -1148 0
-1143 -1148 0
514 1104 1124 1144 1149 0
-514 -1104 0
-514 -1124 0
-514 -1144 0
-514 -1149 0
-1104 -1124 0
-1104 -1144 0
-1104 -1149 0
-1124 -1144 0
-1124 -1149 0
-1144 -1149 0
515 1105 1125 1145 1150 0
-515 -1105 0
-515 -1125 0
-515 -1145 0
-515 -1150 0
-1105 -1125 0
-1105 -1145 0
-1105 -1150 0
-1125 -1145 0
-1125 -1150 0
-1145 -1150 0
516 676 1231 1236 1241 0
-516 -676 0
-516 -1231 0
-516 -1236 0
-516 -1241 0
-676 -1231 0
-676 -1236 0
-676 -1241 0
-1231 -1236 0
-1231 -1241 0
-1236 -1241 0
517 677 1232 1237 1242 0
-517 -677 0
-517 -1232 0
-517 -1237 0
-517 -1242 0
-677 -1232 0
-677 -1237 0
-677 -1242 0
-1232 -1237 0
-1232 -1242 0
-1237 -1242 0
518 678 1233 1238 1243 0
-518 -678 0
-518 -1233 0
-518 -1238 0
-518 -1243 0
-678 -1233 0
-678 -1238 0
-678 -1243 0
-1233 -1238 0
-1233 -1243 0
-1238 -1243 0
519 679 1234 1239 1244 0
-519 -679 0
-519 -1234 0
-519 -1239 0
-519 -1244 0
-679 -1234 0
-679 -1239 0
-679 -1244 0
-1234 -1239 0
-1234 -1244 0
-1239 -1244 0
520 680 1235 1240 1245 0
-520 -680 0
-520 -1235 0
-520 -1240 0
-520 -1245 0
-680 -1235 0
-680 -1240 0
-680 -1245 0
-1235 -1240 0
-1235 -1245 0
-1240 -1245 0
521 1116 1216 1236 1246 0
-521 -1116 0
-521 -1216 0
-521 -1236 0
-521 -1246 0
-1116 -1216 0
-1116 -1236 0
-1116 -1246 0
-1216 -1236 0
-1216 -1246 0
-1236 -1246 0
522 1117 1217 1237 1247 0
-522 -1117 0
-522 -1217 0
-522 -1237 0
-522 -1247 0
-1117 -1217 0
-1117 -1237 0
-1117 -1247 0
-1217 -1237 0
-1217 -1247 0
-1237 -1247 0
523 1118 1218 1238 1248 0
-523 -1118 0
-523 -1218 0
-523 -1238 0
-523 -1248 0
-1118 -1218 0
-1118 -1238 0
-1118 -1248 0
-1218 -1238 0
-1218 -1248 0
-1238 -1248 0
524 1119 1219 1239 1249 0
-524 -1119 0
-524 -1219 0
-524 -1239 0
-524 -1249 0
-1119 -1219 0
-1119 -1239 0
-1119 -1249 0
-1219 -1239 0
-1219 -1249 0
-1239 -1249 0
525 1120 1220 1240 1250 0
-525 -1120 0
-525 -1220 0
-525 -1240 0
-525 -1250 0
-1120 -1220 0
-1120 -1240 0
-1120 -1250 0
-1220 -1240 0
-1220 -1250 0
-1240 -1250 0
526 926 1241 1256 1261 0
-526 -926 0
-526 -1241 0
-526 -1256 0
-526 -1261 0
-926 -1241 0
-926 -1256 0
-926 -1261 0
-1241 -1256 0
-1241 -1261 0
-1256 -1261 0
527 927 1242 1257 1262 0
-527 -927 0
-527 -1242 0
-527 -1257 0
-527 -1262 0
-927 -1242 0
-927 -1257 0
-927 -1262 0
-1242 -1257 0
-1242 -1262 0
-1257 -1262 0
528 928 1243 1258 1263 0
-528 -928 0
-528 -1243 0
-528 -1258 0
-528 -1263 0
-928 -1243 0
-928 -1258 0
-928 -1263 0
-1243 -1258 0
-1243 -1263 0
-1258 -1263 0
529 929 1244 1259 1264 0
-529 -929 0
-529 -1244 0
-529 -1259 0
-529 -1264 0
-929 -1244 0
-929 -1259 0
-929 -1264 0
-1244 -1259 0
-1244 -1264 0
-1259 -1264 0
530 930 1245 1260 1265 0
-530 -930 0
-530 -1245 0
-530 -1260 0
-530 -1265 0
-930 -1245 0
-930 -1260 0
-930 -1265 0
-1245 -1260 0
-1245 -1265 0
-1260 -1265 0
536 696 941 1291 1296 0
-536 -696 0
-536 -941 0
-536 -1291 0
-536 -1296 0
-696 -941 0
-696 -1291 0
-696 -1296 0
-941 -1291 0
-941 -1296 0
-1291 -1296 0
537 697 942 1292 1297 0
-537 -697 0
-537 -942 0
-537 -1292 0
-537 -1297 0
-697 -942 0
-697 -1292 0
-697 -1297 0
-942 -1292 0
-942 -1297 0
-1292 -1297 0
538 698 943 1293 1298 0
-538 -698 0
-538 -943 0
-538 -1293 0
-538 -1298 0
-698 -943 0
-698 -1293 0
-698 -1298 0
-943 -1293 0
-943 -1298 0
-1293 -1298 0
539 699 944 1294 1299 0
-539 -699 0
-539 -944 0
-539 -1294 0
-539 -1299 0
-699 -944 0
-699 -1294 0
-699 -1299 0
-944 -1294 0
-944 -1299 0
-1294 -1299 0
540 700 945 1295 1300 0
-540 -700 0
-540 -945 0
-540 -1295 0
-540 -1300 0
-700 -945 0
-700 -1295 0
-700 -1300 0
-945 -1295 0
-945 -1300 0
-1295 -1300 0
541 1046 1211 1291 1301 0
-541 -1046 0
-541 -1211 0
-541 -1291 0
-541 -1301 0
-1046 -1211 0
-1046 -1291 0
-1046 -1301 0
-1211 -1291 0
-1211 -1301 0
-1291 -1301 0
542 1047 1212 1292 1302 0
-542 -1047 0
-542 -1212 0
-542 -1292 0
-542 -1302 0
-1047 -1212 0
-1047 -1292 0
-1047 -1302 0
-1212 -1292 0
-1212 -1302 0
-1292 -1302 0
543 1048 1213 1293 1303 0
-543 -1048 0
-543 -1213 0
-543 -1293 0
-543 -1303 0
-1048 -1213 0
-1048 -1293 0
-1048 -1303 0
-1213 -1293 0
-1213 -1303 0
-1293 -1303 0
544 1049 1214 1294 1304 0
-544 -1049 0
-544 -1214 0
-544 -1294 0
-544 -1304 0
-1049 -1214 0
-1049 -1294 0
-1049 -1304 0
-1214 -1294 0
-1214 -1304 0
-1294 -1304 0
545 1050 1215 1295 1305 0
-545 -1050 0
-545 -1215 0
-545 -1295 0
-545 -1305 0
-1050 -1215 0
-1050 -1295 0
-1050 -1305 0
-1215 -1295 0
-1215 -1305 0
-1295 -1305 0
546 701 821 946 1296 0
-546 -701 0
-546 -821 0
-546 -946 0
-546 -1296 0
-701 -821 0
-701 -946 0
-701 -1296 0
-821 -946 0
-821 -1296 0
-946 -1296 0
547 702 822 947 1297 0
-547 -702 0
-547 -822 0
-547 -947 0
-547 -1297 0
-702 -822 0
-702 -947 0
-702 -1297 0
-822 -947 0
-822 -1297 0
-947 -1297 0
548 703 823 948 1298 0
-548 -703 0
-548 -823 0
-548 -948 0
-548 -1298 0
-703 -823 0
-703 -948 0
-703 -1298 0
-823 -948 0
-823 -1298 0
-948 -1298 0
549 704 824 949 1299 0
-549 -704 0
-549 -824 0
-549 -949 0
-549 -1299 0
-704 -824 0
-704 -949 0
-704 -1299 0
-824 -949 0
-824 -1299 0
-949 -1299 0
550 705 825 950 1300 0
-550 -705 0
-550 -825 0
-550 -950 0
-550 -1300 0
-705 -825 0
-705 -950 0
-705 -1300 0
-825 -950 0
-825 -1300 0
-950 -1300 0
571 966 1066 1366 1391 0
-571 -966 0
-571 -1066 0
-571 -1366 0
-571 -1391 0
-966 -1066 0
-966 -1366 0
-966 -1391 0
-1066 -1366 0
-1066 -1391 0
-1366 -1391 0
572 967 1067 1367 1392 0
-572 -967 0
-572 -1067 0
-572 -1367 0
-572 -1392 0
-967 -1067 0
-967 -1367 0
-967 -1392 0
-1067 -1367 0
-1067 -1392 0
-1367 -1392 0
573 968 1068 1368 1393 0
-573 -968 0
-573 -1068 0
-573 -1368 0
-573 -1393 0
-968 -1068 0
-968 -1368 0
-968 -1393 0
-1068 -1368 0
-1068 -1393 0
-1368 -1393 0
574 969 1069 1369 1394 0
-574 -969 0
-574 -1069 0
-574 -1369 0
-574 -1394 0
-969 -1069 0
-969 -1369 0
-969 -1394 0
-1069 -1369 0
-1069 -1394 0
-1369 -1394 0
575 970 1070 1370 1395 0
-575 -970 0
-575 -1070 0
-575 -1370 0
-575 -1395 0
-970 -1070 0
-970 -1370 0
-970 -1395 0
-1070 -1370 0
-1070 -1395 0
-1370 -1395 0
581 861 1396 1401 1406 0
-581 -861 0
-581 -1396 0
-581 -1401 0
-581 -1406 0
-861 -1396 0
-861 -1401 0
-861 -1406 0
-1396 -1401 0
-1396 -1406 0
-1401 -1406 0
582 862 1397 1402 1407 0
-582 -862 0
-582 -1397 0
-582 -1402 0
-582 -1407 0
-862 -1397 0
-862 -1402 0
-862 -1407 0
-1397 -1402 0
-1397 -1407 0
-1402 -1407 0
583 863 1398 1403 1408 0
-583 -863 0
-583 -1398 0
-583 -1403 0
-583 -1408 0
-863 -1398 0
-863 -1403 0
-863 -1408 0
-1398 -1403 0
-1398 -1408 0
-1403 -1408 0
584 864 1399 1404 1409 0
-584 -864 0
-584 -1399 0
-584 -1404 0
-584 -1409 0
-864 -1399 0
-864 -1404 0
-864 -1409 0
-1399 -1404 0
-1399 -1409 0
-1404 -1409 0
585 865 1400 1405 1410 0
-585 -865 0
-585 -1400 0
-585 -1405 0
-585 -1410 0
-865 -1400 0
-865 -1405 0
-865 -1410 0
-1400 -1405 0
-1400 -1410 0
-1405 -1410 0
586 876 986 1411 1416 0
-586 -876 0
-586 -986 0
-586 -1411 0
-586 -1416 0
-876 -986 0
-876 -1411 0
-876 -1416 0
-986 -1411 0
-986 -1416 0
-1411 -1416 0
587 877 987 1412 1417 0
-587 -877 0
-587 -987 0
-587 -1412 0
-587 -1417 0
-877 -987 0
-877 -1412 0
-877 -1417 0
-987 -1412 0
-987 -1417 0
-1412 -1417 0
588 878 988 1413 1418 0
-588 -878 0
-588 -988 0
-588 -1413 0
-588 -1418 0
-878 -988 0
-878 -1413 0
-878 -1418 0
-988 -1413 0
-988 -1418 0
-1413 -1418 0
589 879 989 1414 1419 0
-589 -879 0
-589 -989 0
-589 -1414 0
-589 -1419 0
-879 -989 0
-879 -1414 0
-879 -1419 0
-989 -1414 0
-989 -1419 0
-1414 -1419 0
590 880 990 1415 1420 0
-590 -880 0
-590 -990 0
-590 -1415 0
-590 -1420 0
-880 -990 0
-880 -1415 0
-880 -1420 0
-990 -1415 0
-990 -1420 0
-1415 -1420 0
591 881 991 1081 1386 0
-591 -881 0
-591 -991 0
-591 -1081 0
-591 -1386 0
-881 -991 0
-881 -1081 0
-881 -1386 0
-991 -1081 0
-991 -1386 0
-1081 -1386 0
592 882 992 1082 1387 0
-592 -882 0
-592 -992 0
-592 -1082 0
-592 -1387 0
-882 -992 0
-882 -1082 0
-882 -1387 0
-992 -1082 0
-992 -1387 0
-1082 -1387 0
593 883 993 1083 1388 0
-593 -883 0
-593 -993 0
-593 -1083 0
-593 -1388 0
-883 -993 0
-883 -1083 0
-883 -1388 0
-993 -1083 0
-993 -1388 0
-1083 -1388 0
594 884 994 1084 1389 0
-594 -884 0
-594 -994 0
-594 -1084 0
-594 -1389 0
-884 -994 0
-884 -1084 0
-884 -1389 0
-994 -1084 0
-994 -1389 0
-1084 -1389 0
595 885 995 1085 1390 0
-595 -885 0
-595 -995 0
-595 -1085 0
-595 -1390 0
-885 -995 0
-885 -1085 0
-885 -1390 0
-995 -1085 0
-995 -1390 0
-1085 -1390 0
601 1191 1256 1341 1421 0
-601 -1191 0
-601 -1256 0
-601 -1341 0
-601 -1421 0
-1191 -1256 0
-1191 -1341 0
-1191 -1421 0
-1256 -1341 0
-1256 -1421 0
-1341 -1421 0
602 1192 1257 1342 1422 0
-602 -1192 0
-602 -1257 0
-602 -1342 0
-602 -1422 0
-1192 -1257 0
-1192 -1342 0
-1192 -1422 0
-1257 -1342 0
-1257 -1422 0
-1342 -1422 0
603 1193 1258 1343 1423 0
-603 -1193 0
-603 -1258 0
-603 -1343 0
-603 -1423 0
-1193 -1258 0
-1193 -1343 0
-1193 -1423 0
-1258 -1343 0
-1258 -1423 0
-1343 -1423 0
604 1194 1259 1344 1424 0
-604 -1194 0
-604 -1259 0
-604 -1344 0
-604 -1424 0
-1194 -1259 0
-1194 -1344 0
-1194 -1424 0
-1259 -1344 0
-1259 -1424 0
-1344 -1424 0
605 1195 1260 1345 1425 0
-605 -1195 0
-605 -1260 0
-605 -1345 0
-605 -1425 0
-1195 -1260 0
-1195 -1345 0
-1195 -1425 0
-1260 -1345 0
-1260 -1425 0
-1345 -1425 0
606 646 676 681 686 0
-606 -646 0
-606 -676 0
-606 -681 0
-606 -686 0
-646 -676 0
-646 -681 0
-646 -686 0
-676 -681 0
-676 -686 0
-681 -686 0
607 647 677 682 687 0
-607 -647 0
-607 -677 0
-607 -682 0
-607 -687 0
-647 -677 0
-647 -682 0
-647 -687 0
-677 -682 0
-677 -687 0
-682 -687 0
608 648 678 683 688 0
-608 -648 0
-608 -678 0
-608 -683 0
-608 -688 0
-648 -678 0
-648 -683 0
-648 -688 0
-678 -683 0
-678 -688 0
-683 -688 0
609 649 679 684 689 0
-609 -649 0
-609 -679 0
-609 -684 0
-609 -689 0
-649 -679 0
-649 -684 0
-649 -689 0
-679 -684 0
-679 -689 0
-684 -689 0
610 650 680 685 690 0
-610 -650 0
-610 -680 0
-610 -685 0
-610 -690 0
-650 -680 0
-650 -685 0
-650 -690 0
-680 -685 0
-680 -690 0
-685 -690 0
611 631 656 666 726 0
-611 -631 0
-611 -656 0
-611 -666 0
-611 -726 0
-631 -656 0
-631 -666 0
-631 -726 0
-656 -666 0
-656 -726 0
-666 -726 0
612 632 657 667 727 0
-612 -632 0
-612 -657 0
-612 -667 0
-612 -727 0
-632 -657 0
-632 -667 0
-632 -727 0
-657 -667 0
-657 -727 0
-667 -727 0
613 633 658 668 728 0
-613 -633 0
-613 -658 0
-613 -668 0
-613 -728 0
-633 -658 0
-633 -668 0
-633 -728 0
-658 -668 0
-658 -728 0
-668 -728 0
614 634 659 669 729 0
-614 -634 0
-614 -659 0
-614 -669 0
-614 -729 0
-634 -659 0
-634 -669 0
-634 -729 0
-659 -669 0
-659 -729 0
-669 -729 0
615 635 660 670 730 0
-615 -635 0
-615 -660 0
-615 -670 0
-615 -730 0
-635 -660 0
-635 -670 0
-635 -730 0
-660 -670 0
-660 -730 0
-670 -730 0
616 796 851 856 861 0
-616 -796 0
-616 -851 0
-616 -856 0
-616 -861 0
-796 -851 0
-796 -856 0
-796 -861 0
-851 -856 0
-851 -861 0
-856 -861 0
617 797 852 857 862 0
-617 -797 0
-617 -852 0
-617 -857 0
-617 -862 0
-797 -852 0
-797 -857 0
-797 -862 0
-852 -857 0
-852 -862 0
-857 -862 0
618 798 853 858 863 0
-618 -798 0
-618 -853 0
-618 -858 0
-618 -863 0
-798 -853 0
-798 -858 0
-798 -863 0
-853 -858 0
-853 -863 0
-858 -863 0
619 799 854 859 864 0
-619 -799 0
-619 -854 0
-619 -859 0
-619 -864 0
-799 -854 0
-799 -859 0
-799 -864 0
-854 -859 0
-854 -864 0
-859 -864 0
620 800 855 860 865 0
-620 -800 0
-620 -855 0
-620 -860 0
-620 -865 0
-800 -855 0
-800 -860 0
-800 -865 0
-855 -860 0
-855 -865 0
-860 -865 0
621 626 631 636 641 0
-621 -626 0
-621 -631 0
-621 -636 0
-621 -641 0
-626 -631 0
-626 -636 0
-626 -641 0
-631 -636 0
-631 -641 0
-636 -641 0
622 627 632 637 642 0
-622 -627 0
-622 -632 0
-622 -637 0
-622 -642 0
-627 -632 0
-627 -637 0
-627 -642 0
-632 -637 0
-632 -642 0
-637 -642 0
623 628 633 638 643 0
-623 -628 0
-623 -633 0
-623 -638 0
-623 -643 0
-628 -633 0
-628 -638 0
-628 -643 0
-633 -638 0
-633 -643 0
-638 -643 0
624 629 634 639 644 0
-624 -629 0
-624 -634 0
-624 -639 0
-624 -644 0
-629 -634 0
-629 -639 0
-629 -644 0
-634 -639 0
-634 -644 0
-639 -644 0
625 630 635 640 645 0
-625 -630 0
-625 -635 0
-625 -640 0
-625 -645 0
-630 -635 0
-630 -640 0
-630 -645 0
-635 -640 0
-635 -645 0
-640 -645 0
621 646 651 656 661 0
-621 -646 0
-621 -651 0
-621 -656 0
-621 -661 0
-646 -651 0
-646 -656 0
-646 -661 0
-651 -656 0
-651 -661 0
-656 -661 0
622 647 652 657 662 0
-622 -647 0
-622 -652 0
-622 -657 0
-622 -662 0
-647 -652 0
-647 -657 0
-647 -662 0
-652 -657 0
-652 -662 0
-657 -662 0
623 648 653 658 663 0
-623 -648 0
-623 -653 0
-623 -658 0
-623 -663 0
-648 -653 0
-648 -658 0
-648 -663 0
-653 -658 0
-653 -663 0
-658 -663 0
624 649 654 659 664 0
-624 -649 0
-624 -654 0
-624 -659 0
-624 -664 0
-649 -654 0
-649 -659 0
-649 -664 0
-654 -659 0
-654 -664 0
-659 -664 0
625 650 655 660 665 0
-625 -650 0
-625 -655 0
-625 -660 0
-625 -665 0
-650 -655 0
-650 -660 0
-650 -665 0
-655 -660 0
-655 -665 0
-660 -665 0
626 931 936 941 946 0
-626 -931 0
-626 -936 0
-626 -941 0
-626 -946 0
-931 -936 0
-931 -941 0
-931 -946 0
-936 -941 0
-936 -946 0
-941 -946 0
627 932 937 942 947 0
-627 -932 0
-627 -937 0
-627 -942 0
-627 -947 0
-932 -937 0
-932 -942 0
-932 -947 0
-937 -942 0
-937 -947 0
-942 -947 0
628 933 938 943 948 0
-628 -933 0
-628 -938 0
-628 -943 0
-628 -948 0
-933 -938 0
-933 -943 0
-933 -948 0
-938 -943 0
-938 -948 0
-943 -948 0
629 934 939 944 949 0
-629 -934 0
-629 -939 0
-629 -944 0
-629 -949 0
-934 -939 0
-934 -944 0
-934 -949 0
-939 -944 0
-939 -949 0
-944 -949 0
630 935 940 945 950 0
-630 -935 0
-630 -940 0
-630 -945 0
-630 -950 0
-935 -940 0
-935 -945 0
-935 -950 0
-940 -945 0
-940 -950 0
-945 -950 0
641 901 976 981 986 0
-641 -901 0
-641 -976 0
-641 -981 0
-641 -986 0
-901 -976 0
-901 -981 0
-901 -986 0
-976 -981 0
-976 -986 0
-981 -986 0
642 902 977 982 987 0
-642 -902 0
-642 -977 0
-642 -982 0
-642 -987 0
-902 -977 0
-902 -982 0
-902 -987 0
-977 -982 0
-977 -987 0
-982 -987 0
643 903 978 983 988 0
-643 -903 0
-643 -978 0
-643 -983 0
-643 -988 0
-903 -978 0
-903 -983 0
-903 -988 0
-978 -983 0
-978 -988 0
-983 -988 0
644 904 979 984 989 0
-644 -904 0
-644 -979 0
-644 -984 0
-644 -989 0
-904 -979 0
-904 -984 0
-904 -989 0
-979 -984 0
-979 -989 0
-984 -989 0
645 905 980 985 990 0
-645 -905 0
-645 -980 0
-645 -985 0
-645 -990 0
-905 -980 0
-905 -985 0
-905 -990 0
-980 -985 0
-980 -990 0
-985 -990 0
651 706 711 716 721 0
-651 -706 0
-651 -711 0
-651 -716 0
-651 -721 0
-706 -711 0
-706 -716 0
-706 -721 0
-711 -716 0
-711 -721 0
-716 -721 0
652 707 712 717 722 0
-652 -707 0
-652 -712 0
-652 -717 0
-652 -722 0
-707 -712 0
-707 -717 0
-707 -722 0
-712 -717 0
-712 -722 0
-717 -722 0
653 708 713 718 723 0
-653 -708 0
-653 -713 0
-653 -718 0
-653 -723 0
-708 -713 0
-708 -718 0
-708 -723 0
-713 -718 0
-713 -723 0
-718 -723 0
654 709 714 719 724 0
-654 -709 0
-654 -714 0
-654 -719 0
-654 -724 0
-709 -714 0
-709 -719 0
-709 -724 0
-714 -719 0
-714 -724 0
-719 -724 0
655 710 715 720 725 0
-655 -710 0
-655 -715 0
-655 -720 0
-655 -725 0
-710 -715 0
-710 -720 0
-710 -725 0
-715 -720 0
-715 -725 0
-720 -725 0
651 891 1051 1056 1061 0
-651 -891 0
-651 -1051 0
-651 -1056 0
-651 -1061 0
-891 -1051 0
-891 -1056 0
-891 -1061 0
-1051 -1056 0
-1051 -1061 0
-1056 -1061 0
652 892 1052 1057 1062 0
-652 -892 0
-652 -1052 0
-652 -1057 0
-652 -1062 0
-892 -1052 0
-892 -1057 0
-892 -1062 0
-1052 -1057 0
-1052 -1062 0
-1057 -1062 0
653 893 1053 1058 1063 0
-653 -893 0
-653 -1053 0
-653 -1058 0
-653 -1063 0
-893 -1053 0
-893 -1058 0
-893 -1063 0
-1053 -1058 0
-1053 -1063 0
-1058 -1063 0
654 894 1054 1059 1064 0
-654 -894 0
-654 -1054 0
-654 -1059 0
-654 -1064 0
-894 -1054 0
-894 -1059 0
-894 -1064 0
-1054 -1059 0
-1054 -1064 0
-1059 -1064 0
655 895 1055 1060 1065 0
-655 -895 0
-655 -1055 0
-655 -1060 0
-655 -1065 0
-895 -1055 0
-895 -1060 0
-895 -1065 0
-1055 -1060 0
-1055 -1065 0
-1060 -1065 0
666 1106 1126 1141 1151 0
-666 -1106 0
-666 -1126 0
-666 -1141 0
-666 -1151 0
-1106 -1126 0
-1106 -1141 0
-1106 -1151 0
-1126 -1141 0
-1126 -1151 0
-1141 -1151 0
667 1107 1127 1142 1152 0
-667 -1107 0
-667 -1127 0
-667 -1142 0
-667 -1152 0
-1107 -1127 0
-1107 -1142 0
-1107 -1152 0
-1127 -1142 0
-1127 -1152 0
-1142 -1152 0
668 1108 1128 1143 1153 0
-668 -1108 0
-668 -1128 0
-668 -1143 0
-668 -1153 0
-1108 -1128 0
-1108 -1143 0
-1108 -1153 0
-1128 -1143 0
-1128 -1153 0
-1143 -1153 0
669 1109 1129 1144 1154 0
-669 -1109 0
-669 -1129 0
-669 -1144 0
-669 -1154 0
-1109 -1129 0
-1109 -1144 0
-1109 -1154 0
-1129 -1144 0
-1129 -1154 0
-1144 -1154 0
670 1110 1130 1145 1155 0
-670 -1110 0
-670 -1130 0
-670 -1145 0
-670 -1155 0
-1110 -1130 0
-1110 -1145 0
-1110 -1155 0
-1130 -1145 0
-1130 -1155 0
-1145 -1155 0
671 681 696 711 726 0
-671 -681 0
-671 -696 0
-671 -711 0
-671 -726 0
-681 -696 0
-681 -711 0
-681 -726 0
-696 -711 0
-696 -726 0
-711 -726 0
672 682 697 712 727 0
-672 -682 0
-672 -697 0
-672 -712 0
-672 -727 0
-682 -697 0
-682 -712 0
-682 -727 0
-697 -712 0
-697 -727 0
-712 -727 0
673 683 698 713 728 0
-673 -683 0
-673 -698 0
-673 -713 0
-673 -728 0
-683 -698 0
-683 -713 0
-683 -728 0
-698 -713 0
-698 -728 0
-713 -728 0
674 684 699 714 729 0
-674 -684 0
-674 -699 0
-674 -714 0
-674 -729 0
-684 -699 0
-684 -714 0
-684 -729 0
-699 -714 0
-699 -729 0
-714 -729 0
675 685 700 715 730 0
-675 -685 0
-675 -700 0
-675 -715 0
-675 -730 0
-685 -700 0
-685 -715 0
-685 -730 0
-700 -715 0
-700 -730 0
-715 -730 0
671 1151 1181 1186 1191 0
-671 -1151 0
-671 -1181 0
-671 -1186 0
-671 -1191 0
-1151 -1181 0
-1151 -1186 0
-1151 -1191 0
-1181 -1186 0
-1181 -1191 0
-1186 -1191 0
672 1152 1182 1187 1192 0
-672 -1152 0
-672 -1182 0
-672 -1187 0
-672 -1192 0
-1152 -1182 0
-1152 -1187 0
-1152 -1192 0
-1182 -1187 0
-1182 -1192 0
-1187 -1192 0
673 1153 1183 1188 1193 0
-673 -1153 0
-673 -1183 0
-673 -1188 0
-673 -1193 0
-1153 -1183 0
-1153 -1188 0
-1153 -1193 0
-1183 -1188 0
-1183 -1193 0
-1188 -1193 0
674 1154 1184 1189 1194 0
-674 -1154 0
-674 -1184 0
-674 -1189 0
-674 -1194 0
-1154 -1184 0
-1154 -1189 0
-1154 -1194 0
-1184 -1189 0
-1184 -1194 0
-1189 -1194 0
675 1155 1185 1190 1195 0
-675 -1155 0
-675 -1185 0
-675 -1190 0
-675 -1195 0
-1155 -1185 0
-1155 -1190 0
-1155 -1195 0
-1185 -1190 0
-1185 -1195 0
-1190 -1195 0
681 806 921 1251 1256 0
-681 -806 0
-681 -921 0
-681 -1251 0
-681 -1256 0
-806 -921 0
-806 -1251 0
-806 -1256 0
-921 -1251 0
-921 -1256 0
-1251 -1256 0
682 807 922 1252 1257 0
-682 -807 0
-682 -922 0
-682 -1252 0
-682 -1257 0
-807 -922 0
-807 -1252 0
-807 -1257 0
-922 -1252 0
-922 -1257 0
-1252 -1257 0
683 808 923 1253 1258 0
-683 -808 0
-683 -923 0
-683 -1253 0
-683 -1258 0
-808 -923 0
-808 -1253 0
-808 -1258 0
-923 -1253 0
-923 -1258 0
-1253 -1258 0
684 809 924 1254 1259 0
-684 -809 0
-684 -924 0
-684 -1254 0
-684 -1259 0
-809 -924 0
-809 -1254 0
-809 -1259 0
-924 -1254 0
-924 -1259 0
-1254 -1259 0
685 810 925 1255 1260 0
-685 -810 0
-685 -925 0
-685 -1255 0
-685 -1260 0
-810 -925 0
-810 -1255 0
-810 -1260 0
-925 -1255 0
-925 -1260 0
-1255 -1260 0
686 811 1211 1251 1261 0
-686 -811 0
-686 -1211 0
-686 -1251 0
-686 -1261 0
-811 -1211 0
-811 -1251 0
-811 -1261 0
-1211 -1251 0
-1211 -1261 0
-1251 -1261 0
687 812 1212 1252 1262 0
-687 -812 0
-687 -1212 0
-687 -1252 0
-687 -1262 0
-812 -1212 0
-812 -1252 0
-812 -1262 0
-1212 -1252 0
-1212 -1262 0
-1252 -1262 0
688 813 1213 1253 1263 0
-688 -813 0
-688 -1213 0
-688 -1253 0
-688 -1263 0
-813 -1213 0
-813 -1253 0
-813 -1263 0
-1213 -1253 0
-1213 -1263 0
-1253 -1263 0
689 814 1214 1254 1264 0
-689 -814 0
-689 -1214 0
-689 -1254 0
-689 -1264 0
-814 -1214 0
-814 -1254 0
-814 -1264 0
-1214 -1254 0
-1214 -1264 0
-1254 -1264 0
690 815 1215 1255 1265 0
-690 -815 0
-690 -1215 0
-690 -1255 0
-690 -1265 0
-815 -1215 0
-815 -1255 0
-815 -1265 0
-1215 -1255 0
-1215 -1265 0
-1255 -1265 0
716 841 1216 1336 1346 0
-716 -841 0
-716 -1216 0
-716 -1336 0
-716 -1346 0
-841 -1216 0
-841 -1336 0
-841 -1346 0
-1216 -1336 0
-1216 -1346 0
-1336 -1346 0
717 842 1217 1337 1347 0
-717 -842 0
-717 -1217 0
-717 -1337 0
-717 -1347 0
-842 -1217 0
-842 -1337 0
-842 -1347 0
-1217 -1337 0
-1217 -1347 0
-1337 -1347 0
718 843 1218 1338 1348 0
-718 -843 0
-718 -1218 0
-718 -1338 0
-718 -1348 0
-843 -1218 0
-843 -1338 0
-843 -1348 0
-1218 -1338 0
-1218 -1348 0
-1338 -1348 0
719 844 1219 1339 1349 0
-719 -844 0
-719 -1219 0
-719 -1339 0
-719 -1349 0
-844 -1219 0
-844 -1339 0
-844 -1349 0
-1219 -1339 0
-1219 -1349 0
-1339 -1349 0
720 845 1220 1340 1350 0
-720 -845 0
-720 -1220 0
-720 -1340 0
-720 -1350 0
-845 -1220 0
-845 -1340 0
-845 -1350 0
-1220 -1340 0
-1220 -1350 0
-1340 -1350 0
721 1061 1321 1331 1341 0
-721 -1061 0
-721 -1321 0
-721 -1331 0
-721 -1341 0
-1061 -1321 0
-1061 -1331 0
-1061 -1341 0
-1321 -1331 0
-1321 -1341 0
-1331 -1341 0
722 1062 1322 1332 1342 0
-722 -1062 0
-722 -1322 0
-722 -1332 0
-722 -1342 0
-1062 -1322 0
-1062 -1332 0
-1062 -1342 0
-1322 -1332 0
-1322 -1342 0
-1332 -1342 0
723 1063 1323 1333 1343 0
-723 -1063 0
-723 -1323 0
-723 -1333 0
-723 -1343 0
-1063 -1323 0
-1063 -1333 0
-1063 -1343 0
-1323 -1333 0
-1323 -1343 0
-1333 -1343 0
724 1064 1324 1334 1344 0
-724 -1064 0
-724 -1324 0
-724 -1334 0
-724 -1344 0
-1064 -1324 0
-1064 -1334 0
-1064 -1344 0
-1324 -1334 0
-1324 -1344 0
-1334 -1344 0
725 1065 1325 1335 1345 0
-725 -1065 0
-725 -1325 0
-725 -1335 0
-725 -1345 0
-1065 -1325 0
-1065 -1335 0
-1065 -1345 0
-1325 -1335 0
-1325 -1345 0
-1335 -1345 0
726 1151 1356 1376 1386 0
-726 -1151 0
-726 -1356 0
-726 -1376 0
-726 -1386 0
-1151 -1356 0
-1151 -1376 0
-1151 -1386 0
-1356 -1376 0
-1356 -1386 0
-1376 -1386 0
727 1152 1357 1377 1387 0
-727 -1152 0
-727 -1357 0
-727 -1377 0
-727 -1387 0
-1152 -1357 0
-1152 -1377 0
-1152 -1387 0
-1357 -1377 0
-1357 -1387 0
-1377 -1387 0
728 1153 1358 1378 1388 0
-728 -1153 0
-728 -1358 0
-728 -1378 0
-728 -1388 0
-1153 -1358 0
-1153 -1378 0
-1153 -1388 0
-1358 -1378 0
-1358 -1388 0
-1378 -1388 0
729 1154 1359 1379 1389 0
-729 -1154 0
-729 -1359 0
-729 -1379 0
-729 -1389 0
-1154 -1359 0
-1154 -1379 0
-1154 -1389 0
-1359 -1379 0
-1359 -1389 0
-1379 -1389 0
730 1155 1360 1380 1390 0
-730 -1155 0
-730 -1360 0
-730 -1380 0
-730 -1390 0
-1155 -1360 0
-1155 -1380 0
-1155 -1390 0
-1360 -1380 0
-1360 -1390 0
-1380 -1390 0
731 971 1161 1316 1361 0
-731 -971 0
-731 -1161 0
-731 -1316 0
-731 -1361 0
-971 -1161 0
-971 -1316 0
-971 -1361 0
-1161 -1316 0
-1161 -1361 0
-1316 -1361 0
732 972 1162 1317 1362 0
-732 -972 0
-732 -1162 0
-732 -1317 0
-732 -1362 0
-972 -1162 0
-972 -1317 0
-972 -1362 0
-1162 -1317 0
-1162 -1362 0
-1317 -1362 0
733 973 1163 1318 1363 0
-733 -973 0
-733 -1163 0
-733 -1318 0
-733 -1363 0
-973 -1163 0
-973 -1318 0
-973 -1363 0
-1163 -1318 0
-1163 -1363 0
-1318 -1363 0
734 974 1164 1319 1364 0
-734 -974 0
-734 -1164 0
-734 -1319 0
-734 -1364 0
-974 -1164 0
-974 -1319 0
-974 -1364 0
-1164 -1319 0
-1164 -1364 0
-1319 -1364 0
735 975 1165 1320 1365 0
-735 -975 0
-735 -1165 0
-735 -1320 0
-735 -1365 0
-975 -1165 0
-975 -1320 0
-975 -1365 0
-1165 -1320 0
-1165 -1365 0
-1320 -1365 0
736 1076 1166 1236 1381 0
-736 -1076 0
-736 -1166 0
-736 -1236 0
-736 -1381 0
-1076 -1166 0
-1076 -1236 0
-1076 -1381 0
-1166 -1236 0
-1166 -1381 0
-1236 -1381 0
737 1077 1167 1237 1382 0
-737 -1077 0
-737 -1167 0
-737 -1237 0
-737 -1382 0
-1077 -1167 0
-1077 -1237 0
-1077 -1382 0
-1167 -1237 0
-1167 -1382 0
-1237 -1382 0
738 1078 1168 1238 1383 0
-738 -1078 0
-738 -1168 0
-738 -1238 0
-738 -1383 0
-1078 -1168 0
-1078 -1238 0
-1078 -1383 0
-1168 -1238 0
-1168 -1383 0
-1238 -1383 0
739 1079 1169 1239 1384 0
-739 -1079 0
-739 -1169 0
-739 -1239 0
-739 -1384 0
-1079 -1169 0
-1079 -1239 0
-1079 -1384 0
-1169 -1239 0
-1169 -1384 0
-1239 -1384 0
740 1080 1170 1240 1385 0
-740 -1080 0
-740 -1170 0
-740 -1240 0
-740 -1385 0
-1080 -1170 0
-1080 -1240 0
-1080 -1385 0
-1170 -1240 0
-1170 -1385 0
-1240 -1385 0
746 886 1176 1286 1391 0
-746 -886 0
-746 -1176 0
-746 -1286 0
-746 -1391 0
-886 -1176 0
-886 -1286 0
-886 -1391 0
-1176 -1286 0
-1176 -1391 0
-1286 -1391 0
747 887 1177 1287 1392 0
-747 -887 0
-747 -1177 0
-747 -1287 0
-747 -1392 0
-887 -1177 0
-887 -1287 0
-887 -1392 0
-1177 -1287 0
-1177 -1392 0
-1287 -1392 0
748 888 1178 1288 1393 0
-748 -888 0
-748 -1178 0
-748 -1288 0
-748 -1393 0
-888 -1178 0
-888 -1288 0
-888 -1393 0
-1178 -1288 0
-1178 -1393 0
-1288 -1393 0
749 889 1179 1289 1394 0
-749 -889 0
-749 -1179 0
-749 -1289 0
-749 -1394 0
-889 -1179 0
-889 -1289 0
-889 -1394 0
-1179 -1289 0
-1179 -1394 0
-1289 -1394 0
750 890 1180 1290 1395 0
-750 -890 0
-750 -1180 0
-750 -1290 0
-750 -1395 0
-890 -1180 0
-890 -1290 0
-890 -1395 0
-1180 -1290 0
-1180 -1395 0
-1290 -1395 0
756 776 781 786 791 0
-756 -776 0
-756 -781 0
-756 -786 0
-756 -791 0
-776 -781 0
-776 -786 0
-776 -791 0
-781 -786 0
-781 -791 0
-786 -791 0
757 777 782 787 792 0
-757 -777 0
-757 -782 0
-757 -787 0
-757 -792 0
-777 -782 0
-777 -787 0
-777 -792 0
-782 -787 0
-782 -792 0
-787 -792 0
758 778 783 788 793 0
-758 -778 0
-758 -783 0
-758 -788 0
-758 -793 0
-778 -783 0
-778 -788 0
-778 -793 0
-783 -788 0
-783 -793 0
-788 -793 0
759 779 784 789 794 0
-759 -779 0
-759 -784 0
-759 -789 0
-759 -794 0
-779 -784 0
-779 -789 0
-779 -794 0
-784 -789 0
-784 -794 0
-789 -794 0
760 780 785 790 795 0
-760 -780 0
-760 -785 0
-760 -790 0
-760 -795 0
-780 -785 0
-780 -790 0
-780 -795 0
-785 -790 0
-785 -795 0
-790 -795 0
766 891 911 931 951 0
-766 -891 0
-766 -911 0
-766 -931 0
-766 -951 0
-891 -911 0
-891 -931 0
-891 -951 0
-911 -931 0
-911 -951 0
-931 -951 0
767 892 912 932 952 0
-767 -892 0
-767 -912 0
-767 -932 0
-767 -952 0
-892 -912 0
-892 -932 0
-892 -952 0
-912 -932 0
-912 -952 0
-932 -952 0
768 893 913 933 953 0
-768 -893 0
-768 -913 0
-768 -933 0
-768 -953 0
-893 -913 0
-893 -933 0
-893 -953 0
-913 -933 0
-913 -953 0
-933 -953 0
769 894 914 934 954 0
-769 -894 0
-769 -914 0
-769 -934 0
-769 -954 0
-894 -914 0
-894 -934 0
-894 -954 0
-914 -934 0
-914 -954 0
-934 -954 0
770 895 915 935 955 0
-770 -895 0
-770 -915 0
-770 -935 0
-770 -955 0
-895 -915 0
-895 -935 0
-895 -955 0
-915 -935 0
-915 -955 0
-935 -955 0
781 836 866 871 876 0
-781 -836 0
-781 -866 0
-781 -871 0
-781 -876 0
-836 -866 0
-836 -871 0
-836 -876 0
-866 -871 0
-866 -876 0
-871 -876 0
782 837 867 872 877 0
-782 -837 0
-782 -867 0
-782 -872 0
-782 -877 0
-837 -867 0
-837 -872 0
-837 -877 0
-867 -872 0
-867 -877 0
-872 -877 0
783 838 868 873 878 0
-783 -838 0
-783 -868 0
-783 -873 0
-783 -878 0
-838 -868 0
-838 -873 0
-838 -878 0
-868 -873 0
-868 -878 0
-873 -878 0
784 839 869 874 879 0
-784 -839 0
-784 -869 0
-784 -874 0
-784 -879 0
-839 -869 0
-839 -874 0
-839 -879 0
-869 -874 0
-869 -879 0
-874 -879 0
785 840 870 875 880 0
-785 -840 0
-785 -870 0
-785 -875 0
-785 -880 0
-840 -870 0
-840 -875 0
-840 -880 0
-870 -875 0
-870 -880 0
-875 -880 0
786 801 811 846 876 0
-786 -801 0
-786 -811 0
-786 -846 0
-786 -876 0
-801 -811 0
-801 -846 0
-801 -876 0
-811 -846 0
-811 -876 0
-846 -876 0
787 802 812 847 877 0
-787 -802 0
-787 -812 0
-787 -847 0
-787 -877 0
-802 -812 0
-802 -847 0
-802 -877 0
-812 -847 0
-812 -877 0
-847 -877 0
788 803 813 848 878 0
-788 -803 0
-788 -813 0
-788 -848 0
-788 -878 0
-803 -813 0
-803 -848 0
-803 -878 0
-813 -848 0
-813 -878 0
-848 -878 0
789 804 814 849 879 0
-789 -804 0
-789 -814 0
-789 -849 0
-789 -879 0
-804 -814 0
-804 -849 0
-804 -879 0
-814 -849 0
-814 -879 0
-849 -879 0
790 805 815 850 880 0
-790 -805 0
-790 -815 0
-790 -850 0
-790 -880 0
-805 -815 0
-805 -850 0
-805 -880 0
-815 -850 0
-815 -880 0
-850 -880 0
786 1046 1056 1086 1091 0
-786 -1046 0
-786 -1056 0
-786 -1086 0
-786 -1091 0
-1046 -1056 0
-1046 -1086 0
-1046 -1091 0
-1056 -1086 0
-1056 -1091 0
-1086 -1091 0
787 1047 1057 1087 1092 0
-787 -1047 0
-787 -1057 0
-787 -1087 0
-787 -1092 0
-1047 -1057 0
-1047 -1087 0
-1047 -1092 0
-1057 -1087 0
-1057 -1092 0
-1087 -1092 0
788 1048 1058 1088 1093 0
-788 -1048 0
-788 -1058 0
-788 -1088 0
-788 -1093 0
-1048 -1058 0
-1048 -1088 0
-1048 -1093 0
-1058 -1088 0
-1058 -1093 0
-1088 -1093 0
789 1049 1059 1089 1094 0
-789 -1049 0
-789 -1059 0
-789 -1089 0
-789 -1094 0
-1049 -1059 0
-1049 -1089 0
-1049 -1094 0
-1059 -1089 0
-1059 -1094 0
-1089 -1094 0
790 1050 1060 1090 1095 0
-790 -1050 0
-790 -1060 0
-790 -1090 0
-790 -1095 0
-1050 -1060 0
-1050 -1090 0
-1050 -1095 0
-1060 -1090 0
-1060 -1095 0
-1090 -1095 0
791 1011 1076 1091 1096 0
-791 -1011 0
-791 -1076 0
-791 -1091 0
-791 -1096 0
-1011 -1076 0
-1011 -1091 0
-1011 -1096 0
-1076 -1091 0
-1076 -1096 0
-1091 -1096 0
792 1012 1077 1092 1097 0
-792 -1012 0
-792 -1077 0
-792 -1092 0
-792 -1097 0
-1012 -1077 0
-1012 -1092 0
-1012 -1097 0
-1077 -1092 0
-1077 -1097 0
-1092 -1097 0
793 1013 1078 1093 1098 0
-793 -1013 0
-793 -1078 0
-793 -1093 0
-793 -1098 0
-1013 -1078 0
-1013 -1093 0
-1013 -1098 0
-1078 -1093 0
-1078 -1098 0
-1093 -1098 0
794 1014 1079 1094 1099 0
-794 -1014 0
-794 -1079 0
-794 -1094 0
-794 -1099 0
-1014 -1079 0
-1014 -1094 0
-1014 -1099 0
-1079 -1094 0
-1079 -1099 0
-1094 -1099 0
795 1015 1080 1095 1100 0
-795 -1015 0
-795 -1080 0
-795 -1095 0
-795 -1100 0
-1015 -1080 0
-1015 -1095 0
-1015 -1100 0
-1080 -1095 0
-1080 -1100 0
-1095 -1100 0
796 1111 1131 1156 1161 0
-796 -1111 0
-796 -1131 0
-796 -1156 0
-796 -1161 0
-1111 -1131 0
-1111 -1156 0
-1111 -1161 0
-1131 -1156 0
-1131 -1161 0
-1156 -1161 0
797 1112 1132 1157 1162 0
-797 -1112 0
-797 -1132 0
-797 -1157 0
-797 -1162 0
-1112 -1132 0
-1112 -1157 0
-1112 -1162 0
-1132 -1157 0
-1132 -1162 0
-1157 -1162 0
798 1113 1133 1158 1163 0
-798 -1113 0
-798 -1133 0
-798 -1158 0
-798 -1163 0
-1113 -1133 0
-1113 -1158 0
-1113 -1163 0
-1133 -1158 0
-1133 -1163 0
-1158 -1163 0
799 1114 1134 1159 1164 0
-799 -1114 0
-799 -1134 0
-799 -1159 0
-799 -1164 0
-1114 -1134 0
-1114 -1159 0
-1114 -1164 0
-1134 -1159 0
-1134 -1164 0
-1159 -1164 0
800 1115 1135 1160 1165 0
-800 -1115 0
-800 -1135 0
-800 -1160 0
-800 -1165 0
-1115 -1135 0
-1115 -1160 0
-1115 -1165 0
-1135 -1160 0
-1135 -1165 0
-1160 -1165 0
826 1276 1281 1286 1301 0
-826 -1276 0
-826 -1281 0
-826 -1286 0
-826 -1301 0
-1276 -1281 0
-1276 -1286 0
-1276 -1301 0
-1281 -1286 0
-1281 -1301 0
-1286 -1301 0
827 1277 1282 1287 1302 0
-827 -1277 0
-827 -1282 0
-827 -1287 0
-827 -1302 0
-1277 -1282 0
-1277 -1287 0
-1277 -1302 0
-1282 -1287 0
-1282 -1302 0
-1287 -1302 0
828 1278 1283 1288 1303 0
-828 -1278 0
-828 -1283 0
-828 -1288 0
-828 -1303 0
-1278 -1283 0
-1278 -1288 0
-1278 -1303 0
-1283 -1288 0
-1283 -1303 0
-1288 -1303 0
829 1279 1284 1289 1304 0
-829 -1279 0
-829 -1284 0
-829 -1289 0
-829 -1304 0
-1279 -1284 0
-1279 -1289 0
-1279 -1304 0
-1284 -1289 0
-1284 -1304 0
-1289 -1304 0
830 1280 1285 1290 1305 0
-830 -1280 0
-830 -1285 0
-830 -1290 0
-830 -1305 0
-1280 -1285 0
-1280 -1290 0
-1280 -1305 0
-1285 -1290 0
-1285 -1305 0
-1290 -1305 0
906 1011 1116 1166 1186 0
-906 -1011 0
-906 -1116 0
-906 -1166 0
-906 -1186 0
-1011 -1116 0
-1011 -1166 0
-1011 -1186 0
-1116 -1166 0
-1116 -1186 0
-1166 -1186 0
907 1012 1117 1167 1187 0
-907 -1012 0
-907 -1117 0
-907 -1167 0
-907 -1187 0
-1012 -1117 0
-1012 -1167 0
-1012 -1187 0
-1117 -1167 0
-1117 -1187 0
-1167 -1187 0
908 1013 1118 1168 1188 0
-908 -1013 0
-908 -1118 0
-908 -1168 0
-908 -1188 0
-1013 -1118 0
-1013 -1168 0
-1013 -1188 0
-1118 -1168 0
-1118 -1188 0
-1168 -1188 0
909 1014 1119 1169 1189 0
-909 -1014 0
-909 -1119 0
-909 -1169 0
-909 -1189 0
-1014 -1119 0
-1014 -1169 0
-1014 -1189 0
-1119 -1169 0
-1119 -1189 0
-1169 -1189 0
910 1015 1120 1170 1190 0
-910 -1015 0
-910 -1120 0
-910 -1170 0
-910 -1190 0
-1015 -1120 0
-1015 -1170 0
-1015 -1190 0
-1120 -1170 0
-1120 -1190 0
-1170 -1190 0
916 1031 1206 1226 1246 0
-916 -1031 0
-916 -1206 0
-916 -1226 0
-916 -1246 0
-1031 -1206 0
-1031 -1226 0
-1031 -1246 0
-1206 -1226 0
-1206 -1246 0
-1226 -1246 0
917 1032 1207 1227 1247 0
-917 -1032 0
-917 -1207 0
-917 -1227 0
-917 -1247 0
-1032 -1207 0
-1032 -1227 0
-1032 -1247 0
-1207 -1227 0
-1207 -1247 0
-1227 -1247 0
918 1033 1208 1228 1248 0
-918 -1033 0
-918 -1208 0
-918 -1228 0
-918 -1248 0
-1033 -1208 0
-1033 -1228 0
-1033 -1248 0
-1208 -1228 0
-1208 -1248 0
-1228 -1248 0
919 1034 1209 1229 1249 0
-919 -1034 0
-919 -1209 0
-919 -1229 0
-919 -1249 0
-1034 -1209 0
-1034 -1229 0
-1034 -1249 0
-1209 -1229 0
-1209 -1249 0
-1229 -1249 0
920 1035 1210 1230 1250 0
-920 -1035 0
-920 -1210 0
-920 -1230 0
-920 -1250 0
-1035 -1210 0
-1035 -1230 0
-1035 -1250 0
-1210 -1230 0
-1210 -1250 0
-1230 -1250 0
936 1041 1131 1271 1276 0
-936 -1041 0
-936 -1131 0
-936 -1271 0
-936 -1276 0
-1041 -1131 0
-1041 -1271 0
-1041 -1276 0
-1131 -1271 0
-1131 -1276 0
-1271 -1276 0
937 1042 1132 1272 1277 0
-937 -1042 0
-937 -1132 0
-937 -1272 0
-937 -1277 0
-1042 -1132 0
-1042 -1272 0
-1042 -1277 0
-1132 -1272 0
-1132 -1277 0
-1272 -1277 0
938 1043 1133 1273 1278 0
-938 -1043 0
-938 -1133 0
-938 -1273 0
-938 -1278 0
-1043 -1133 0
-1043 -1273 0
-1043 -1278 0
-1133 -1273 0
-1133 -1278 0
-1273 -1278 0
939 1044 1134 1274 1279 0
-939 -1044 0
-939 -1134 0
-939 -1274 0
-939 -1279 0
-1044 -1134 0
-1044 -1274 0
-1044 -1279 0
-1134 -1274 0
-1134 -1279 0
-1274 -1279 0
940 1045 1135 1275 1280 0
-940 -1045 0
-940 -1135 0
-940 -1275 0
-940 -1280 0
-1045 -1135 0
-1045 -1275 0
-1045 -1280 0
-1135 -1275 0
-1135 -1280 0
-1275 -1280 0
951 956 971 986 996 0
-951 -956 0
-951 -971 0
-951 -986 0
-951 -996 0
-956 -971 0
-956 -986 0
-956 -996 0
-971 -986 0
-971 -996 0
-986 -996 0
952 957 972 987 997 0
-952 -957 0
-952 -972 0
-952 -987 0
-952 -997 0
-957 -972 0
-957 -987 0
-957 -997 0
-972 -987 0
-972 -997 0
-987 -997 0
953 958 973 988 998 0
-953 -958 0
-953 -973 0
-953 -988 0
-953 -998 0
-958 -973 0
-958 -988 0
-958 -998 0
-973 -988 0
-973 -998 0
-988 -998 0
954 959 974 989 999 0
-954 -959 0
-954 -974 0
-954 -989 0
-954 -999 0
-959 -974 0
-959 -989 0
-959 -999 0
-974 -989 0
-974 -999 0
-989 -999 0
955 960 975 990 1000 0
-955 -960 0
-955 -975 0
-955 -990 0
-955 -1000 0
-960 -975 0
-960 -990 0
-960 -1000 0
-975 -990 0
-975 -1000 0
-990 -1000 0
1016 1171 1176 1191 1196 0
-1016 -1171 0
-1016 -1176 0
-1016 -1191 0
-1016 -1196 0
-1171 -1176 0
-1171 -1191 0
-1171 -1196 0
-1176 -1191 0
-1176 -1196 0
-1191 -1196 0
1017 1172 1177 1192 1197 0
-1017 -1172 0
-1017 -1177 0
-1017 -1192 0
-1017 -1197 0
-1172 -1177 0
-1172 -1192 0
-1172 -1197 0
-1177 -1192 0
-1177 -1197 0
-1192 -1197 0
1018 1173 1178 1193 1198 0
-1018 -1173 0
-1018 -1178 0
-1018 -1193 0
-1018 -1198 0
-1173 -1178 0
-1173 -1193 0
-1173 -1198 0
-1178 -1193 0
-1178 -1198 0
-1193 -1198 0
1019 1174 1179 1194 1199 0
-1019 -1174 0
-1019 -1179 0
-1019 -1194 0
-1019 -1199 0
-1174 -1179 0
-1174 -1194 0
-1174 -1199 0
-1179 -1194 0
-1179 -1199 0
-1194 -1199 0
1020 1175 1180 1195 1200 0
-1020 -1175 0
-1020 -1180 0
-1020 -1195 0
-1020 -1200 0
-1175 -1180 0
-1175 -1195 0
-1175 -1200 0
-1180 -1195 0
-1180 -1200 0
-1195 -1200 0
1171 1241 1281 1331 1416 0
-1171 -1241 0
-1171 -1281 0
-1171 -1331 0
-1171 -1416 0
-1241 -1281 0
-1241 -1331 0
-1241 -1416 0
-1281 -1331 0
-1281 -1416 0
-1331 -1416 0
1172 1242 1282 1332 1417 0
-1172 -1242 0
-1172 -1282 0
-1172 -1332 0
-1172 -1417 0
-1242 -1282 0
-1242 -1332 0
-1242 -1417 0
-1282 -1332 0
-1282 -1417 0
-1332 -1417 0
1173 1243 1283 1333 1418 0
-1173 -1243 0
-1173 -1283 0
-1173 -1333 0
-1173 -1418 0
-1243 -1283 0
-1243 -1333 0
-1243 -1418 0
-1283 -1333 0
-1283 -1418 0
-1333 -1418 0
1174 1244 1284 1334 1419 0
-1174 -1244 0
-1174 -1284 0
-1174 -1334 0
-1174 -1419 0
-1244 -1284 0
-1244 -1334 0
-1244 -1419 0
-1284 -1334 0
-1284 -1419 0
-1334 -1419 0
1175 1245 1285 1335 1420 0
-1175 -1245 0
-1175 -1285 0
-1175 -1335 0
-1175 -1420 0
-1245 -1285 0
-1245 -1335 0
-1245 -1420 0
-1285 -1335 0
-1285 -1420 0
-1335 -1420 0
1221 1351 1356 1361 1366 0
-1221 -1351 0
-1221 -1356 0
-1221 -1361 0
-1221 -1366 0
-1351 -1356 0
-1351 -1361 0
-1351 -1366 0
-1356 -1361 0
-1356 -1366 0
-1361 -1366 0
1222 1352 1357 1362 1367 0
-1222 -1352 0
-1222 -1357 0
-1222 -1362 0
-1222 -1367 0
-1352 -1357 0
-1352 -1362 0
-1352 -1367 0
-1357 -1362 0
-1357 -1367 0
-1362 -1367 0
1223 1353 1358 1363 1368 0
-1223 -1353 0
-1223 -1358 0
-1223 -1363 0
-1223 -1368 0
-1353 -1358 0
-1353 -1363 0
-1353 -1368 0
-1358 -1363 0
-1358 -1368 0
-1363 -1368 0
1224 1354 1359 1364 1369 0
-1224 -1354 0
-1224 -1359 0
-1224 -1364 0
-1224 -1369 0
-1354 -1359 0
-1354 -1364 0
-1354 -1369 0
-1359 -1364 0
-1359 -1369 0
-1364 -1369 0
1225 1355 1360 1365 1370 0
-1225 -1355 0
-1225 -1360 0
-1225 -1365 0
-1225 -1370 0
-1355 -1360 0
-1355 -1365 0
-1355 -1370 0
-1360 -1365 0
-1360 -1370 0
-1365 -1370 0
1226 1306 1371 1386 1391 0
-1226 -1306 0
-1226 -1371 0
-1226 -1386 0
-1226 -1391 0
-1306 -1371 0
-1306 -1386 0
-1306 -1391 0
-1371 -1386 0
-1371 -1391 0
-1386 -1391 0
1227 1307 1372 1387 1392 0
-1227 -1307 0
-1227 -1372 0
-1227 -1387 0
-1227 -1392 0
-1307 -1372 0
-1307 -1387 0
-1307 -1392 0
-1372 -1387 0
-1372 -1392 0
-1387 -1392 0
1228 1308 1373 1388 1393 0
-1228 -1308 0
-1228 -1373 0
-1228 -1388 0
-1228 -1393 0
-1308 -1373 0
-1308 -1388 0
-1308 -1393 0
-1373 -1388 0
-1373 -1393 0
-1388 -1393 0
1229 1309 1374 1389 1394 0
-1229 -1309 0
-1229 -1374 0
-1229 -1389 0
-1229 -1394 0
-1309 -1374 0
-1309 -1389 0
-1309 -1394 0
-1374 -1389 0
-1374 -1394 0
-1389 -1394 0
1230 1310 1375 1390 1395 0
-1230 -1310 0
-1230 -1375 0
-1230 -1390 0
-1230 -1395 0
-1310 -1375 0
-1310 -1390 0
-1310 -1395 0
-1375 -1390 0
-1375 -1395 0
-1390 -1395 0
1266 1351 1371 1376 1381 0
-1266 -1351 0
-1266 -1371 0
-1266 -1376 0
-1266 -1381 0
-1351 -1371 0
-1351 -1376 0
-1351 -1381 0
-1371 -1376 0
-1371 -1381 0
-1376 -1381 0
1267 1352 1372 1377 1382 0
-1267 -1352 0
-1267 -1372 0
-1267 -1377 0
-1267 -1382 0
-1352 -1372 0
-1352 -1377 0
-1352 -1382 0
-1372 -1377 0
-1372 -1382 0
-1377 -1382 0
1268 1353 1373 1378 1383 0
-1268 -1353 0
-1268 -1373 0
-1268 -1378 0
-1268 -1383 0
-1353 -1373 0
-1353 -1378 0
-1353 -1383 0
-1373 -1378 0
-1373 -1383 0
-1378 -1383 0
1269 1354 1374 1379 1384 0
-1269 -1354 0
-1269 -1374 0
-1269 -1379 0
-1269 -1384 0
-1354 -1374 0
-1354 -1379 0
-1354 -1384 0
-1374 -1379 0
-1374 -1384 0
-1379 -1384 0
1270 1355 1375 1380 1385 0
-1270 -1355 0
-1270 -1375 0
-1270 -1380 0
-1270 -1385 0
-1355 -1375 0
-1355 -1380 0
-1355 -1385 0
-1375 -1380 0
-1375 -1385 0
-1380 -1385 0
1 0
7 0
13 0
19 0
25 0
