p cnf 1425 12545
1 2 3 4 5 0
-1 -2 0
-1 -3 0
-1 -4 0
-1 -5 0
-2 -3 0
-2 -4 0
-2 -5 0
-3 -4 0
-3 -5 0
-4 -5 0
6 7 8 9 10 0
-6 -7 0
-6 -8 0
-6 -9 0
-6 -10 0
-7 -8 0
-7 -9 0
-7 -10 0
-8 -9 0
-8 -10 0
-9 -10 0
11 12 13 14 15 0
-11 -12 0
-11 -13 0
-11 -14 0
-11 -15 0
-12 -13 0
-12 -14 0
-12 -15 0
-13 -14 0
-13 -15 0
-14 -15 0
16 17 18 19 20 0
-16 -17 0
-16 -18 0
-16 -19 0
-16 -20 0
-17 -18 0
-17 -19 0
-17 -20 0
-18 -19 0
-18 -20 0
-19 -20 0
21 22 23 24 25 0
-21 -22 0
-21 -23 0
-21 -24 0
-21 -25 0
-22 -23 0
-22 -24 0
-22 -25 0
-23 -24 0
-23 -25 0
-24 -25 0
26 27 28 29 30 0
-26 -27 0
-26 -28 0
-26 -29 0
-26 -30 0
-27 -28 0
-27 -29 0
-27 -30 0
-28 -29 0
-28 -30 0
-29 -30 0
31 32 33 34 35 0
-31 -32 0
-31 -33 0
-31 -34 0
-31 -35 0
-32 -33 0
-32 -34 0
-32 -35 0
-33 -34 0
-33 -35 0
-34 -35 0
36 37 38 39 40 0
-36 -37 0
-36 -38 0
-36 -39 0
-36 -40 0
-37 -38 0
-37 -39 0
-37 -40 0
-38 -39 0
-38 -40 0
-39 -40 0
41 42 43 44 45 0
-41 -42 0
-41 -43 0
-41 -44 0
-41 -45 0
-42 -43 0
-42 -44 0
-42 -45 0
-43 -44 0
-43 -45 0
-44 -45 0
46 47 48 49 50 0
-46 -47 0
-46 -48 0
-46 -49 0
-46 -50 0
-47 -48 0
-47 -49 0
-47 -50 0
-48 -49 0
-48 -50 0
-49 -50 0
51 52 53 54 55 0
-51 -52 0
-51 -53 0
-51 -54 0
-51 -55 0
-52 -53 0
-52 -54 0
-52 -55 0
-53 -54 0
-53 -55 0
-54 -55 0
56 57 58 59 60 0
-56 -57 0
-56 -58 0
-56 -59 0
-56 -60 0
-57 -58 0
-57 -59 0
-57 -60 0
-58 -59 0
-58 -60 0
-59 -60 0
61 62 63 64 65 0
-61 -62 0
-61 -63 0
-61 -64 0
-61 -65 0
-62 -63 0
-62 -64 0
-62 -65 0
-63 -64 0
-63 -65 0
-64 -65 0
66 67 68 69 70 0
-66 -67 0
-66 -68 0
-66 -69 0
-66 -70 0
-67 -68 0
-67 -69 0
-67 -70 0
-68 -69 0
-68 -70 0
-69 -70 0
71 72 73 74 75 0
-71 -72 0
-71 -73 0
-71 -74 0
-71 -75 0
-72 -73 0
-72 -74 0
-72 -75 0
-73 -74 0
-73 -75 0
-74 -75 0
76 77 78 79 80 0
-76 -77 0
-76 -78 0
-76 -79 0
-76 -80 0
-77 -78 0
-77 -79 0
-77 -80 0
-78 -79 0
-78 -80 0
-79 -80 0
81 82 83 84 85 0
-81 -82 0
-81 -83 0
-81 -84 0
-81 -85 0
-82 -83 0
-82 -84 0
-82 -85 0
-83 -84 0
-83 -85 0
-84 -85 0
86 87 88 89 90 0
-86 -87 0
-86 -88 0
-86 -89 0
-86 -90 0
-87 -88 0
-87 -89 0
-87 -90 0
-88 -89 0
-88 -90 0
-89 -90 0
91 92 93 94 95 0
-91 -92 0
-91 -93 0
-91 -94 0
-91 -95 0
-92 -93 0
-92 -94 0
-92 -95 0
-93 -94 0
-93 -95 0
-94 -95 0
96 97 98 99 100 0
-96 -97 0
-96 -98 0
-96 -99 0
-96 -100 0
-97 -98 0
-97 -99 0
-97 -100 0
-98 -99 0
-98 -100 0
-99 -100 0
101 102 103 104 105 0
-101 -102 0
-101 -103 0
-101 -104 0
-101 -105 0
-102 -103 0
-102 -104 0
-102 -105 0
-103 -104 0
-103 -105 0
-104 -105 0
106 107 108 109 110 0
-106 -107 0
-106 -108 0
-106 -109 0
-106 -110 0
-107 -108 0
-107 -109 0
-107 -110 0
-108 -109 0
-108 -110 0
-109 -110 0
111 112 113 114 115 0
-111 -112 0
-111 -113 0
-111 -114 0
-111 -115 0
-112 -113 0
-112 -114 0
-112 -115 0
-113 -114 0
-113 -115 0
-114 -115 0
116 117 118 119 120 0
-116 -117 0
-116 -118 0
-116 -119 0
-116 -120 0
-117 -118 0
-117 -119 0
-117 -120 0
-118 -119 0
-118 -120 0
-119 -120 0
121 122 123 124 125 0
-121 -122 0
-121 -123 0
-121 -124 0
-121 -125 0
-122 -123 0
-122 -124 0
-122 -125 0
-123 -124 0
-123 -125 0
-124 -125 0
126 127 128 129 130 0
-126 -127 0
-126 -128 0
-126 -129 0
-126 -130 0
-127 -128 0
-127 -129 0
-127 -130 0
-128 -129 0
-128 -130 0
-129 -130 0
131 132 133 134 135 0
-131 -132 0
-131 -133 0
-131 -134 0
-131 -135 0
-132 -133 0
-132 -134 0
-132 -135 0
-133 -134 0
-133 -135 0
-134 -135 0
136 137 138 139 140 0
-136 -137 0
-136 -138 0
-136 -139 0
-136 -140 0
-137 -138 0
-137 -139 0
-137 -140 0
-138 -139 0
-138 -140 0
-139 -140 0
141 142 143 144 145 0
-141 -142 0
-141 -143 0
-141 -144 0
-141 -145 0
-142 -143 0
-142 -144 0
-142 -145 0
-143 -144 0
-143 -145 0
-144 -145 0
146 147 148 149 150 0
-146 -147 0
-146 -148 0
-146 -149 0
-146 -150 0
-147 -148 0
-147 -149 0
-147 -150 0
-148 -149 0
-148 -150 0
-149 -150 0
151 152 153 154 155 0
-151 -152 0
-151 -153 0
-151 -154 0
-151 -155 0
-152 -153 0
-152 -154 0
-152 -155 0
-153 -154 0
-153 -155 0
-154 -155 0
156 157 158 159 160 0
-156 -157 0
-156 -158 0
-156 -159 0
-156 -160 0
-157 -158 0
-157 -159 0
-157 -160 0
-158 -159 0
-158 -160 0
-159 -160 0
161 162 163 164 165 0
-161 -162 0
-161 -163 0
-161 -164 0
-161 -165 0
-162 -163 0
-162 -164 0
-162 -165 0
-163 -164 0
-163 -165 0
-164 -165 0
166 167 168 169 170 0
-166 -167 0
-166 -168 0
-166 -169 0
-166 -170 0
-167 -168 0
-167 -169 0
-167 -170 0
-168 -169 0
-168 -170 0
-169 -170 0
171 172 173 174 175 0
-171 -172 0
-171 -173 0
-171 -174 0
-171 -175 0
-172 -173 0
-172 -174 0
-172 -175 0
-173 -174 0
-173 -175 0
-174 -175 0
176 177 178 179 180 0
-176 -177 0
-176 -178 0
-176 -179 0
-176 -180 0
-177 -178 0
-177 -179 0
-177 -180 0
-178 -179 0
-178 -180 0
-179 -180 0
181 182 183 184 185 0
-181 -182 0
-181 -183 0
-181 -184 0
-181 -185 0
-182 -183 0
-182 -184 0
-182 -185 0
-183 -184 0
-183 -185 0
-184 -185 0
186 187 188 189 190 0
-186 -187 0
-186 -188 0
-186 -189 0
-186 -190 0
-187 -188 0
-187 -189 0
-187 -190 0
-188 -189 0
-188 -190 0
-189 -190 0
191 192 193 194 195 0
-191 -192 0
-191 -193 0
-191 -194 0
-191 -195 0
-192 -193 0
-192 -194 0
-192 -195 0
-193 -194 0
-193 -195 0
-194 -195 0
196 197 198 199 200 0
-196 -197 0
-196 -198 0
-196 -199 0
-196 -200 0
-197 -198 0
-197 -199 0
-197 -200 0
-198 -199 0
-198 -200 0
-199 -200 0
201 202 203 204 205 0
-201 -202 0
-201 -203 0
-201 -204 0
-201 -205 0
-202 -203 0
-202 -204 0
-202 -205 0
-203 -204 0
-203 -205 0
-204 -205 0
206 207 208 209 210 0
-206 -207 0
-206 -208 0
-206 -209 0
-206 -210 0
-207 -208 0
-207 -209 0
-207 -210 0
-208 -209 0
-208 -210 0
-209 -210 0
211 212 213 214 215 0
-211 -212 0
-211 -213 0
-211 -214 0
-211 -215 0
-212 -213 0
-212 -214 0
-212 -215 0
-213 -214 0
-213 -215 0
-214 -215 0
216 217 218 219 220 0
-216 -217 0
-216 -218 0
-216 -219 0
-216 -220 0
-217 -218 0
-217 -219 0
-217 -220 0
-218 -219 0
-218 -220 0
-219 -220 0
221 222 223 224 225 0
-221 -222 0
-221 -223 0
-221 -224 0
-221 -225 0
-222 -223 0
-222 -224 0
-222 -225 0
-223 -224 0
-223 -225 0
-224 -225 0
226 227 228 229 230 0
-226 -227 0
-226 -228 0
-226 -229 0
-226 -230 0
-227 -228 0
-227 -229 0
-227 -230 0
-228 -229 0
-228 -230 0
-229 -230 0
231 232 233 234 235 0
-231 -232 0
-231 -233 0
-231 -234 0
-231 -235 0
-232 -233 0
-232 -234 0
-232 -235 0
-233 -234 0
-233 -235 0
-234 -235 0
236 237 238 239 240 0
-236 -237 0
-236 -238 0
-236 -239 0
-236 -240 0
-237 -238 0
-237 -239 0
-237 -240 0
-238 -239 0
-238 -240 0
-239 -240 0
241 242 243 244 245 0
-241 -242 0
-241 -243 0
-241 -244 0
-241 -245 0
-242 -243 0
-242 -244 0
-242 -245 0
-243 -244 0
-243 -245 0
-244 -245 0
246 247 248 249 250 0
-246 -247 0
-246 -248 0
-246 -249 0
-246 -250 0
-247 -248 0
-247 -249 0
-247 -250 0
-248 -249 0
-248 -250 0
-249 -250 0
251 252 253 254 255 0
-251 -252 0
-251 -253 0
-251 -254 0
-251 -255 0
-252 -253 0
-252 -254 0
-252 -255 0
-253 -254 0
-253 -255 0
-254 -255 0
256 257 258 259 260 0
-256 -257 0
-256 -258 0
-256 -259 0
-256 -260 0
-257 -258 0
-257 -259 0
-257 -260 0
-258 -259 0
-258 -260 0
-259 -260 0
261 262 263 264 265 0
-261 -262 0
-261 -263 0
-261 -264 0
-261 -265 0
-262 -263 0
-262 -264 0
-262 -265 0
-263 -264 0
-263 -265 0
-264 -265 0
266 267 268 269 270 0
-266 -267 0
-266 -268 0
-266 -269 0
-266 -270 0
-267 -268 0
-267 -269 0
-267 -270 0
-268 -269 0
-268 -270 0
-269 -270 0
271 272 273 274 275 0
-271 -272 0
-271 -273 0
-271 -274 0
-271 -275 0
-272 -273 0
-272 -274 0
-272 -275 0
-273 -274 0
-273 -275 0
-274 -275 0
276 277 278 279 280 0
-276 -277 0
-276 -278 0
-276 -279 0
-276 -280 0
-277 -278 0
-277 -279 0
-277 -280 0
-278 -279 0
-278 -280 0
-279 -280 0
281 282 283 284 285 0
-281 -282 0
-281 -283 0
-281 -284 0
-281 -285 0
-282 -283 0
-282 -284 0
-282 -285 0
-283 -284 0
-283 -285 0
-284 -285 0
286 287 288 289 290 0
-286 -287 0
-286 -288 0
-286 -289 0
-286 -290 0
-287 -288 0
-287 -289 0
-287 -290 0
-288 -289 0
-288 -290 0
-289 -290 0
291 292 293 294 295 0
-291 -292 0
-291 -293 0
-291 -294 0
-291 -295 0
-292 -293 0
-292 -294 0
-292 -295 0
-293 -294 0
-293 -295 0
-294 -295 0
296 297 298 299 300 0
-296 -297 0
-296 -298 0
-296 -299 0
-296 -300 0
-297 -298 0
-297 -299 0
-297 -300 0
-298 -299 0
-298 -300 0
-299 -300 0
301 302 303 304 305 0
-301 -302 0
-301 -303 0
-301 -304 0
-301 -305 0
-302 -303 0
-302 -304 0
-302 -305 0
-303 -304 0
-303 -305 0
-304 -305 0
306 307 308 309 310 0
-306 -307 0
-306 -308 0
-306 -309 0
-306 -310 0
-307 -308 0
-307 -309 0
-307 -310 0
-308 -309 0
-308 -310 0
-309 -310 0
311 312 313 314 315 0
-311 -312 0
-311 -313 0
-311 -314 0
-311 -315 0
-312 -313 0
-312 -314 0
-312 -315 0
-313 -314 0
-313 -315 0
-314 -315 0
316 317 318 319 320 0
-316 -317 0
-316 -318 0
-316 -319 0
-316 -320 0
-317 -318 0
-317 -319 0
-317 -320 0
-318 -319 0
-318 -320 0
-319 -320 0
321 322 323 324 325 0
-321 -322 0
-321 -323 0
-321 -324 0
-321 -325 0
-322 -323 0
-322 -324 0
-322 -325 0
-323 -324 0
-323 -325 0
-324 -325 0
326 327 328 329 330 0
-326 -327 0
-326 -328 0
-326 -329 0
-326 -330 0
-327 -328 0
-327 -329 0
-327 -330 0
-328 -329 0
-328 -330 0
-329 -330 0
331 332 333 334 335 0
-331 -332 0
-331 -333 0
-331 -334 0
-331 -335 0
-332 -333 0
-332 -334 0
-332 -335 0
-333 -334 0
-333 -335 0
-334 -335 0
336 337 338 339 340 0
-336 -337 0
-336 -338 0
-336 -339 0
-336 -340 0
-337 -338 0
-337 -339 0
-337 -340 0
-338 -339 0
-338 -340 0
-339 -340 0
341 342 343 344 345 0
-341 -342 0
-341 -343 0
-341 -344 0
-341 -345 0
-342 -343 0
-342 -344 0
-342 -345 0
-343 -344 0
-343 -345 0
-344 -345 0
346 347 348 349 350 0
-346 -347 0
-346 -348 0
-346 -349 0
-346 -350 0
-347 -348 0
-347 -349 0
-347 -350 0
-348 -349 0
-348 -350 0
-349 -350 0
351 352 353 354 355 0
-351 -352 0
-351 -353 0
-351 -354 0
-351 -355 0
-352 -353 0
-352 -354 0
-352 -355 0
-353 -354 0
-353 -355 0
-354 -355 0
356 357 358 359 360 0
-356 -357 0
-356 -358 0
-356 -359 0
-356 -360 0
-357 -358 0
-357 -359 0
-357 -360 0
-358 -359 0
-358 -360 0
-359 -360 0
361 362 363 364 365 0
-361 -362 0
-361 -363 0
-361 -364 0
-361 -365 0
-362 -363 0
-362 -364 0
-362 -365 0
-363 -364 0
-363 -365 0
-364 -365 0
366 367 368 369 370 0
-366 -367 0
-366 -368 0
-366 -369 0
-366 -370 0
-367 -368 0
-367 -369 0
-367 -370 0
-368 -369 0
-368 -370 0
-369 -370 0
371 372 373 374 375 0
-371 -372 0
-371 -373 0
-371 -374 0
-371 -375 0
-372 -373 0
-372 -374 0
-372 -375 0
-373 -374 0
-373 -375 0
-374 -375 0
376 377 378 379 380 0
-376 -377 0
-376 -378 0
-376 -379 0
-376 -380 0
-377 -378 0
-377 -379 0
-377 -380 0
-378 -379 0
-378 -380 0
-379 -380 0
381 382 383 384 385 0
-381 -382 0
-381 -383 0
-381 -384 0
-381 -385 0
-382 -383 0
-382 -384 0
-382 -385 0
-383 -384 0
-383 -385 0
-384 -385 0
386 387 388 389 390 0
-386 -387 0
-386 -388 0
-386 -389 0
-386 -390 0
-387 -388 0
-387 -389 0
-387 -390 0
-388 -389 0
-388 -390 0
-389 -390 0
391 392 393 394 395 0
-391 -392 0
-391 -393 0
-391 -394 0
-391 -395 0
-392 -393 0
-392 -394 0
-392 -395 0
-393 -394 0
-393 -395 0
-394 -395 0
396 397 398 399 400 0
-396 -397 0
-396 -398 0
-396 -399 0
-396 -400 0
-397 -398 0
-397 -399 0
-397 -400 0
-398 -399 0
-398 -400 0
-399 -400 0
401 402 403 404 405 0
-401 -402 0
-401 -403 0
-401 -404 0
-401 -405 0
-402 -403 0
-402 -404 0
-402 -405 0
-403 -404 0
-403 -405 0
-404 -405 0
406 407 408 409 410 0
-406 -407 0
-406 -408 0
-406 -409 0
-406 -410 0
-407 -408 0
-407 -409 0
-407 -410 0
-408 -409 0
-408 -410 0
-409 -410 0
411 412 413 414 415 0
-411 -412 0
-411 -413 0
-411 -414 0
-411 -415 0
-412 -413 0
-412 -414 0
-412 -415 0
-413 -414 0
-413 -415 0
-414 -415 0
416 417 418 419 420 0
-416 -417 0
-416 -418 0
-416 -419 0
-416 -420 0
-417 -418 0
-417 -419 0
-417 -420 0
-418 -419 0
-418 -420 0
-419 -420 0
421 422 423 424 425 0
-421 -422 0
-421 -423 0
-421 -424 0
-421 -425 0
-422 -423 0
-422 -424 0
-422 -425 0
-423 -424 0
-423 -425 0
-424 -425 0
426 427 428 429 430 0
-426 -427 0
-426 -428 0
-426 -429 0
-426 -430 0
-427 -428 0
-427 -429 0
-427 -430 0
-428 -429 0
-428 -430 0
-429 -430 0
431 432 433 434 435 0
-431 -432 0
-431 -433 0
-431 -434 0
-431 -435 0
-432 -433 0
-432 -434 0
-432 -435 0
-433 -434 0
-433 -435 0
-434 -435 0
436 437 438 439 440 0
-436 -437 0
-436 -438 0
-436 -439 0
-436 -440 0
-437 -438 0
-437 -439 0
-437 -440 0
-438 -439 0
-438 -440 0
-439 -440 0
441 442 443 444 445 0
-441 -442 0
-441 -443 0
-441 -444 0
-441 -445 0
-442 -443 0
-442 -444 0
-442 -445 0
-443 -444 0
-443 -445 0
-444 -445 0
446 447 448 449 450 0
-446 -447 0
-446 -448 0
-446 -449 0
-446 -450 0
-447 -448 0
-447 -449 0
-447 -450 0
-448 -449 0
-448 -450 0
-449 -450 0
451 452 453 454 455 0
-451 -452 0
-451 -453 0
-451 -454 0
-451 -455 0
-452 -453 0
-452 -454 0
-452 -455 0
-453 -454 0
-453 -455 0
-454 -455 0
456 457 458 459 460 0
-456 -457 0
-456 -458 0
-456 -459 0
-456 -460 0
-457 -458 0
-457 -459 0
-457 -460 0
-458 -459 0
-458 -460 0
-459 -460 0
461 462 463 464 465 0
-461 -462 0
-461 -463 0
-461 -464 0
-461 -465 0
-462 -463 0
-462 -464 0
-462 -465 0
-463 -464 0
-463 -465 0
-464 -465 0
466 467 468 469 470 0
-466 -467 0
-466 -468 0
-466 -469 0
-466 -470 0
-467 -468 0
-467 -469 0
-467 -470 0
-468 -469 0
-468 -470 0
-469 -470 0
471 472 473 474 475 0
-471 -472 0
-471 -473 0
-471 -474 0
-471 -475 0
-472 -473 0
-472 -474 0
-472 -475 0
-473 -474 0
-473 -475 0
-474 -475 0
476 477 478 479 480 0
-476 -477 0
-476 -478 0
-476 -479 0
-476 -480 0
-477 -478 0
-477 -479 0
-477 -480 0
-478 -479 0
-478 -480 0
-479 -480 0
481 482 483 484 485 0
-481 -482 0
-481 -483 0
-481 -484 0
-481 -485 0
-482 -483 0
-482 -484 0
-482 -485 0
-483 -484 0
-483 -485 0
-484 -485 0
486 487 488 489 490 0
-486 -487 0
-486 -488 0
-486 -489 0
-486 -490 0
-487 -488 0
-487 -489 0
-487 -490 0
-488 -489 0
-488 -490 0
-489 -490 0
491 492 493 494 495 0
-491 -492 0
-491 -493 0
-491 -494 0
-491 -495 0
-492 -493 0
-492 -494 0
-492 -495 0
-493 -494 0
-493 -495 0
-494 -495 0
496 497 498 499 500 0
-496 -497 0
-496 -498 0
-496 -499 0
-496 -500 0
-497 -498 0
-497 -499 0
-497 -500 0
-498 -499 0
-498 -500 0
-499 -500 0
501 502 503 504 505 0
-501 -502 0
-501 -503 0
-501 -504 0
-501 -505 0
-502 -503 0
-502 -504 0
-502 -505 0
-503 -504 0
-503 -505 0
-504 -505 0
506 507 508 509 510 0
-506 -507 0
-506 -508 0
-506 -509 0
-506 -510 0
-507 -508 0
-507 -509 0
-507 -510 0
-508 -509 0
-508 -510 0
-509 -510 0
511 512 513 514 515 0
-511 -512 0
-511 -513 0
-511 -514 0
-511 -515 0
-512 -513 0
-512 -514 0
-512 -515 0
-513 -514 0
-513 -515 0
-514 -515 0
516 517 518 519 520 0
-516 -517 0
-516 -518 0
-516 -519 0
-516 -520 0
-517 -518 0
-517 -519 0
-517 -520 0
-518 -519 0
-518 -520 0
-519 -520 0
521 522 523 524 525 0
-521 -522 0
-521 -523 0
-521 -524 0
-521 -525 0
-522 -523 0
-522 -524 0
-522 -525 0
-523 -524 0
-523 -525 0
-524 -525 0
526 527 528 529 530 0
-526 -527 0
-526 -528 0
-526 -529 0
-526 -530 0
-527 -528 0
-527 -529 0
-527 -530 0
-528 -529 0
-528 -530 0
-529 -530 0
531 532 533 534 535 0
-531 -532 0
-531 -533 0
-531 -534 0
-531 -535 0
-532 -533 0
-532 -534 0
-532 -535 0
-533 -534 0
-533 -535 0
-534 -535 0
536 537 538 539 540 0
-536 -537 0
-536 -538 0
-536 -539 0
-536 -540 0
-537 -538 0
-537 -539 0
-537 -540 0
-538 -539 0
-538 -540 0
-539 -540 0
541 542 543 544 545 0
-541 -542 0
-541 -543 0
-541 -544 0
-541 -545 0
-542 -543 0
-542 -544 0
-542 -545 0
-543 -544 0
-543 -545 0
-544 -545 0
546 547 548 549 550 0
-546 -547 0
-546 -548 0
-546 -549 0
-546 -550 0
-547 -548 0
-547 -549 0
-547 -550 0
-548 -549 0
-548 -550 0
-549 -550 0
551 552 553 554 555 0
-551 -552 0
-551 -553 0
-551 -554 0
-551 -555 0
-552 -553 0
-552 -554 0
-552 -555 0
-553 -554 0
-553 -555 0
-554 -555 0
556 557 558 559 560 0
-556 -557 0
-556 -558 0
-556 -559 0
-556 -560 0
-557 -558 0
-557 -559 0
-557 -560 0
-558 -559 0
-558 -560 0
-559 -560 0
561 562 563 564 565 0
-561 -562 0
-561 -563 0
-561 -564 0
-561 -565 0
-562 -563 0
-562 -564 0
-562 -565 0
-563 -564 0
-563 -565 0
-564 -565 0
566 567 568 569 570 0
-566 -567 0
-566 -568 0
-566 -569 0
-566 -570 0
-567 -568 0
-567 -569 0
-567 -570 0
-568 -569 0
-568 -570 0
-569 -570 0
571 572 573 574 575 0
-571 -572 0
-571 -573 0
-571 -574 0
-571 -575 0
-572 -573 0
-572 -574 0
-572 -575 0
-573 -574 0
-573 -575 0
-574 -575 0
576 577 578 579 580 0
-576 -577 0
-576 -578 0
-576 -579 0
-576 -580 0
-577 -578 0
-577 -579 0
-577 -580 0
-578 -579 0
-578 -580 0
-579 -580 0
581 582 583 584 585 0
-581 -582 0
-581 -583 0
-581 -584 0
-581 -585 0
-582 -583 0
-582 -584 0
-582 -585 0
-583 -584 0
-583 -585 0
-584 -585 0
586 587 588 589 590 0
-586 -587 0
-586 -588 0
-586 -589 0
-586 -590 0
-587 -588 0
-587 -589 0
-587 -590 0
-588 -589 0
-588 -590 0
-589 -590 0
591 592 593 594 595 0
-591 -592 0
-591 -593 0
-591 -594 0
-591 -595 0
-592 -593 0
-592 -594 0
-592 -595 0
-593 -594 0
-593 -595 0
-594 -595 0
596 597 598 599 600 0
-596 -597 0
-596 -598 0
-596 -599 0
-596 -600 0
-597 -598 0
-597 -599 0
-597 -600 0
-598 -599 0
-598 -600 0
-599 -600 0
601 602 603 604 605 0
-601 -602 0
-601 -603 0
-601 -604 0
-601 -605 0
-602 -603 0
-602 -604 0
-602 -605 0
-603 -604 0
-603 -605 0
-604 -605 0
606 607 608 609 610 0
-606 -607 0
-606 -608 0
-606 -609 0
-606 -610 0
-607 -608 0
-607 -609 0
-607 -610 0
-608 -609 0
-608 -610 0
-609 -610 0
611 612 613 614 615 0
-611 -612 0
-611 -613 0
-611 -614 0
-611 -615 0
-612 -613 0
-612 -614 0
-612 -615 0
-613 -614 0
-613 -615 0
-614 -615 0
616 617 618 619 620 0
-616 -617 0
-616 -618 0
-616 -619 0
-616 -620 0
-617 -618 0
-617 -619 0
-617 -620 0
-618 -619 0
-618 -620 0
-619 -620 0
621 622 623 624 625 0
-621 -622 0
-621 -623 0
-621 -624 0
-621 -625 0
-622 -623 0
-622 -624 0
-622 -625 0
-623 -624 0
-623 -625 0
-624 -625 0
626 627 628 629 630 0
-626 -627 0
-626 -628 0
-626 -629 0
-626 -630 0
-627 -628 0
-627 -629 0
-627 -630 0
-628 -629 0
-628 -630 0
-629 -630 0
631 632 633 634 635 0
-631 -632 0
-631 -633 0
-631 -634 0
-631 -635 0
-632 -633 0
-632 -634 0
-632 -635 0
-633 -634 0
-633 -635 0
-634 -635 0
636 637 638 639 640 0
-636 -637 0
-636 -638 0
-636 -639 0
-636 -640 0
-637 -638 0
-637 -639 0
-637 -640 0
-638 -639 0
-638 -640 0
-639 -640 0
641 642 643 644 645 0
-641 -642 0
-641 -643 0
-641 -644 0
-641 -645 0
-642 -643 0
-642 -644 0
-642 -645 0
-643 -644 0
-643 -645 0
-644 -645 0
646 647 648 649 650 0
-646 -647 0
-646 -648 0
-646 -649 0
-646 -650 0
-647 -648 0
-647 -649 0
-647 -650 0
-648 -649 0
-648 -650 0
-649 -650 0
651 652 653 654 655 0
-651 -652 0
-651 -653 0
-651 -654 0
-651 -655 0
-652 -653 0
-652 -654 0
-652 -655 0
-653 -654 0
-653 -655 0
-654 -655 0
656 657 658 659 660 0
-656 -657 0
-656 -658 0
-656 -659 0
-656 -660 0
-657 -658 0
-657 -659 0
-657 -660 0
-658 -659 0
-658 -660 0
-659 -660 0
661 662 663 664 665 0
-661 -662 0
-661 -663 0
-661 -664 0
-661 -665 0
-662 -663 0
-662 -664 0
-662 -665 0
-663 -664 0
-663 -665 0
-664 -665 0
666 667 668 669 670 0
-666 -667 0
-666 -668 0
-666 -669 0
-666 -670 0
-667 -668 0
-667 -669 0
-667 -670 0
-668 -669 0
-668 -670 0
-669 -670 0
671 672 673 674 675 0
-671 -672 0
-671 -673 0
-671 -674 0
-671 -675 0
-672 -673 0
-672 -674 0
-672 -675 0
-673 -674 0
-673 -675 0
-674 -675 0
676 677 678 679 680 0
-676 -677 0
-676 -678 0
-676 -679 0
-676 -680 0
-677 -678 0
-677 -679 0
-677 -680 0
-678 -679 0
-678 -680 0
-679 -680 0
681 682 683 684 685 0
-681 -682 0
-681 -683 0
-681 -684 0
-681 -685 0
-682 -683 0
-682 -684 0
-682 -685 0
-683 -684 0
-683 -685 0
-684 -685 0
686 687 688 689 690 0
-686 -687 0
-686 -688 0
-686 -689 0
-686 -690 0
-687 -688 0
-687 -689 0
-687 -690 0
-688 -689 0
-688 -690 0
-689 -690 0
691 692 693 694 695 0
-691 -692 0
-691 -693 0
-691 -694 0
-691 -695 0
-692 -693 0
-692 -694 0
-692 -695 0
-693 -694 0
-693 -695 0
-694 -695 0
696 697 698 699 700 0
-696 -697 0
-696 -698 0
-696 -699 0
-696 -700 0
-697 -698 0
-697 -699 0
-697 -700 0
-698 -699 0
-698 -700 0
-699 -700 0
701 702 703 704 705 0
-701 -702 0
-701 -703 0
-701 -704 0
-701 -705 0
-702 -703 0
-702 -704 0
-702 -705 0
-703 -704 0
-703 -705 0
-704 -705 0
706 707 708 709 710 0
-706 -707 0
-706 -708 0
-706 -709 0
-706 -710 0
-707 -708 0
-707 -709 0
-707 -710 0
-708 -709 0
-708 -710 0
-709 -710 0
711 712 713 714 715 0
-711 -712 0
-711 -713 0
-711 -714 0
-711 -715 0
-712 -713 0
-712 -714 0
-712 -715 0
-713 -714 0
-713 -715 0
-714 -715 0
716 717 718 719 720 0
-716 -717 0
-716 -718 0
-716 -719 0
-716 -720 0
-717 -718 0
-717 -719 0
-717 -720 0
-718 -719 0
-718 -720 0
-719 -720 0
721 722 723 724 725 0
-721 -722 0
-721 -723 0
-721 -724 0
-721 -725 0
-722 -723 0
-722 -724 0
-722 -725 0
-723 -724 0
-723 -725 0
-724 -725 0
726 727 728 729 730 0
-726 -727 0
-726 -728 0
-726 -729 0
-726 -730 0
-727 -728 0
-727 -729 0
-727 -730 0
-728 -729 0
-728 -730 0
-729 -730 0
731 732 733 734 735 0
-731 -732 0
-731 -733 0
-731 -734 0
-731 -735 0
-732 -733 0
-732 -734 0
-732 -735 0
-733 -734 0
-733 -735 0
-734 -735 0
736 737 738 739 740 0
-736 -737 0
-736 -738 0
-736 -739 0
-736 -740 0
-737 -738 0
-737 -739 0
-737 -740 0
-738 -739 0
-738 -740 0
-739 -740 0
741 742 743 744 745 0
-741 -742 0
-741 -743 0
-741 -744 0
-741 -745 0
-742 -743 0
-742 -744 0
-742 -745 0
-743 -744 0
-743 -745 0
-744 -745 0
746 747 748 749 750 0
-746 -747 0
-746 -748 0
-746 -749 0
-746 -750 0
-747 -748 0
-747 -749 0
-747 -750 0
-748 -749 0
-748 -750 0
-749 -750 0
751 752 753 754 755 0
-751 -752 0
-751 -753 0
-751 -754 0
-751 -755 0
-752 -753 0
-752 -754 0
-752 -755 0
-753 -754 0
-753 -755 0
-754 -755 0
756 757 758 759 760 0
-756 -757 0
-756 -758 0
-756 -759 0
-756 -760 0
-757 -758 0
-757 -759 0
-757 -760 0
-758 -759 0
-758 -760 0
-759 -760 0
761 762 763 764 765 0
-761 -762 0
-761 -763 0
-761 -764 0
-761 -765 0
-762 -763 0
-762 -764 0
-762 -765 0
-763 -764 0
-763 -765 0
-764 -765 0
766 767 768 769 770 0
-766 -767 0
-766 -768 0
-766 -769 0
-766 -770 0
-767 -768 0
-767 -769 0
-767 -770 0
-768 -769 0
-768 -770 0
-769 -770 0
771 772 773 774 775 0
-771 -772 0
-771 -773 0
-771 -774 0
-771 -775 0
-772 -773 0
-772 -774 0
-772 -775 0
-773 -774 0
-773 -775 0
-774 -775 0
776 777 778 779 780 0
-776 -777 0
-776 -778 0
-776 -779 0
-776 -780 0
-777 -778 0
-777 -779 0
-777 -780 0
-778 -779 0
-778 -780 0
-779 -780 0
781 782 783 784 785 0
-781 -782 0
-781 -783 0
-781 -784 0
-781 -785 0
-782 -783 0
-782 -784 0
-782 -785 0
-783 -784 0
-783 -785 0
-784 -785 0
786 787 788 789 790 0
-786 -787 0
-786 -788 0
-786 -789 0
-786 -790 0
-787 -788 0
-787 -789 0
-787 -790 0
-788 -789 0
-788 -790 0
-789 -790 0
791 792 793 794 795 0
-791 -792 0
-791 -793 0
-791 -794 0
-791 -795 0
-792 -793 0
-792 -794 0
-792 -795 0
-793 -794 0
-793 -795 0
-794 -795 0
796 797 798 799 800 0
-796 -797 0
-796 -798 0
-796 -799 0
-796 -800 0
-797 -798 0
-797 -799 0
-797 -800 0
-798 -799 0
-798 -800 0
-799 -800 0
801 802 803 804 805 0
-801 -802 0
-801 -803 0
-801 -804 0
-801 -805 0
-802 -803 0
-802 -804 0
-802 -805 0
-803 -804 0
-803 -805 0
-804 -805 0
806 807 808 809 810 0
-806 -807 0
-806 -808 0
-806 -809 0
-806 -810 0
-807 -808 0
-807 -809 0
-807 -810 0
-808 -809 0
-808 -810 0
-809 -810 0
811 812 813 814 815 0
-811 -812 0
-811 -813 0
-811 -814 0
-811 -815 0
-812 -813 0
-812 -814 0
-812 -815 0
-813 -814 0
-813 -815 0
-814 -815 0
816 817 818 819 820 0
-816 -817 0
-816 -818 0
-816 -819 0
-816 -820 0
-817 -818 0
-817 -819 0
-817 -820 0
-818 -819 0
-818 -820 0
-819 -820 0
821 822 823 824 825 0
-821 -822 0
-821 -823 0
-821 -824 0
-821 -825 0
-822 -823 0
-822 -824 0
-822 -825 0
-823 -824 0
-823 -825 0
-824 -825 0
826 827 828 829 830 0
-826 -827 0
-826 -828 0
-826 -829 0
-826 -830 0
-827 -828 0
-827 -829 0
-827 -830 0
-828 -829 0
-828 -830 0
-829 -830 0
831 832 833 834 835 0
-831 -832 0
-831 -833 0
-831 -834 0
-831 -835 0
-832 -833 0
-832 -834 0
-832 -835 0
-833 -834 0
-833 -835 0
-834 -835 0
836 837 838 839 840 0
-836 -837 0
-836 -838 0
-836 -839 0
-836 -840 0
-837 -838 0
-837 -839 0
-837 -840 0
-838 -839 0
-838 -840 0
-839 -840 0
841 842 843 844 845 0
-841 -842 0
-841 -843 0
-841 -844 0
-841 -845 0
-842 -843 0
-842 -844 0
-842 -845 0
-843 -844 0
-843 -845 0
-844 -845 0
846 847 848 849 850 0
-846 -847 0
-846 -848 0
-846 -849 0
-846 -850 0
-847 -848 0
-847 -849 0
-847 -850 0
-848 -849 0
-848 -850 0
-849 -850 0
851 852 853 854 855 0
-851 -852 0
-851 -853 0
-851 -854 0
-851 -855 0
-852 -853 0
-852 -854 0
-852 -855 0
-853 -854 0
-853 -855 0
-854 -855 0
856 857 858 859 860 0
-856 -857 0
-856 -858 0
-856 -859 0
-856 -860 0
-857 -858 0
-857 -859 0
-857 -860 0
-858 -859 0
-858 -860 0
-859 -860 0
861 862 863 864 865 0
-861 -862 0
-861 -863 0
-861 -864 0
-861 -865 0
-862 -863 0
-862 -864 0
-862 -865 0
-863 -864 0
-863 -865 0
-864 -865 0
866 867 868 869 870 0
-866 -867 0
-866 -868 0
-866 -869 0
-866 -870 0
-867 -868 0
-867 -869 0
-867 -870 0
-868 -869 0
-868 -870 0
-869 -870 0
871 872 873 874 875 0
-871 -872 0
-871 -873 0
-871 -874 0
-871 -875 0
-872 -873 0
-872 -874 0
-872 -875 0
-873 -874 0
-873 -875 0
-874 -875 0
876 877 878 879 880 0
-876 -877 0
-876 -878 0
-876 -879 0
-876 -880 0
-877 -878 0
-877 -879 0
-877 -880 0
-878 -879 0
-878 -880 0
-879 -880 0
881 882 883 884 885 0
-881 -882 0
-881 -883 0
-881 -884 0
-881 -885 0
-882 -883 0
-882 -884 0
-882 -885 0
-883 -884 0
-883 -885 0
-884 -885 0
886 887 888 889 890 0
-886 -887 0
-886 -888 0
-886 -889 0
-886 -890 0
-887 -888 0
-887 -889 0
-887 -890 0
-888 -889 0
-888 -890 0
-889 -890 0
891 892 893 894 895 0
-891 -892 0
-891 -893 0
-891 -894 0
-891 -895 0
-892 -893 0
-892 -894 0
-892 -895 0
-893 -894 0
-893 -895 0
-894 -895 0
896 897 898 899 900 0
-896 -897 0
-896 -898 0
-896 -899 0
-896 -900 0
-897 -898 0
-897 -899 0
-897 -900 0
-898 -899 0
-898 -900 0
-899 -900 0
901 902 903 904 905 0
-901 -902 0
-901 -903 0
-901 -904 0
-901 -905 0
-902 -903 0
-902 -904 0
-902 -905 0
-903 -904 0
-903 -905 0
-904 -905 0
906 907 908 909 910 0
-906 -907 0
-906 -908 0
-906 -909 0
-906 -910 0
-907 -908 0
-907 -909 0
-907 -910 0
-908 -909 0
-908 -910 0
-909 -910 0
911 912 913 914 915 0
-911 -912 0
-911 -913 0
-911 -914 0
-911 -915 0
-912 -913 0
-912 -914 0
-912 -915 0
-913 -914 0
-913 -915 0
-914 -915 0
916 917 918 919 920 0
-916 -917 0
-916 -918 0
-916 -919 0
-916 -920 0
-917 -918 0
-917 -919 0
-917 -920 0
-918 -919 0
-918 -920 0
-919 -920 0
921 922 923 924 925 0
-921 -922 0
-921 -923 0
-921 -924 0
-921 -925 0
-922 -923 0
-922 -924 0
-922 -925 0
-923 -924 0
-923 -925 0
-924 -925 0
926 927 928 929 930 0
-926 -927 0
-926 -928 0
-926 -929 0
-926 -930 0
-927 -928 0
-927 -929 0
-927 -930 0
-928 -929 0
-928 -930 0
-929 -930 0
931 932 933 934 935 0
-931 -932 0
-931 -933 0
-931 -934 0
-931 -935 0
-932 -933 0
-932 -934 0
-932 -935 0
-933 -934 0
-933 -935 0
-934 -935 0
936 937 938 939 940 0
-936 -937 0
-936 -938 0
-936 -939 0
-936 -940 0
-937 -938 0
-937 -939 0
-937 -940 0
-938 -939 0
-938 -940 0
-939 -940 0
941 942 943 944 945 0
-941 -942 0
-941 -943 0
-941 -944 0
-941 -945 0
-942 -943 0
-942 -944 0
-942 -945 0
-943 -944 0
-943 -945 0
-944 -945 0
946 947 948 949 950 0
-946 -947 0
-946 -948 0
-946 -949 0
-946 -950 0
-947 -948 0
-947 -949 0
-947 -950 0
-948 -949 0
-948 -950 0
-949 -950 0
951 952 953 954 955 0
-951 -952 0
-951 -953 0
-951 -954 0
-951 -955 0
-952 -953 0
-952 -954 0
-952 -955 0
-953 -954 0
-953 -955 0
-954 -955 0
956 957 958 959 960 0
-956 -957 0
-956 -958 0
-956 -959 0
-956 -960 0
-957 -958 0
-957 -959 0
-957 -960 0
-958 -959 0
-958 -960 0
-959 -960 0
961 962 963 964 965 0
-961 -962 0
-961 -963 0
-961 -964 0
-961 -965 0
-962 -963 0
-962 -964 0
-962 -965 0
-963 -964 0
-963 -965 0
-964 -965 0
966 967 968 969 970 0
-966 -967 0
-966 -968 0
-966 -969 0
-966 -970 0
-967 -968 0
-967 -969 0
-967 -970 0
-968 -969 0
-968 -970 0
-969 -970 0
971 972 973 974 975 0
-971 -972 0
-971 -973 0
-971 -974 0
-971 -975 0
-972 -973 0
-972 -974 0
-972 -975 0
-973 -974 0
-973 -975 0
-974 -975 0
976 977 978 979 980 0
-976 -977 0
-976 -978 0
-976 -979 0
-976 -980 0
-977 -978 0
-977 -979 0
-977 -980 0
-978 -979 0
-978 -980 0
-979 -980 0
981 982 983 984 985 0
-981 -982 0
-981 -983 0
-981 -984 0
-981 -985 0
-982 -983 0
-982 -984 0
-982 -985 0
-983 -984 0
-983 -985 0
-984 -985 0
986 987 988 989 990 0
-986 -987 0
-986 -988 0
-986 -989 0
-986 -990 0
-987 -988 0
-987 -989 0
-987 -990 0
-988 -989 0
-988 -990 0
-989 -990 0
991 992 993 994 995 0
-991 -992 0
-991 -993 0
-991 -994 0
-991 -995 0
-992 -993 0
-992 -994 0
-992 -995 0
-993 -994 0
-993 -995 0
-994 -995 0
996 997 998 999 1000 0
-996 -997 0
-996 -998 0
-996 -999 0
-996 -1000 0
-997 -998 0
-997 -999 0
-997 -1000 0
-998 -999 0
-998 -1000 0
-999 -1000 0
1001 1002 1003 1004 1005 0
-1001 -1002 0
-1001 -1003 0
-1001 -1004 0
-1001 -1005 0
-1002 -1003 0
-1002 -1004 0
-1002 -1005 0
-1003 -1004 0
-1003 -1005 0
-1004 -1005 0
1006 1007 1008 1009 1010 0
-1006 -1007 0
-1006 -1008 0
-1006 -1009 0
-1006 -1010 0
-1007 -1008 0
-1007 -1009 0
-1007 -1010 0
-1008 -1009 0
-1008 -1010 0
-1009 -1010 0
1011 1012 1013 1014 1015 0
-1011 -1012 0
-1011 -1013 0
-1011 -1014 0
-1011 -1015 0
-1012 -1013 0
-1012 -1014 0
-1012 -1015 0
-1013 -1014 0
-1013 -1015 0
-1014 -1015 0
1016 1017 1018 1019 1020 0
-1016 -1017 0
-1016 -1018 0
-1016 -1019 0
-1016 -1020 0
-1017 -1018 0
-1017 -1019 0
-1017 -1020 0
-1018 -1019 0
-1018 -1020 0
-1019 -1020 0
1021 1022 1023 1024 1025 0
-1021 -1022 0
-1021 -1023 0
-1021 -1024 0
-1021 -1025 0
-1022 -1023 0
-1022 -1024 0
-1022 -1025 0
-1023 -1024 0
-1023 -1025 0
-1024 -1025 0
1026 1027 1028 1029 1030 0
-1026 -1027 0
-1026 -1028 0
-1026 -1029 0
-1026 -1030 0
-1027 -1028 0
-1027 -1029 0
-1027 -1030 0
-1028 -1029 0
-1028 -1030 0
-1029 -1030 0
1031 1032 1033 1034 1035 0
-1031 -1032 0
-1031 -1033 0
-1031 -1034 0
-1031 -1035 0
-1032 -1033 0
-1032 -1034 0
-1032 -1035 0
-1033 -1034 0
-1033 -1035 0
-1034 -1035 0
1036 1037 1038 1039 1040 0
-1036 -1037 0
-1036 -1038 0
-1036 -1039 0
-1036 -1040 0
-1037 -1038 0
-1037 -1039 0
-1037 -1040 0
-1038 -1039 0
-1038 -1040 0
-1039 -1040 0
1041 1042 1043 1044 1045 0
-1041 -1042 0
-1041 -1043 0
-1041 -1044 0
-1041 -1045 0
-1042 -1043 0
-1042 -1044 0
-1042 -1045 0
-1043 -1044 0
-1043 -1045 0
-1044 -1045 0
1046 1047 1048 1049 1050 0
-1046 -1047 0
-1046 -1048 0
-1046 -1049 0
-1046 -1050 0
-1047 -1048 0
-1047 -1049 0
-1047 -1050 0
-1048 -1049 0
-1048 -1050 0
-1049 -1050 0
1051 1052 1053 1054 1055 0
-1051 -1052 0
-1051 -1053 0
-1051 -1054 0
-1051 -1055 0
-1052 -1053 0
-1052 -1054 0
-1052 -1055 0
-1053 -1054 0
-1053 -1055 0
-1054 -1055 0
1056 1057 1058 1059 1060 0
-1056 -1057 0
-1056 -1058 0
-1056 -1059 0
-1056 -1060 0
-1057 -1058 0
-1057 -1059 0
-1057 -1060 0
-1058 -1059 0
-1058 -1060 0
-1059 -1060 0
1061 1062 1063 1064 1065 0
-1061 -1062 0
-1061 -1063 0
-1061 -1064 0
-1061 -1065 0
-1062 -1063 0
-1062 -1064 0
-1062 -1065 0
-1063 -1064 0
-1063 -1065 0
-1064 -1065 0
1066 1067 1068 1069 1070 0
-1066 -1067 0
-1066 -1068 0
-1066 -1069 0
-1066 -1070 0
-1067 -1068 0
-1067 -1069 0
-1067 -1070 0
-1068 -1069 0
-1068 -1070 0
-1069 -1070 0
1071 1072 1073 1074 1075 0
-1071 -1072 0
-1071 -1073 0
-1071 -1074 0
-1071 -1075 0
-1072 -1073 0
-1072 -1074 0
-1072 -1075 0
-1073 -1074 0
-1073 -1075 0
-1074 -1075 0
1076 1077 1078 1079 1080 0
-1076 -1077 0
-1076 -1078 0
-1076 -1079 0
-1076 -1080 0
-1077 -1078 0
-1077 -1079 0
-1077 -1080 0
-1078 -1079 0
-1078 -1080 0
-1079 -1080 0
1081 1082 1083 1084 1085 0
-1081 -1082 0
-1081 -1083 0
-1081 -1084 0
-1081 -1085 0
-1082 -1083 0
-1082 -1084 0
-1082 -1085 0
-1083 -1084 0
-1083 -1085 0
-1084 -1085 0
1086 1087 1088 1089 1090 0
-1086 -1087 0
-1086 -1088 0
-1086 -1089 0
-1086 -1090 0
-1087 -1088 0
-1087 -1089 0
-1087 -1090 0
-1088 -1089 0
-1088 -1090 0
-1089 -1090 0
1091 1092 1093 1094 1095 0
-1091 -1092 0
-1091 -1093 0
-1091 -1094 0
-1091 -1095 0
-1092 -1093 0
-1092 -1094 0
-1092 -1095 0
-1093 -1094 0
-1093 -1095 0
-1094 -1095 0
1096 1097 1098 1099 1100 0
-1096 -1097 0
-1096 -1098 0
-1096 -1099 0
-1096 -1100 0
-1097 -1098 0
-1097 -1099 0
-1097 -1100 0
-1098 -1099 0
-1098 -1100 0
-1099 -1100 0
1101 1102 1103 1104 1105 0
-1101 -1102 0
-1101 -1103 0
-1101 -1104 0
-1101 -1105 0
-1102 -1103 0
-1102 -1104 0
-1102 -1105 0
-1103 -1104 0
-1103 -1105 0
-1104 -1105 0
1106 1107 1108 1109 1110 0
-1106 -1107 0
-1106 -1108 0
-1106 -1109 0
-1106 -1110 0
-1107 -1108 0
-1107 -1109 0
-1107 -1110 0
-1108 -1109 0
-1108 -1110 0
-1109 -1110 0
1111 1112 1113 1114 1115 0
-1111 -1112 0
-1111 -1113 0
-1111 -1114 0
-1111 -1115 0
-1112 -1113 0
-1112 -1114 0
-1112 -1115 0
-1113 -1114 0
-1113 -1115 0
-1114 -1115 0
1116 1117 1118 1119 1120 0
-1116 -1117 0
-1116 -1118 0
-1116 -1119 0
-1116 -1120 0
-1117 -1118 0
-1117 -1119 0
-1117 -1120 0
-1118 -1119 0
-1118 -1120 0
-1119 -1120 0
1121 1122 1123 1124 1125 0
-1121 -1122 0
-1121 -1123 0
-1121 -1124 0
-1121 -1125 0
-1122 -1123 0
-1122 -1124 0
-1122 -1125 0
-1123 -1124 0
-1123 -1125 0
-1124 -1125 0
1126 1127 1128 1129 1130 0
-1126 -1127 0
-1126 -1128 0
-1126 -1129 0
-1126 -1130 0
-1127 -1128 0
-1127 -1129 0
-1127 -1130 0
-1128 -1129 0
-1128 -1130 0
-1129 -1130 0
1131 1132 1133 1134 1135 0
-1131 -1132 0
-1131 -1133 0
-1131 -1134 0
-1131 -1135 0
-1132 -1133 0
-1132 -1134 0
-1132 -1135 0
-1133 -1134 0
-1133 -1135 0
-1134 -1135 0
1136 1137 1138 1139 1140 0
-1136 -1137 0
-1136 -1138 0
-1136 -1139 0
-1136 -1140 0
-1137 -1138 0
-1137 -1139 0
-1137 -1140 0
-1138 -1139 0
-1138 -1140 0
-1139 -1140 0
1141 1142 1143 1144 1145 0
-1141 -1142 0
-1141 -1143 0
-1141 -1144 0
-1141 -1145 0
-1142 -1143 0
-1142 -1144 0
-1142 -1145 0
-1143 -1144 0
-1143 -1145 0
-1144 -1145 0
1146 1147 1148 1149 1150 0
-1146 -1147 0
-1146 -1148 0
-1146 -1149 0
-1146 -1150 0
-1147 -1148 0
-1147 -1149 0
-1147 -1150 0
-1148 -1149 0
-1148 -1150 0
-1149 -1150 0
1151 1152 1153 1154 1155 0
-1151 -1152 0
-1151 -1153 0
-1151 -1154 0
-1151 -1155 0
-1152 -1153 0
-1152 -1154 0
-1152 -1155 0
-1153 -1154 0
-1153 -1155 0
-1154 -1155 0
1156 1157 1158 1159 1160 0
-1156 -1157 0
-1156 -1158 0
-1156 -1159 0
-1156 -1160 0
-1157 -1158 0
-1157 -1159 0
-1157 -1160 0
-1158 -1159 0
-1158 -1160 0
-1159 -1160 0
1161 1162 1163 1164 1165 0
-1161 -1162 0
-1161 -1163 0
-1161 -1164 0
-1161 -1165 0
-1162 -1163 0
-1162 -1164 0
-1162 -1165 0
-1163 -1164 0
-1163 -1165 0
-1164 -1165 0
1166 1167 1168 1169 1170 0
-1166 -1167 0
-1166 -1168 0
-1166 -1169 0
-1166 -1170 0
-1167 -1168 0
-1167 -1169 0
-1167 -1170 0
-1168 -1169 0
-1168 -1170 0
-1169 -1170 0
1171 1172 1173 1174 1175 0
-1171 -1172 0
-1171 -1173 0
-1171 -1174 0
-1171 -1175 0
-1172 -1173 0
-1172 -1174 0
-1172 -1175 0
-1173 -1174 0
-1173 -1175 0
-1174 -1175 0
1176 1177 1178 1179 1180 0
-1176 -1177 0
-1176 -1178 0
-1176 -1179 0
-1176 -1180 0
-1177 -1178 0
-1177 -1179 0
-1177 -1180 0
-1178 -1179 0
-1178 -1180 0
-1179 -1180 0
1181 1182 1183 1184 1185 0
-1181 -1182 0
-1181 -1183 0
-1181 -1184 0
-1181 -1185 0
-1182 -1183 0
-1182 -1184 0
-1182 -1185 0
-1183 -1184 0
-1183 -1185 0
-1184 -1185 0
1186 1187 1188 1189 1190 0
-1186 -1187 0
-1186 -1188 0
-1186 -1189 0
-1186 -1190 0
-1187 -1188 0
-1187 -1189 0
-1187 -1190 0
-1188 -1189 0
-1188 -1190 0
-1189 -1190 0
1191 1192 1193 1194 1195 0
-1191 -1192 0
-1191 -1193 0
-1191 -1194 0
-1191 -1195 0
-1192 -1193 0
-1192 -1194 0
-1192 -1195 0
-1193 -1194 0
-1193 -1195 0
-1194 -1195 0
1196 1197 1198 1199 1200 0
-1196 -1197 0
-1196 -1198 0
-1196 -1199 0
-1196 -1200 0
-1197 -1198 0
-1197 -1199 0
-1197 -1200 0
-1198 -1199 0
-1198 -1200 0
-1199 -1200 0
1201 1202 1203 1204 1205 0
-1201 -1202 0
-1201 -1203 0
-1201 -1204 0
-1201 -1205 0
-1202 -1203 0
-1202 -1204 0
-1202 -1205 0
-1203 -1204 0
-1203 -1205 0
-1204 -1205 0
1206 1207 1208 1209 1210 0
-1206 -1207 0
-1206 -1208 0
-1206 -1209 0
-1206 -1210 0
-1207 -1208 0
-1207 -1209 0
-1207 -1210 0
-1208 -1209 0
-1208 -1210 0
-1209 -1210 0
1211 1212 1213 1214 1215 0
-1211 -1212 0
-1211 -1213 0
-1211 -1214 0
-1211 -1215 0
-1212 -1213 0
-1212 -1214 0
-1212 -1215 0
-1213 -1214 0
-1213 -1215 0
-1214 -1215 0
1216 1217 1218 1219 1220 0
-1216 -1217 0
-1216 -1218 0
-1216 -1219 0
-1216 -1220 0
-1217 -1218 0
-1217 -1219 0
-1217 -1220 0
-1218 -1219 0
-1218 -1220 0
-1219 -1220 0
1221 1222 1223 1224 1225 0
-1221 -1222 0
-1221 -1223 0
-1221 -1224 0
-1221 -1225 0
-1222 -1223 0
-1222 -1224 0
-1222 -1225 0
-1223 -1224 0
-1223 -1225 0
-1224 -1225 0
1226 1227 1228 1229 1230 0
-1226 -1227 0
-1226 -1228 0
-1226 -1229 0
-1226 -1230 0
-1227 -1228 0
-1227 -1229 0
-1227 -1230 0
-1228 -1229 0
-1228 -1230 0
-1229 -1230 0
1231 1232 1233 1234 1235 0
-1231 -1232 0
-1231 -1233 0
-1231 -1234 0
-1231 -1235 0
-1232 -1233 0
-1232 -1234 0
-1232 -1235 0
-1233 -1234 0
-1233 -1235 0
-1234 -1235 0
1236 1237 1238 1239 1240 0
-1236 -1237 0
-1236 -1238 0
-1236 -1239 0
-1236 -1240 0
-1237 -1238 0
-1237 -1239 0
-1237 -1240 0
-1238 -1239 0
-1238 -1240 0
-1239 -1240 0
1241 1242 1243 1244 1245 0
-1241 -1242 0
-1241 -1243 0
-1241 -1244 0
-1241 -1245 0
-1242 -1243 0
-1242 -1244 0
-1242 -1245 0
-1243 -1244 0
-1243 -1245 0
-1244 -1245 0
1246 1247 1248 1249 1250 0
-1246 -1247 0
-1246 -1248 0
-1246 -1249 0
-1246 -1250 0
-1247 -1248 0
-1247 -1249 0
-1247 -1250 0
-1248 -1249 0
-1248 -1250 0
-1249 -1250 0
1251 1252 1253 1254 1255 0
-1251 -1252 0
-1251 -1253 0
-1251 -1254 0
-1251 -1255 0
-1252 -1253 0
-1252 -1254 0
-1252 -1255 0
-1253 -1254 0
-1253 -1255 0
-1254 -1255 0
1256 1257 1258 1259 1260 0
-1256 -1257 0
-1256 -1258 0
-1256 -1259 0
-1256 -1260 0
-1257 -1258 0
-1257 -1259 0
-1257 -1260 0
-1258 -1259 0
-1258 -1260 0
-1259 -1260 0
1261 1262 1263 1264 1265 0
-1261 -1262 0
-1261 -1263 0
-1261 -1264 0
-1261 -1265 0
-1262 -1263 0
-1262 -1264 0
-1262 -1265 0
-1263 -1264 0
-1263 -1265 0
-1264 -1265 0
1266 1267 1268 1269 1270 0
-1266 -1267 0
-1266 -1268 0
-1266 -1269 0
-1266 -1270 0
-1267 -1268 0
-1267 -1269 0
-1267 -1270 0
-1268 -1269 0
-1268 -1270 0
-1269 -1270 0
1271 1272 1273 1274 1275 0
-1271 -1272 0
-1271 -1273 0
-1271 -1274 0
-1271 -1275 0
-1272 -1273 0
-1272 -1274 0
-1272 -1275 0
-1273 -1274 0
-1273 -1275 0
-1274 -1275 0
1276 1277 1278 1279 1280 0
-1276 -1277 0
-1276 -1278 0
-1276 -1279 0
-1276 -1280 0
-1277 -1278 0
-1277 -1279 0
-1277 -1280 0
-1278 -1279 0
-1278 -1280 0
-1279 -1280 0
1281 1282 1283 1284 1285 0
-1281 -1282 0
-1281 -1283 0
-1281 -1284 0
-1281 -1285 0
-1282 -1283 0
-1282 -1284 0
-1282 -1285 0
-1283 -1284 0
-1283 -1285 0
-1284 -1285 0
1286 1287 1288 1289 1290 0
-1286 -1287 0
-1286 -1288 0
-1286 -1289 0
-1286 -1290 0
-1287 -1288 0
-1287 -1289 0
-1287 -1290 0
-1288 -1289 0
-1288 -1290 0
-1289 -1290 0
1291 1292 1293 1294 1295 0
-1291 -1292 0
-1291 -1293 0
-1291 -1294 0
-1291 -1295 0
-1292 -1293 0
-1292 -1294 0
-1292 -1295 0
-1293 -1294 0
-1293 -1295 0
-1294 -1295 0
1296 1297 1298 1299 1300 0
-1296 -1297 0
-1296 -1298 0
-1296 -1299 0
-1296 -1300 0
-1297 -1298 0
-1297 -1299 0
-1297 -1300 0
-1298 -1299 0
-1298 -1300 0
-1299 -1300 0
1301 1302 1303 1304 1305 0
-1301 -1302 0
-1301 -1303 0
-1301 -1304 0
-1301 -1305 0
-1302 -1303 0
-1302 -1304 0
-1302 -1305 0
-1303 -1304 0
-1303 -1305 0
-1304 -1305 0
1306 1307 1308 1309 1310 0
-1306 -1307 0
-1306 -1308 0
-1306 -1309 0
-1306 -1310 0
-1307 -1308 0
-1307 -1309 0
-1307 -1310 0
-1308 -1309 0
-1308 -1310 0
-1309 -1310 0
1311 1312 1313 1314 1315 0
-1311 -1312 0
-1311 -1313 0
-1311 -1314 0
-1311 -1315 0
-1312 -1313 0
-1312 -1314 0
-1312 -1315 0
-1313 -1314 0
-1313 -1315 0
-1314 -1315 0
1316 1317 1318 1319 1320 0
-1316 -1317 0
-1316 -1318 0
-1316 -1319 0
-1316 -1320 0
-1317 -1318 0
-1317 -1319 0
-1317 -1320 0
-1318 -1319 0
-1318 -1320 0
-1319 -1320 0
1321 1322 1323 1324 1325 0
-1321 -1322 0
-1321 -1323 0
-1321 -1324 0
-1321 -1325 0
-1322 -1323 0
-1322 -1324 0
-1322 -1325 0
-1323 -1324 0
-1323 -1325 0
-1324 -1325 0
1326 1327 1328 1329 1330 0
-1326 -1327 0
-1326 -1328 0
-1326 -1329 0
-1326 -1330 0
-1327 -1328 0
-1327 -1329 0
-1327 -1330 0
-1328 -1329 0
-1328 -1330 0
-1329 -1330 0
1331 1332 1333 1334 1335 0
-1331 -1332 0
-1331 -1333 0
-1331 -1334 0
-1331 -1335 0
-1332 -1333 0
-1332 -1334 0
-1332 -1335 0
-1333 -1334 0
-1333 -1335 0
-1334 -1335 0
1336 1337 1338 1339 1340 0
-1336 -1337 0
-1336 -1338 0
-1336 -1339 0
-1336 -1340 0
-1337 -1338 0
-1337 -1339 0
-1337 -1340 0
-1338 -1339 0
-1338 -1340 0
-1339 -1340 0
1341 1342 1343 1344 1345 0
-1341 -1342 0
-1341 -1343 0
-1341 -1344 0
-1341 -1345 0
-1342 -1343 0
-1342 -1344 0
-1342 -1345 0
-1343 -1344 0
-1343 -1345 0
-1344 -1345 0
1346 1347 1348 1349 1350 0
-1346 -1347 0
-1346 -1348 0
-1346 -1349 0
-1346 -1350 0
-1347 -1348 0
-1347 -1349 0
-1347 -1350 0
-1348 -1349 0
-1348 -1350 0
-1349 -1350 0
1351 1352 1353 1354 1355 0
-1351 -1352 0
-1351 -1353 0
-1351 -1354 0
-1351 -1355 0
-1352 -1353 0
-1352 -1354 0
-1352 -1355 0
-1353 -1354 0
-1353 -1355 0
-1354 -1355 0
1356 1357 1358 1359 1360 0
-1356 -1357 0
-1356 -1358 0
-1356 -1359 0
-1356 -1360 0
-1357 -1358 0
-1357 -1359 0
-1357 -1360 0
-1358 -1359 0
-1358 -1360 0
-1359 -1360 0
1361 1362 1363 1364 1365 0
-1361 -1362 0
-1361 -1363 0
-1361 -1364 0
-1361 -1365 0
-1362 -1363 0
-1362 -1364 0
-1362 -1365 0
-1363 -1364 0
-1363 -1365 0
-1364 -1365 0
1366 1367 1368 1369 1370 0
-1366 -1367 0
-1366 -1368 0
-1366 -1369 0
-1366 -1370 0
-1367 -1368 0
-1367 -1369 0
-1367 -1370 0
-1368 -1369 0
-1368 -1370 0
-1369 -1370 0
1371 1372 1373 1374 1375 0
-1371 -1372 0
-1371 -1373 0
-1371 -1374 0
-1371 -1375 0
-1372 -1373 0
-1372 -1374 0
-1372 -1375 0
-1373 -1374 0
-1373 -1375 0
-1374 -1375 0
1376 1377 1378 1379 1380 0
-1376 -1377 0
-1376 -1378 0
-1376 -1379 0
-1376 -1380 0
-1377 -1378 0
-1377 -1379 0
-1377 -1380 0
-1378 -1379 0
-1378 -1380 0
-1379 -1380 0
1381 1382 1383 1384 1385 0
-1381 -1382 0
-1381 -1383 0
-1381 -1384 0
-1381 -1385 0
-1382 -1383 0
-1382 -1384 0
-1382 -1385 0
-1383 -1384 0
-1383 -1385 0
-1384 -1385 0
1386 1387 1388 1389 1390 0
-1386 -1387 0
-1386 -1388 0
-1386 -1389 0
-1386 -1390 0
-1387 -1388 0
-1387 -1389 0
-1387 -1390 0
-1388 -1389 0
-1388 -1390 0
-1389 -1390 0
1391 1392 1393 1394 1395 0
-1391 -1392 0
-1391 -1393 0
-1391 -1394 0
-1391 -1395 0
-1392 -1393 0
-1392 -1394 0
-1392 -1395 0
-1393 -1394 0
-1393 -1395 0
-1394 -1395 0
1396 1397 1398 1399 1400 0
-1396 -1397 0
-1396 -1398 0
-1396 -1399 0
-1396 -1400 0
-1397 -1398 0
-1397 -1399 0
-1397 -1400 0
-1398 -1399 0
-1398 -1400 0
-1399 -1400 0
1401 1402 1403 1404 1405 0
-1401 -1402 0
-1401 -1403 0
-1401 -1404 0
-1401 -1405 0
-1402 -1403 0
-1402 -1404 0
-1402 -1405 0
-1403 -1404 0
-1403 -1405 0
-1404 -1405 0
1406 1407 1408 1409 1410 0
-1406 -1407 0
-1406 -1408 0
-1406 -1409 0
-1406 -1410 0
-1407 -1408 0
-1407 -1409 0
-1407 -1410 0
-1408 -1409 0
-1408 -1410 0
-1409 -1410 0
1411 1412 1413 1414 1415 0
-1411 -1412 0
-1411 -1413 0
-1411 -1414 0
-1411 -1415 0
-1412 -1413 0
-1412 -1414 0
-1412 -1415 0
-1413 -1414 0
-1413 -1415 0
-1414 -1415 0
1416 1417 1418 1419 1420 0
-1416 -1417 0
-1416 -1418 0
-1416 -1419 0
-1416 -1420 0
-1417 -1418 0
-1417 -1419 0
-1417 -1420 0
-1418 -1419 0
-1418 -1420 0
-1419 -1420 0
1421 1422 1423 1424 1425 0
-1421 -1422 0
-1421 -1423 0
-1421 -1424 0
-1421 -1425 0
-1422 -1423 0
-1422 -1424 0
-1422 -1425 0
-1423 -1424 0
-1423 -1425 0
-1424 -1425 0
1 6 11 16 21 0
-1 -6 0
-1 -11 0
-1 -16 0
-1 -21 0
-6 -11 0
-6 -16 0
-6 -21 0
-11 -16 0
-11 -21 0
-16 -21 0
2 7 12 17 22 0
-2 -7 0
-2 -12 0
-2 -17 0
-2 -22 0
-7 -12 0
-7 -17 0
-7 -22 0
-12 -17 0
-12 -22 0
-17 -22 0
3 8 13 18 23 0
-3 -8 0
-3 -13 0
-3 -18 0
-3 -23 0
-8 -13 0
-8 -18 0
-8 -23 0
-13 -18 0
-13 -23 0
-18 -23 0
4 9 14 19 24 0
-4 -9 0
-4 -14 0
-4 -19 0
-4 -24 0
-9 -14 0
-9 -19 0
-9 -24 0
-14 -19 0
-14 -24 0
-19 -24 0
5 10 15 20 25 0
-5 -10 0
-5 -15 0
-5 -20 0
-5 -25 0
-10 -15 0
-10 -20 0
-10 -25 0
-15 -20 0
-15 -25 0
-20 -25 0
1 26 31 36 41 0
-1 -26 0
-1 -31 0
-1 -36 0
-1 -41 0
-26 -31 0
-26 -36 0
-26 -41 0
-31 -36 0
-31 -41 0
-36 -41 0
2 27 32 37 42 0
-2 -27 0
-2 -32 0
-2 -37 0
-2 -42 0
-27 -32 0
-27 -37 0
-27 -42 0
-32 -37 0
-32 -42 0
-37 -42 0
3 28 33 38 43 0
-3 -28 0
-3 -33 0
-3 -38 0
-3 -43 0
-28 -33 0
-28 -38 0
-28 -43 0
-33 -38 0
-33 -43 0
-38 -43 0
4 29 34 39 44 0
-4 -29 0
-4 -34 0
-4 -39 0
-4 -44 0
-29 -34 0
-29 -39 0
-29 -44 0
-34 -39 0
-34 -44 0
-39 -44 0
5 30 35 40 45 0
-5 -30 0
-5 -35 0
-5 -40 0
-5 -45 0
-30 -35 0
-30 -40 0
-30 -45 0
-35 -40 0
-35 -45 0
-40 -45 0
1 226 231 236 241 0
-1 -226 0
-1 -231 0
-1 -236 0
-1 -241 0
-226 -231 0
-226 -236 0
-226 -241 0
-231 -236 0
-231 -241 0
-236 -241 0
2 227 232 237 242 0
-2 -227 0
-2 -232 0
-2 -237 0
-2 -242 0
-227 -232 0
-227 -237 0
-227 -242 0
-232 -237 0
-232 -242 0
-237 -242 0
3 228 233 238 243 0
-3 -228 0
-3 -233 0
-3 -238 0
-3 -243 0
-228 -233 0
-228 -238 0
-228 -243 0
-233 -238 0
-233 -243 0
-238 -243 0
4 229 234 239 244 0
-4 -229 0
-4 -234 0
-4 -239 0
-4 -244 0
-229 -234 0
-229 -239 0
-229 -244 0
-234 -239 0
-234 -244 0
-239 -244 0
5 230 235 240 245 0
-5 -230 0
-5 -235 0
-5 -240 0
-5 -245 0
-230 -235 0
-230 -240 0
-230 -245 0
-235 -240 0
-235 -245 0
-240 -245 0
6 31 116 121 126 0
-6 -31 0
-6 -116 0
-6 -121 0
-6 -126 0
-31 -116 0
-31 -121 0
-31 -126 0
-116 -121 0
-116 -126 0
-121 -126 0
7 32 117 122 127 0
-7 -32 0
-7 -117 0
-7 -122 0
-7 -127 0
-32 -117 0
-32 -122 0
-32 -127 0
-117 -122 0
-117 -127 0
-122 -127 0
8 33 118 123 128 0
-8 -33 0
-8 -118 0
-8 -123 0
-8 -128 0
-33 -118 0
-33 -123 0
-33 -128 0
-118 -123 0
-118 -128 0
-123 -128 0
9 34 119 124 129 0
-9 -34 0
-9 -119 0
-9 -124 0
-9 -129 0
-34 -119 0
-34 -124 0
-34 -129 0
-119 -124 0
-119 -129 0
-124 -129 0
10 35 120 125 130 0
-10 -35 0
-10 -120 0
-10 -125 0
-10 -130 0
-35 -120 0
-35 -125 0
-35 -130 0
-120 -125 0
-120 -130 0
-125 -130 0
6 311 316 321 326 0
-6 -311 0
-6 -316 0
-6 -321 0
-6 -326 0
-311 -316 0
-311 -321 0
-311 -326 0
-316 -321 0
-316 -326 0
-321 -326 0
7 312 317 322 327 0
-7 -312 0
-7 -317 0
-7 -322 0
-7 -327 0
-312 -317 0
-312 -322 0
-312 -327 0
-317 -322 0
-317 -327 0
-322 -327 0
8 313 318 323 328 0
-8 -313 0
-8 -318 0
-8 -323 0
-8 -328 0
-313 -318 0
-313 -323 0
-313 -328 0
-318 -323 0
-318 -328 0
-323 -328 0
9 314 319 324 329 0
-9 -314 0
-9 -319 0
-9 -324 0
-9 -329 0
-314 -319 0
-314 -324 0
-314 -329 0
-319 -324 0
-319 -329 0
-324 -329 0
10 315 320 325 330 0
-10 -315 0
-10 -320 0
-10 -325 0
-10 -330 0
-315 -320 0
-315 -325 0
-315 -330 0
-320 -325 0
-320 -330 0
-325 -330 0
11 76 151 156 161 0
-11 -76 0
-11 -151 0
-11 -156 0
-11 -161 0
-76 -151 0
-76 -156 0
-76 -161 0
-151 -156 0
-151 -161 0
-156 -161 0
12 77 152 157 162 0
-12 -77 0
-12 -152 0
-12 -157 0
-12 -162 0
-77 -152 0
-77 -157 0
-77 -162 0
-152 -157 0
-152 -162 0
-157 -162 0
13 78 153 158 163 0
-13 -78 0
-13 -153 0
-13 -158 0
-13 -163 0
-78 -153 0
-78 -158 0
-78 -163 0
-153 -158 0
-153 -163 0
-158 -163 0
14 79 154 159 164 0
-14 -79 0
-14 -154 0
-14 -159 0
-14 -164 0
-79 -154 0
-79 -159 0
-79 -164 0
-154 -159 0
-154 -164 0
-159 -164 0
15 80 155 160 165 0
-15 -80 0
-15 -155 0
-15 -160 0
-15 -165 0
-80 -155 0
-80 -160 0
-80 -165 0
-155 -160 0
-155 -165 0
-160 -165 0
11 331 346 356 361 0
-11 -331 0
-11 -346 0
-11 -356 0
-11 -361 0
-331 -346 0
-331 -356 0
-331 -361 0
-346 -356 0
-346 -361 0
-356 -361 0
12 332 347 357 362 0
-12 -332 0
-12 -347 0
-12 -357 0
-12 -362 0
-332 -347 0
-332 -357 0
-332 -362 0
-347 -357 0
-347 -362 0
-357 -362 0
13 333 348 358 363 0
-13 -333 0
-13 -348 0
-13 -358 0
-13 -363 0
-333 -348 0
-333 -358 0
-333 -363 0
-348 -358 0
-348 -363 0
-358 -363 0
14 334 349 359 364 0
-14 -334 0
-14 -349 0
-14 -359 0
-14 -364 0
-334 -349 0
-334 -359 0
-334 -364 0
-349 -359 0
-349 -364 0
-359 -364 0
15 335 350 360 365 0
-15 -335 0
-15 -350 0
-15 -360 0
-15 -365 0
-335 -350 0
-335 -360 0
-335 -365 0
-350 -360 0
-350 -365 0
-360 -365 0
16 151 166 171 176 0
-16 -151 0
-16 -166 0
-16 -171 0
-16 -176 0
-151 -166 0
-151 -171 0
-151 -176 0
-166 -171 0
-166 -176 0
-171 -176 0
17 152 167 172 177 0
-17 -152 0
-17 -167 0
-17 -172 0
-17 -177 0
-152 -167 0
-152 -172 0
-152 -177 0
-167 -172 0
-167 -177 0
-172 -177 0
18 153 168 173 178 0
-18 -153 0
-18 -168 0
-18 -173 0
-18 -178 0
-153 -168 0
-153 -173 0
-153 -178 0
-168 -173 0
-168 -178 0
-173 -178 0
19 154 169 174 179 0
-19 -154 0
-19 -169 0
-19 -174 0
-19 -179 0
-154 -169 0
-154 -174 0
-154 -179 0
-169 -174 0
-169 -179 0
-174 -179 0
20 155 170 175 180 0
-20 -155 0
-20 -170 0
-20 -175 0
-20 -180 0
-155 -170 0
-155 -175 0
-155 -180 0
-170 -175 0
-170 -180 0
-175 -180 0
16 366 371 376 381 0
-16 -366 0
-16 -371 0
-16 -376 0
-16 -381 0
-366 -371 0
-366 -376 0
-366 -381 0
-371 -376 0
-371 -381 0
-376 -381 0
17 367 372 377 382 0
-17 -367 0
-17 -372 0
-17 -377 0
-17 -382 0
-367 -372 0
-367 -377 0
-367 -382 0
-372 -377 0
-372 -382 0
-377 -382 0
18 368 373 378 383 0
-18 -368 0
-18 -373 0
-18 -378 0
-18 -383 0
-368 -373 0
-368 -378 0
-368 -383 0
-373 -378 0
-373 -383 0
-378 -383 0
19 369 374 379 384 0
-19 -369 0
-19 -374 0
-19 -379 0
-19 -384 0
-369 -374 0
-369 -379 0
-369 -384 0
-374 -379 0
-374 -384 0
-379 -384 0
20 370 375 380 385 0
-20 -370 0
-20 -375 0
-20 -380 0
-20 -385 0
-370 -375 0
-370 -380 0
-370 -385 0
-375 -380 0
-375 -385 0
-380 -385 0
21 56 136 146 191 0
-21 -56 0
-21 -136 0
-21 -146 0
-21 -191 0
-56 -136 0
-56 -146 0
-56 -191 0
-136 -146 0
-136 -191 0
-146 -191 0
22 57 137 147 192 0
-22 -57 0
-22 -137 0
-22 -147 0
-22 -192 0
-57 -137 0
-57 -147 0
-57 -192 0
-137 -147 0
-137 -192 0
-147 -192 0
23 58 138 148 193 0
-23 -58 0
-23 -138 0
-23 -148 0
-23 -193 0
-58 -138 0
-58 -148 0
-58 -193 0
-138 -148 0
-138 -193 0
-148 -193 0
24 59 139 149 194 0
-24 -59 0
-24 -139 0
-24 -149 0
-24 -194 0
-59 -139 0
-59 -149 0
-59 -194 0
-139 -149 0
-139 -194 0
-149 -194 0
25 60 140 150 195 0
-25 -60 0
-25 -140 0
-25 -150 0
-25 -195 0
-60 -140 0
-60 -150 0
-60 -195 0
-140 -150 0
-140 -195 0
-150 -195 0
21 316 371 396 401 0
-21 -316 0
-21 -371 0
-21 -396 0
-21 -401 0
-316 -371 0
-316 -396 0
-316 -401 0
-371 -396 0
-371 -401 0
-396 -401 0
22 317 372 397 402 0
-22 -317 0
-22 -372 0
-22 -397 0
-22 -402 0
-317 -372 0
-317 -397 0
-317 -402 0
-372 -397 0
-372 -402 0
-397 -402 0
23 318 373 398 403 0
-23 -318 0
-23 -373 0
-23 -398 0
-23 -403 0
-318 -373 0
-318 -398 0
-318 -403 0
-373 -398 0
-373 -403 0
-398 -403 0
24 319 374 399 404 0
-24 -319 0
-24 -374 0
-24 -399 0
-24 -404 0
-319 -374 0
-319 -399 0
-319 -404 0
-374 -399 0
-374 -404 0
-399 -404 0
25 320 375 400 405 0
-25 -320 0
-25 -375 0
-25 -400 0
-25 -405 0
-320 -375 0
-320 -400 0
-320 -405 0
-375 -400 0
-375 -405 0
-400 -405 0
26 96 101 106 111 0
-26 -96 0
-26 -101 0
-26 -106 0
-26 -111 0
-96 -101 0
-96 -106 0
-96 -111 0
-101 -106 0
-101 -111 0
-106 -111 0
27 97 102 107 112 0
-27 -97 0
-27 -102 0
-27 -107 0
-27 -112 0
-97 -102 0
-97 -107 0
-97 -112 0
-102 -107 0
-102 -112 0
-107 -112 0
28 98 103 108 113 0
-28 -98 0
-28 -103 0
-28 -108 0
-28 -113 0
-98 -103 0
-98 -108 0
-98 -113 0
-103 -108 0
-103 -113 0
-108 -113 0
29 99 104 109 114 0
-29 -99 0
-29 -104 0
-29 -109 0
-29 -114 0
-99 -104 0
-99 -109 0
-99 -114 0
-104 -109 0
-104 -114 0
-109 -114 0
30 100 105 110 115 0
-30 -100 0
-30 -105 0
-30 -110 0
-30 -115 0
-100 -105 0
-100 -110 0
-100 -115 0
-105 -110 0
-105 -115 0
-110 -115 0
26 466 471 476 481 0
-26 -466 0
-26 -471 0
-26 -476 0
-26 -481 0
-466 -471 0
-466 -476 0
-466 -481 0
-471 -476 0
-471 -481 0
-476 -481 0
27 467 472 477 482 0
-27 -467 0
-27 -472 0
-27 -477 0
-27 -482 0
-467 -472 0
-467 -477 0
-467 -482 0
-472 -477 0
-472 -482 0
-477 -482 0
28 468 473 478 483 0
-28 -468 0
-28 -473 0
-28 -478 0
-28 -483 0
-468 -473 0
-468 -478 0
-468 -483 0
-473 -478 0
-473 -483 0
-478 -483 0
29 469 474 479 484 0
-29 -469 0
-29 -474 0
-29 -479 0
-29 -484 0
-469 -474 0
-469 -479 0
-469 -484 0
-474 -479 0
-474 -484 0
-479 -484 0
30 470 475 480 485 0
-30 -470 0
-30 -475 0
-30 -480 0
-30 -485 0
-470 -475 0
-470 -480 0
-470 -485 0
-475 -480 0
-475 -485 0
-480 -485 0
31 486 491 496 501 0
-31 -486 0
-31 -491 0
-31 -496 0
-31 -501 0
-486 -491 0
-486 -496 0
-486 -501 0
-491 -496 0
-491 -501 0
-496 -501 0
32 487 492 497 502 0
-32 -487 0
-32 -492 0
-32 -497 0
-32 -502 0
-487 -492 0
-487 -497 0
-487 -502 0
-492 -497 0
-492 -502 0
-497 -502 0
33 488 493 498 503 0
-33 -488 0
-33 -493 0
-33 -498 0
-33 -503 0
-488 -493 0
-488 -498 0
-488 -503 0
-493 -498 0
-493 -503 0
-498 -503 0
34 489 494 499 504 0
-34 -489 0
-34 -494 0
-34 -499 0
-34 -504 0
-489 -494 0
-489 -499 0
-489 -504 0
-494 -499 0
-494 -504 0
-499 -504 0
35 490 495 500 505 0
-35 -490 0
-35 -495 0
-35 -500 0
-35 -505 0
-490 -495 0
-490 -500 0
-490 -505 0
-495 -500 0
-495 -505 0
-500 -505 0
36 46 71 131 136 0
-36 -46 0
-36 -71 0
-36 -131 0
-36 -136 0
-46 -71 0
-46 -131 0
-46 -136 0
-71 -131 0
-71 -136 0
-131 -136 0
37 47 72 132 137 0
-37 -47 0
-37 -72 0
-37 -132 0
-37 -137 0
-47 -72 0
-47 -132 0
-47 -137 0
-72 -132 0
-72 -137 0
-132 -137 0
38 48 73 133 138 0
-38 -48 0
-38 -73 0
-38 -133 0
-38 -138 0
-48 -73 0
-48 -133 0
-48 -138 0
-73 -133 0
-73 -138 0
-133 -138 0
39 49 74 134 139 0
-39 -49 0
-39 -74 0
-39 -134 0
-39 -139 0
-49 -74 0
-49 -134 0
-49 -139 0
-74 -134 0
-74 -139 0
-134 -139 0
40 50 75 135 140 0
-40 -50 0
-40 -75 0
-40 -135 0
-40 -140 0
-50 -75 0
-50 -135 0
-50 -140 0
-75 -135 0
-75 -140 0
-135 -140 0
36 466 486 506 511 0
-36 -466 0
-36 -486 0
-36 -506 0
-36 -511 0
-466 -486 0
-466 -506 0
-466 -511 0
-486 -506 0
-486 -511 0
-506 -511 0
37 467 487 507 512 0
-37 -467 0
-37 -487 0
-37 -507 0
-37 -512 0
-467 -487 0
-467 -507 0
-467 -512 0
-487 -507 0
-487 -512 0
-507 -512 0
38 468 488 508 513 0
-38 -468 0
-38 -488 0
-38 -508 0
-38 -513 0
-468 -488 0
-468 -508 0
-468 -513 0
-488 -508 0
-488 -513 0
-508 -513 0
39 469 489 509 514 0
-39 -469 0
-39 -489 0
-39 -509 0
-39 -514 0
-469 -489 0
-469 -509 0
-469 -514 0
-489 -509 0
-489 -514 0
-509 -514 0
40 470 490 510 515 0
-40 -470 0
-40 -490 0
-40 -510 0
-40 -515 0
-470 -490 0
-470 -510 0
-470 -515 0
-490 -510 0
-490 -515 0
-510 -515 0
41 121 156 196 201 0
-41 -121 0
-41 -156 0
-41 -196 0
-41 -201 0
-121 -156 0
-121 -196 0
-121 -201 0
-156 -196 0
-156 -201 0
-196 -201 0
42 122 157 197 202 0
-42 -122 0
-42 -157 0
-42 -197 0
-42 -202 0
-122 -157 0
-122 -197 0
-122 -202 0
-157 -197 0
-157 -202 0
-197 -202 0
43 123 158 198 203 0
-43 -123 0
-43 -158 0
-43 -198 0
-43 -203 0
-123 -158 0
-123 -198 0
-123 -203 0
-158 -198 0
-158 -203 0
-198 -203 0
44 124 159 199 204 0
-44 -124 0
-44 -159 0
-44 -199 0
-44 -204 0
-124 -159 0
-124 -199 0
-124 -204 0
-159 -199 0
-159 -204 0
-199 -204 0
45 125 160 200 205 0
-45 -125 0
-45 -160 0
-45 -200 0
-45 -205 0
-125 -160 0
-125 -200 0
-125 -205 0
-160 -200 0
-160 -205 0
-200 -205 0
41 431 501 511 521 0
-41 -431 0
-41 -501 0
-41 -511 0
-41 -521 0
-431 -501 0
-431 -511 0
-431 -521 0
-501 -511 0
-501 -521 0
-511 -521 0
42 432 502 512 522 0
-42 -432 0
-42 -502 0
-42 -512 0
-42 -522 0
-432 -502 0
-432 -512 0
-432 -522 0
-502 -512 0
-502 -522 0
-512 -522 0
43 433 503 513 523 0
-43 -433 0
-43 -503 0
-43 -513 0
-43 -523 0
-433 -503 0
-433 -513 0
-433 -523 0
-503 -513 0
-503 -523 0
-513 -523 0
44 434 504 514 524 0
-44 -434 0
-44 -504 0
-44 -514 0
-44 -524 0
-434 -504 0
-434 -514 0
-434 -524 0
-504 -514 0
-504 -524 0
-514 -524 0
45 435 505 515 525 0
-45 -435 0
-45 -505 0
-45 -515 0
-45 -525 0
-435 -505 0
-435 -515 0
-435 -525 0
-505 -515 0
-505 -525 0
-515 -525 0
46 51 56 61 66 0
-46 -51 0
-46 -56 0
-46 -61 0
-46 -66 0
-51 -56 0
-51 -61 0
-51 -66 0
-56 -61 0
-56 -66 0
-61 -66 0
47 52 57 62 67 0
-47 -52 0
-47 -57 0
-47 -62 0
-47 -67 0
-52 -57 0
-52 -62 0
-52 -67 0
-57 -62 0
-57 -67 0
-62 -67 0
48 53 58 63 68 0
-48 -53 0
-48 -58 0
-48 -63 0
-48 -68 0
-53 -58 0
-53 -63 0
-53 -68 0
-58 -63 0
-58 -68 0
-63 -68 0
49 54 59 64 69 0
-49 -54 0
-49 -59 0
-49 -64 0
-49 -69 0
-54 -59 0
-54 -64 0
-54 -69 0
-59 -64 0
-59 -69 0
-64 -69 0
50 55 60 65 70 0
-50 -55 0
-50 -60 0
-50 -65 0
-50 -70 0
-55 -60 0
-55 -65 0
-55 -70 0
-60 -65 0
-60 -70 0
-65 -70 0
46 246 671 676 681 0
-46 -246 0
-46 -671 0
-46 -676 0
-46 -681 0
-246 -671 0
-246 -676 0
-246 -681 0
-671 -676 0
-671 -681 0
-676 -681 0
47 247 672 677 682 0
-47 -247 0
-47 -672 0
-47 -677 0
-47 -682 0
-247 -672 0
-247 -677 0
-247 -682 0
-672 -677 0
-672 -682 0
-677 -682 0
48 248 673 678 683 0
-48 -248 0
-48 -673 0
-48 -678 0
-48 -683 0
-248 -673 0
-248 -678 0
-248 -683 0
-673 -678 0
-673 -683 0
-678 -683 0
49 249 674 679 684 0
-49 -249 0
-49 -674 0
-49 -679 0
-49 -684 0
-249 -674 0
-249 -679 0
-249 -684 0
-674 -679 0
-674 -684 0
-679 -684 0
50 250 675 680 685 0
-50 -250 0
-50 -675 0
-50 -680 0
-50 -685 0
-250 -675 0
-250 -680 0
-250 -685 0
-675 -680 0
-675 -685 0
-680 -685 0
51 96 131 141 146 0
-51 -96 0
-51 -131 0
-51 -141 0
-51 -146 0
-96 -131 0
-96 -141 0
-96 -146 0
-131 -141 0
-131 -146 0
-141 -146 0
52 97 132 142 147 0
-52 -97 0
-52 -132 0
-52 -142 0
-52 -147 0
-97 -132 0
-97 -142 0
-97 -147 0
-132 -142 0
-132 -147 0
-142 -147 0
53 98 133 143 148 0
-53 -98 0
-53 -133 0
-53 -143 0
-53 -148 0
-98 -133 0
-98 -143 0
-98 -148 0
-133 -143 0
-133 -148 0
-143 -148 0
54 99 134 144 149 0
-54 -99 0
-54 -134 0
-54 -144 0
-54 -149 0
-99 -134 0
-99 -144 0
-99 -149 0
-134 -144 0
-134 -149 0
-144 -149 0
55 100 135 145 150 0
-55 -100 0
-55 -135 0
-55 -145 0
-55 -150 0
-100 -135 0
-100 -145 0
-100 -150 0
-135 -145 0
-135 -150 0
-145 -150 0
51 606 651 686 691 0
-51 -606 0
-51 -651 0
-51 -686 0
-51 -691 0
-606 -651 0
-606 -686 0
-606 -691 0
-651 -686 0
-651 -691 0
-686 -691 0
52 607 652 687 692 0
-52 -607 0
-52 -652 0
-52 -687 0
-52 -692 0
-607 -652 0
-607 -687 0
-607 -692 0
-652 -687 0
-652 -692 0
-687 -692 0
53 608 653 688 693 0
-53 -608 0
-53 -653 0
-53 -688 0
-53 -693 0
-608 -653 0
-608 -688 0
-608 -693 0
-653 -688 0
-653 -693 0
-688 -693 0
54 609 654 689 694 0
-54 -609 0
-54 -654 0
-54 -689 0
-54 -694 0
-609 -654 0
-609 -689 0
-609 -694 0
-654 -689 0
-654 -694 0
-689 -694 0
55 610 655 690 695 0
-55 -610 0
-55 -655 0
-55 -690 0
-55 -695 0
-610 -655 0
-610 -690 0
-610 -695 0
-655 -690 0
-655 -695 0
-690 -695 0
56 616 716 731 741 0
-56 -616 0
-56 -716 0
-56 -731 0
-56 -741 0
-616 -716 0
-616 -731 0
-616 -741 0
-716 -731 0
-716 -741 0
-731 -741 0
57 617 717 732 742 0
-57 -617 0
-57 -717 0
-57 -732 0
-57 -742 0
-617 -717 0
-617 -732 0
-617 -742 0
-717 -732 0
-717 -742 0
-732 -742 0
58 618 718 733 743 0
-58 -618 0
-58 -718 0
-58 -733 0
-58 -743 0
-618 -718 0
-618 -733 0
-618 -743 0
-718 -733 0
-718 -743 0
-733 -743 0
59 619 719 734 744 0
-59 -619 0
-59 -719 0
-59 -734 0
-59 -744 0
-619 -719 0
-619 -734 0
-619 -744 0
-719 -734 0
-719 -744 0
-734 -744 0
60 620 720 735 745 0
-60 -620 0
-60 -720 0
-60 -735 0
-60 -745 0
-620 -720 0
-620 -735 0
-620 -745 0
-720 -735 0
-720 -745 0
-735 -745 0
61 91 186 211 216 0
-61 -91 0
-61 -186 0
-61 -211 0
-61 -216 0
-91 -186 0
-91 -211 0
-91 -216 0
-186 -211 0
-186 -216 0
-211 -216 0
62 92 187 212 217 0
-62 -92 0
-62 -187 0
-62 -212 0
-62 -217 0
-92 -187 0
-92 -212 0
-92 -217 0
-187 -212 0
-187 -217 0
-212 -217 0
63 93 188 213 218 0
-63 -93 0
-63 -188 0
-63 -213 0
-63 -218 0
-93 -188 0
-93 -213 0
-93 -218 0
-188 -213 0
-188 -218 0
-213 -218 0
64 94 189 214 219 0
-64 -94 0
-64 -189 0
-64 -214 0
-64 -219 0
-94 -189 0
-94 -214 0
-94 -219 0
-189 -214 0
-189 -219 0
-214 -219 0
65 95 190 215 220 0
-65 -95 0
-65 -190 0
-65 -215 0
-65 -220 0
-95 -190 0
-95 -215 0
-95 -220 0
-190 -215 0
-190 -220 0
-215 -220 0
61 681 691 741 751 0
-61 -681 0
-61 -691 0
-61 -741 0
-61 -751 0
-681 -691 0
-681 -741 0
-681 -751 0
-691 -741 0
-691 -751 0
-741 -751 0
62 682 692 742 752 0
-62 -682 0
-62 -692 0
-62 -742 0
-62 -752 0
-682 -692 0
-682 -742 0
-682 -752 0
-692 -742 0
-692 -752 0
-742 -752 0
63 683 693 743 753 0
-63 -683 0
-63 -693 0
-63 -743 0
-63 -753 0
-683 -693 0
-683 -743 0
-683 -753 0
-693 -743 0
-693 -753 0
-743 -753 0
64 684 694 744 754 0
-64 -684 0
-64 -694 0
-64 -744 0
-64 -754 0
-684 -694 0
-684 -744 0
-684 -754 0
-694 -744 0
-694 -754 0
-744 -754 0
65 685 695 745 755 0
-65 -685 0
-65 -695 0
-65 -745 0
-65 -755 0
-685 -695 0
-685 -745 0
-685 -755 0
-695 -745 0
-695 -755 0
-745 -755 0
66 111 126 176 221 0
-66 -111 0
-66 -126 0
-66 -176 0
-66 -221 0
-111 -126 0
-111 -176 0
-111 -221 0
-126 -176 0
-126 -221 0
-176 -221 0
67 112 127 177 222 0
-67 -112 0
-67 -127 0
-67 -177 0
-67 -222 0
-112 -127 0
-112 -177 0
-112 -222 0
-127 -177 0
-127 -222 0
-177 -222 0
68 113 128 178 223 0
-68 -113 0
-68 -128 0
-68 -178 0
-68 -223 0
-113 -128 0
-113 -178 0
-113 -223 0
-128 -178 0
-128 -223 0
-178 -223 0
69 114 129 179 224 0
-69 -114 0
-69 -129 0
-69 -179 0
-69 -224 0
-114 -129 0
-114 -179 0
-114 -224 0
-129 -179 0
-129 -224 0
-179 -224 0
70 115 130 180 225 0
-70 -115 0
-70 -130 0
-70 -180 0
-70 -225 0
-115 -130 0
-115 -180 0
-115 -225 0
-130 -180 0
-130 -225 0
-180 -225 0
66 261 441 711 726 0
-66 -261 0
-66 -441 0
-66 -711 0
-66 -726 0
-261 -441 0
-261 -711 0
-261 -726 0
-441 -711 0
-441 -726 0
-711 -726 0
67 262 442 712 727 0
-67 -262 0
-67 -442 0
-67 -712 0
-67 -727 0
-262 -442 0
-262 -712 0
-262 -727 0
-442 -712 0
-442 -727 0
-712 -727 0
68 263 443 713 728 0
-68 -263 0
-68 -443 0
-68 -713 0
-68 -728 0
-263 -443 0
-263 -713 0
-263 -728 0
-443 -713 0
-443 -728 0
-713 -728 0
69 264 444 714 729 0
-69 -264 0
-69 -444 0
-69 -714 0
-69 -729 0
-264 -444 0
-264 -714 0
-264 -729 0
-444 -714 0
-444 -729 0
-714 -729 0
70 265 445 715 730 0
-70 -265 0
-70 -445 0
-70 -715 0
-70 -730 0
-265 -445 0
-265 -715 0
-265 -730 0
-445 -715 0
-445 -730 0
-715 -730 0
71 76 81 86 91 0
-71 -76 0
-71 -81 0
-71 -86 0
-71 -91 0
-76 -81 0
-76 -86 0
-76 -91 0
-81 -86 0
-81 -91 0
-86 -91 0
72 77 82 87 92 0
-72 -77 0
-72 -82 0
-72 -87 0
-72 -92 0
-77 -82 0
-77 -87 0
-77 -92 0
-82 -87 0
-82 -92 0
-87 -92 0
73 78 83 88 93 0
-73 -78 0
-73 -83 0
-73 -88 0
-73 -93 0
-78 -83 0
-78 -88 0
-78 -93 0
-83 -88 0
-83 -93 0
-88 -93 0
74 79 84 89 94 0
-74 -79 0
-74 -84 0
-74 -89 0
-74 -94 0
-79 -84 0
-79 -89 0
-79 -94 0
-84 -89 0
-84 -94 0
-89 -94 0
75 80 85 90 95 0
-75 -80 0
-75 -85 0
-75 -90 0
-75 -95 0
-80 -85 0
-80 -90 0
-80 -95 0
-85 -90 0
-85 -95 0
-90 -95 0
71 781 801 806 811 0
-71 -781 0
-71 -801 0
-71 -806 0
-71 -811 0
-781 -801 0
-781 -806 0
-781 -811 0
-801 -806 0
-801 -811 0
-806 -811 0
72 782 802 807 812 0
-72 -782 0
-72 -802 0
-72 -807 0
-72 -812 0
-782 -802 0
-782 -807 0
-782 -812 0
-802 -807 0
-802 -812 0
-807 -812 0
73 783 803 808 813 0
-73 -783 0
-73 -803 0
-73 -808 0
-73 -813 0
-783 -803 0
-783 -808 0
-783 -813 0
-803 -808 0
-803 -813 0
-808 -813 0
74 784 804 809 814 0
-74 -784 0
-74 -804 0
-74 -809 0
-74 -814 0
-784 -804 0
-784 -809 0
-784 -814 0
-804 -809 0
-804 -814 0
-809 -814 0
75 785 805 810 815 0
-75 -785 0
-75 -805 0
-75 -810 0
-75 -815 0
-785 -805 0
-785 -810 0
-785 -815 0
-805 -810 0
-805 -815 0
-810 -815 0
76 446 766 831 836 0
-76 -446 0
-76 -766 0
-76 -831 0
-76 -836 0
-446 -766 0
-446 -831 0
-446 -836 0
-766 -831 0
-766 -836 0
-831 -836 0
77 447 767 832 837 0
-77 -447 0
-77 -767 0
-77 -832 0
-77 -837 0
-447 -767 0
-447 -832 0
-447 -837 0
-767 -832 0
-767 -837 0
-832 -837 0
78 448 768 833 838 0
-78 -448 0
-78 -768 0
-78 -833 0
-78 -838 0
-448 -768 0
-448 -833 0
-448 -838 0
-768 -833 0
-768 -838 0
-833 -838 0
79 449 769 834 839 0
-79 -449 0
-79 -769 0
-79 -834 0
-79 -839 0
-449 -769 0
-449 -834 0
-449 -839 0
-769 -834 0
-769 -839 0
-834 -839 0
80 450 770 835 840 0
-80 -450 0
-80 -770 0
-80 -835 0
-80 -840 0
-450 -770 0
-450 -835 0
-450 -840 0
-770 -835 0
-770 -840 0
-835 -840 0
81 116 141 181 186 0
-81 -116 0
-81 -141 0
-81 -181 0
-81 -186 0
-116 -141 0
-116 -181 0
-116 -186 0
-141 -181 0
-141 -186 0
-181 -186 0
82 117 142 182 187 0
-82 -117 0
-82 -142 0
-82 -182 0
-82 -187 0
-117 -142 0
-117 -182 0
-117 -187 0
-142 -182 0
-142 -187 0
-182 -187 0
83 118 143 183 188 0
-83 -118 0
-83 -143 0
-83 -183 0
-83 -188 0
-118 -143 0
-118 -183 0
-118 -188 0
-143 -183 0
-143 -188 0
-183 -188 0
84 119 144 184 189 0
-84 -119 0
-84 -144 0
-84 -184 0
-84 -189 0
-119 -144 0
-119 -184 0
-119 -189 0
-144 -184 0
-144 -189 0
-184 -189 0
85 120 145 185 190 0
-85 -120 0
-85 -145 0
-85 -185 0
-85 -190 0
-120 -145 0
-120 -185 0
-120 -190 0
-145 -185 0
-145 -190 0
-185 -190 0
81 611 801 841 851 0
-81 -611 0
-81 -801 0
-81 -841 0
-81 -851 0
-611 -801 0
-611 -841 0
-611 -851 0
-801 -841 0
-801 -851 0
-841 -851 0
82 612 802 842 852 0
-82 -612 0
-82 -802 0
-82 -842 0
-82 -852 0
-612 -802 0
-612 -842 0
-612 -852 0
-802 -842 0
-802 -852 0
-842 -852 0
83 613 803 843 853 0
-83 -613 0
-83 -803 0
-83 -843 0
-83 -853 0
-613 -803 0
-613 -843 0
-613 -853 0
-803 -843 0
-803 -853 0
-843 -853 0
84 614 804 844 854 0
-84 -614 0
-84 -804 0
-84 -844 0
-84 -854 0
-614 -804 0
-614 -844 0
-614 -854 0
-804 -844 0
-804 -854 0
-844 -854 0
85 615 805 845 855 0
-85 -615 0
-85 -805 0
-85 -845 0
-85 -855 0
-615 -805 0
-615 -845 0
-615 -855 0
-805 -845 0
-805 -855 0
-845 -855 0
86 171 181 191 211 0
-86 -171 0
-86 -181 0
-86 -191 0
-86 -211 0
-171 -181 0
-171 -191 0
-171 -211 0
-181 -191 0
-181 -211 0
-191 -211 0
87 172 182 192 212 0
-87 -172 0
-87 -182 0
-87 -192 0
-87 -212 0
-172 -182 0
-172 -192 0
-172 -212 0
-182 -192 0
-182 -212 0
-192 -212 0
88 173 183 193 213 0
-88 -173 0
-88 -183 0
-88 -193 0
-88 -213 0
-173 -183 0
-173 -193 0
-173 -213 0
-183 -193 0
-183 -213 0
-193 -213 0
89 174 184 194 214 0
-89 -174 0
-89 -184 0
-89 -194 0
-89 -214 0
-174 -184 0
-174 -194 0
-174 -214 0
-184 -194 0
-184 -214 0
-194 -214 0
90 175 185 195 215 0
-90 -175 0
-90 -185 0
-90 -195 0
-90 -215 0
-175 -185 0
-175 -195 0
-175 -215 0
-185 -195 0
-185 -215 0
-195 -215 0
86 621 821 856 876 0
-86 -621 0
-86 -821 0
-86 -856 0
-86 -876 0
-621 -821 0
-621 -856 0
-621 -876 0
-821 -856 0
-821 -876 0
-856 -876 0
87 622 822 857 877 0
-87 -622 0
-87 -822 0
-87 -857 0
-87 -877 0
-622 -822 0
-622 -857 0
-622 -877 0
-822 -857 0
-822 -877 0
-857 -877 0
88 623 823 858 878 0
-88 -623 0
-88 -823 0
-88 -858 0
-88 -878 0
-623 -823 0
-623 -858 0
-623 -878 0
-823 -858 0
-823 -878 0
-858 -878 0
89 624 824 859 879 0
-89 -624 0
-89 -824 0
-89 -859 0
-89 -879 0
-624 -824 0
-624 -859 0
-624 -879 0
-824 -859 0
-824 -879 0
-859 -879 0
90 625 825 860 880 0
-90 -625 0
-90 -825 0
-90 -860 0
-90 -880 0
-625 -825 0
-625 -860 0
-625 -880 0
-825 -860 0
-825 -880 0
-860 -880 0
91 811 826 851 871 0
-91 -811 0
-91 -826 0
-91 -851 0
-91 -871 0
-811 -826 0
-811 -851 0
-811 -871 0
-826 -851 0
-826 -871 0
-851 -871 0
92 812 827 852 872 0
-92 -812 0
-92 -827 0
-92 -852 0
-92 -872 0
-812 -827 0
-812 -852 0
-812 -872 0
-827 -852 0
-827 -872 0
-852 -872 0
93 813 828 853 873 0
-93 -813 0
-93 -828 0
-93 -853 0
-93 -873 0
-813 -828 0
-813 -853 0
-813 -873 0
-828 -853 0
-828 -873 0
-853 -873 0
94 814 829 854 874 0
-94 -814 0
-94 -829 0
-94 -854 0
-94 -874 0
-814 -829 0
-814 -854 0
-814 -874 0
-829 -854 0
-829 -874 0
-854 -874 0
95 815 830 855 875 0
-95 -815 0
-95 -830 0
-95 -855 0
-95 -875 0
-815 -830 0
-815 -855 0
-815 -875 0
-830 -855 0
-830 -875 0
-855 -875 0
96 916 921 926 931 0
-96 -916 0
-96 -921 0
-96 -926 0
-96 -931 0
-916 -921 0
-916 -926 0
-916 -931 0
-921 -926 0
-921 -931 0
-926 -931 0
97 917 922 927 932 0
-97 -917 0
-97 -922 0
-97 -927 0
-97 -932 0
-917 -922 0
-917 -927 0
-917 -932 0
-922 -927 0
-922 -932 0
-927 -932 0
98 918 923 928 933 0
-98 -918 0
-98 -923 0
-98 -928 0
-98 -933 0
-918 -923 0
-918 -928 0
-918 -933 0
-923 -928 0
-923 -933 0
-928 -933 0
99 919 924 929 934 0
-99 -919 0
-99 -924 0
-99 -929 0
-99 -934 0
-919 -924 0
-919 -929 0
-919 -934 0
-924 -929 0
-924 -934 0
-929 -934 0
100 920 925 930 935 0
-100 -920 0
-100 -925 0
-100 -930 0
-100 -935 0
-920 -925 0
-920 -930 0
-920 -935 0
-925 -930 0
-925 -935 0
-930 -935 0
101 161 166 196 206 0
-101 -161 0
-101 -166 0
-101 -196 0
-101 -206 0
-161 -166 0
-161 -196 0
-161 -206 0
-166 -196 0
-166 -206 0
-196 -206 0
102 162 167 197 207 0
-102 -162 0
-102 -167 0
-102 -197 0
-102 -207 0
-162 -167 0
-162 -197 0
-162 -207 0
-167 -197 0
-167 -207 0
-197 -207 0
103 163 168 198 208 0
-103 -163 0
-103 -168 0
-103 -198 0
-103 -208 0
-163 -168 0
-163 -198 0
-163 -208 0
-168 -198 0
-168 -208 0
-198 -208 0
104 164 169 199 209 0
-104 -164 0
-104 -169 0
-104 -199 0
-104 -209 0
-164 -169 0
-164 -199 0
-164 -209 0
-169 -199 0
-169 -209 0
-199 -209 0
105 165 170 200 210 0
-105 -165 0
-105 -170 0
-105 -200 0
-105 -210 0
-165 -170 0
-165 -200 0
-165 -210 0
-170 -200 0
-170 -210 0
-200 -210 0
101 481 926 986 991 0
-101 -481 0
-101 -926 0
-101 -986 0
-101 -991 0
-481 -926 0
-481 -986 0
-481 -991 0
-926 -986 0
-926 -991 0
-986 -991 0
102 482 927 987 992 0
-102 -482 0
-102 -927 0
-102 -987 0
-102 -992 0
-482 -927 0
-482 -987 0
-482 -992 0
-927 -987 0
-927 -992 0
-987 -992 0
103 483 928 988 993 0
-103 -483 0
-103 -928 0
-103 -988 0
-103 -993 0
-483 -928 0
-483 -988 0
-483 -993 0
-928 -988 0
-928 -993 0
-988 -993 0
104 484 929 989 994 0
-104 -484 0
-104 -929 0
-104 -989 0
-104 -994 0
-484 -929 0
-484 -989 0
-484 -994 0
-929 -989 0
-929 -994 0
-989 -994 0
105 485 930 990 995 0
-105 -485 0
-105 -930 0
-105 -990 0
-105 -995 0
-485 -930 0
-485 -990 0
-485 -995 0
-930 -990 0
-930 -995 0
-990 -995 0
106 201 206 216 221 0
-106 -201 0
-106 -206 0
-106 -216 0
-106 -221 0
-201 -206 0
-201 -216 0
-201 -221 0
-206 -216 0
-206 -221 0
-216 -221 0
107 202 207 217 222 0
-107 -202 0
-107 -207 0
-107 -217 0
-107 -222 0
-202 -207 0
-202 -217 0
-202 -222 0
-207 -217 0
-207 -222 0
-217 -222 0
108 203 208 218 223 0
-108 -203 0
-108 -208 0
-108 -218 0
-108 -223 0
-203 -208 0
-203 -218 0
-203 -223 0
-208 -218 0
-208 -223 0
-218 -223 0
109 204 209 219 224 0
-109 -204 0
-109 -209 0
-109 -219 0
-109 -224 0
-204 -209 0
-204 -219 0
-204 -224 0
-209 -219 0
-209 -224 0
-219 -224 0
110 205 210 220 225 0
-110 -205 0
-110 -210 0
-110 -220 0
-110 -225 0
-205 -210 0
-205 -220 0
-205 -225 0
-210 -220 0
-210 -225 0
-220 -225 0
106 911 946 956 971 0
-106 -911 0
-106 -946 0
-106 -956 0
-106 -971 0
-911 -946 0
-911 -956 0
-911 -971 0
-946 -956 0
-946 -971 0
-956 -971 0
107 912 947 957 972 0
-107 -912 0
-107 -947 0
-107 -957 0
-107 -972 0
-912 -947 0
-912 -957 0
-912 -972 0
-947 -957 0
-947 -972 0
-957 -972 0
108 913 948 958 973 0
-108 -913 0
-108 -948 0
-108 -958 0
-108 -973 0
-913 -948 0
-913 -958 0
-913 -973 0
-948 -958 0
-948 -973 0
-958 -973 0
109 914 949 959 974 0
-109 -914 0
-109 -949 0
-109 -959 0
-109 -974 0
-914 -949 0
-914 -959 0
-914 -974 0
-949 -959 0
-949 -974 0
-959 -974 0
110 915 950 960 975 0
-110 -915 0
-110 -950 0
-110 -960 0
-110 -975 0
-915 -950 0
-915 -960 0
-915 -975 0
-950 -960 0
-950 -975 0
-960 -975 0
111 776 931 961 996 0
-111 -776 0
-111 -931 0
-111 -961 0
-111 -996 0
-776 -931 0
-776 -961 0
-776 -996 0
-931 -961 0
-931 -996 0
-961 -996 0
112 777 932 962 997 0
-112 -777 0
-112 -932 0
-112 -962 0
-112 -997 0
-777 -932 0
-777 -962 0
-777 -997 0
-932 -962 0
-932 -997 0
-962 -997 0
113 778 933 963 998 0
-113 -778 0
-113 -933 0
-113 -963 0
-113 -998 0
-778 -933 0
-778 -963 0
-778 -998 0
-933 -963 0
-933 -998 0
-963 -998 0
114 779 934 964 999 0
-114 -779 0
-114 -934 0
-114 -964 0
-114 -999 0
-779 -934 0
-779 -964 0
-779 -999 0
-934 -964 0
-934 -999 0
-964 -999 0
115 780 935 965 1000 0
-115 -780 0
-115 -935 0
-115 -965 0
-115 -1000 0
-780 -935 0
-780 -965 0
-780 -1000 0
-935 -965 0
-935 -1000 0
-965 -1000 0
116 491 1026 1056 1061 0
-116 -491 0
-116 -1026 0
-116 -1056 0
-116 -1061 0
-491 -1026 0
-491 -1056 0
-491 -1061 0
-1026 -1056 0
-1026 -1061 0
-1056 -1061 0
117 492 1027 1057 1062 0
-117 -492 0
-117 -1027 0
-117 -1057 0
-117 -1062 0
-492 -1027 0
-492 -1057 0
-492 -1062 0
-1027 -1057 0
-1027 -1062 0
-1057 -1062 0
118 493 1028 1058 1063 0
-118 -493 0
-118 -1028 0
-118 -1058 0
-118 -1063 0
-493 -1028 0
-493 -1058 0
-493 -1063 0
-1028 -1058 0
-1028 -1063 0
-1058 -1063 0
119 494 1029 1059 1064 0
-119 -494 0
-119 -1029 0
-119 -1059 0
-119 -1064 0
-494 -1029 0
-494 -1059 0
-494 -1064 0
-1029 -1059 0
-1029 -1064 0
-1059 -1064 0
120 495 1030 1060 1065 0
-120 -495 0
-120 -1030 0
-120 -1060 0
-120 -1065 0
-495 -1030 0
-495 -1060 0
-495 -1065 0
-1030 -1060 0
-1030 -1065 0
-1060 -1065 0
121 501 661 791 1066 0
-121 -501 0
-121 -661 0
-121 -791 0
-121 -1066 0
-501 -661 0
-501 -791 0
-501 -1066 0
-661 -791 0
-661 -1066 0
-791 -1066 0
122 502 662 792 1067 0
-122 -502 0
-122 -662 0
-122 -792 0
-122 -1067 0
-502 -662 0
-502 -792 0
-502 -1067 0
-662 -792 0
-662 -1067 0
-792 -1067 0
123 503 663 793 1068 0
-123 -503 0
-123 -663 0
-123 -793 0
-123 -1068 0
-503 -663 0
-503 -793 0
-503 -1068 0
-663 -793 0
-663 -1068 0
-793 -1068 0
124 504 664 794 1069 0
-124 -504 0
-124 -664 0
-124 -794 0
-124 -1069 0
-504 -664 0
-504 -794 0
-504 -1069 0
-664 -794 0
-664 -1069 0
-794 -1069 0
125 505 665 795 1070 0
-125 -505 0
-125 -665 0
-125 -795 0
-125 -1070 0
-505 -665 0
-505 -795 0
-505 -1070 0
-665 -795 0
-665 -1070 0
-795 -1070 0
126 1006 1021 1061 1091 0
-126 -1006 0
-126 -1021 0
-126 -1061 0
-126 -1091 0
-1006 -1021 0
-1006 -1061 0
-1006 -1091 0
-1021 -1061 0
-1021 -1091 0
-1061 -1091 0
127 1007 1022 1062 1092 0
-127 -1007 0
-127 -1022 0
-127 -1062 0
-127 -1092 0
-1007 -1022 0
-1007 -1062 0
-1007 -1092 0
-1022 -1062 0
-1022 -1092 0
-1062 -1092 0
128 1008 1023 1063 1093 0
-128 -1008 0
-128 -1023 0
-128 -1063 0
-128 -1093 0
-1008 -1023 0
-1008 -1063 0
-1008 -1093 0
-1023 -1063 0
-1023 -1093 0
-1063 -1093 0
129 1009 1024 1064 1094 0
-129 -1009 0
-129 -1024 0
-129 -1064 0
-129 -1094 0
-1009 -1024 0
-1009 -1064 0
-1009 -1094 0
-1024 -1064 0
-1024 -1094 0
-1064 -1094 0
130 1010 1025 1065 1095 0
-130 -1010 0
-130 -1025 0
-130 -1065 0
-130 -1095 0
-1010 -1025 0
-1010 -1065 0
-1010 -1095 0
-1025 -1065 0
-1025 -1095 0
-1065 -1095 0
131 1096 1101 1106 1111 0
-131 -1096 0
-131 -1101 0
-131 -1106 0
-131 -1111 0
-1096 -1101 0
-1096 -1106 0
-1096 -1111 0
-1101 -1106 0
-1101 -1111 0
-1106 -1111 0
132 1097 1102 1107 1112 0
-132 -1097 0
-132 -1102 0
-132 -1107 0
-132 -1112 0
-1097 -1102 0
-1097 -1107 0
-1097 -1112 0
-1102 -1107 0
-1102 -1112 0
-1107 -1112 0
133 1098 1103 1108 1113 0
-133 -1098 0
-133 -1103 0
-133 -1108 0
-133 -1113 0
-1098 -1103 0
-1098 -1108 0
-1098 -1113 0
-1103 -1108 0
-1103 -1113 0
-1108 -1113 0
134 1099 1104 1109 1114 0
-134 -1099 0
-134 -1104 0
-134 -1109 0
-134 -1114 0
-1099 -1104 0
-1099 -1109 0
-1099 -1114 0
-1104 -1109 0
-1104 -1114 0
-1109 -1114 0
135 1100 1105 1110 1115 0
-135 -1100 0
-135 -1105 0
-135 -1110 0
-135 -1115 0
-1100 -1105 0
-1100 -1110 0
-1100 -1115 0
-1105 -1110 0
-1105 -1115 0
-1110 -1115 0
136 806 1106 1151 1156 0
-136 -806 0
-136 -1106 0
-136 -1151 0
-136 -1156 0
-806 -1106 0
-806 -1151 0
-806 -1156 0
-1106 -1151 0
-1106 -1156 0
-1151 -1156 0
137 807 1107 1152 1157 0
-137 -807 0
-137 -1107 0
-137 -1152 0
-137 -1157 0
-807 -1107 0
-807 -1152 0
-807 -1157 0
-1107 -1152 0
-1107 -1157 0
-1152 -1157 0
138 808 1108 1153 1158 0
-138 -808 0
-138 -1108 0
-138 -1153 0
-138 -1158 0
-808 -1108 0
-808 -1153 0
-808 -1158 0
-1108 -1153 0
-1108 -1158 0
-1153 -1158 0
139 809 1109 1154 1159 0
-139 -809 0
-139 -1109 0
-139 -1154 0
-139 -1159 0
-809 -1109 0
-809 -1154 0
-809 -1159 0
-1109 -1154 0
-1109 -1159 0
-1154 -1159 0
140 810 1110 1155 1160 0
-140 -810 0
-140 -1110 0
-140 -1155 0
-140 -1160 0
-810 -1110 0
-810 -1155 0
-810 -1160 0
-1110 -1155 0
-1110 -1160 0
-1155 -1160 0
141 1101 1211 1216 1221 0
-141 -1101 0
-141 -1211 0
-141 -1216 0
-141 -1221 0
-1101 -1211 0
-1101 -1216 0
-1101 -1221 0
-1211 -1216 0
-1211 -1221 0
-1216 -1221 0
142 1102 1212 1217 1222 0
-142 -1102 0
-142 -1212 0
-142 -1217 0
-142 -1222 0
-1102 -1212 0
-1102 -1217 0
-1102 -1222 0
-1212 -1217 0
-1212 -1222 0
-1217 -1222 0
143 1103 1213 1218 1223 0
-143 -1103 0
-143 -1213 0
-143 -1218 0
-143 -1223 0
-1103 -1213 0
-1103 -1218 0
-1103 -1223 0
-1213 -1218 0
-1213 -1223 0
-1218 -1223 0
144 1104 1214 1219 1224 0
-144 -1104 0
-144 -1214 0
-144 -1219 0
-144 -1224 0
-1104 -1214 0
-1104 -1219 0
-1104 -1224 0
-1214 -1219 0
-1214 -1224 0
-1219 -1224 0
145 1105 1215 1220 1225 0
-145 -1105 0
-145 -1215 0
-145 -1220 0
-145 -1225 0
-1105 -1215 0
-1105 -1220 0
-1105 -1225 0
-1215 -1220 0
-1215 -1225 0
-1220 -1225 0
146 816 1106 1211 1226 0
-146 -816 0
-146 -1106 0
-146 -1211 0
-146 -1226 0
-816 -1106 0
-816 -1211 0
-816 -1226 0
-1106 -1211 0
-1106 -1226 0
-1211 -1226 0
147 817 1107 1212 1227 0
-147 -817 0
-147 -1107 0
-147 -1212 0
-147 -1227 0
-817 -1107 0
-817 -1212 0
-817 -1227 0
-1107 -1212 0
-1107 -1227 0
-1212 -1227 0
148 818 1108 1213 1228 0
-148 -818 0
-148 -1108 0
-148 -1213 0
-148 -1228 0
-818 -1108 0
-818 -1213 0
-818 -1228 0
-1108 -1213 0
-1108 -1228 0
-1213 -1228 0
149 819 1109 1214 1229 0
-149 -819 0
-149 -1109 0
-149 -1214 0
-149 -1229 0
-819 -1109 0
-819 -1214 0
-819 -1229 0
-1109 -1214 0
-1109 -1229 0
-1214 -1229 0
150 820 1110 1215 1230 0
-150 -820 0
-150 -1110 0
-150 -1215 0
-150 -1230 0
-820 -1110 0
-820 -1215 0
-820 -1230 0
-1110 -1215 0
-1110 -1230 0
-1215 -1230 0
151 536 1116 1191 1256 0
-151 -536 0
-151 -1116 0
-151 -1191 0
-151 -1256 0
-536 -1116 0
-536 -1191 0
-536 -1256 0
-1116 -1191 0
-1116 -1256 0
-1191 -1256 0
152 537 1117 1192 1257 0
-152 -537 0
-152 -1117 0
-152 -1192 0
-152 -1257 0
-537 -1117 0
-537 -1192 0
-537 -1257 0
-1117 -1192 0
-1117 -1257 0
-1192 -1257 0
153 538 1118 1193 1258 0
-153 -538 0
-153 -1118 0
-153 -1193 0
-153 -1258 0
-538 -1118 0
-538 -1193 0
-538 -1258 0
-1118 -1193 0
-1118 -1258 0
-1193 -1258 0
154 539 1119 1194 1259 0
-154 -539 0
-154 -1119 0
-154 -1194 0
-154 -1259 0
-539 -1119 0
-539 -1194 0
-539 -1259 0
-1119 -1194 0
-1119 -1259 0
-1194 -1259 0
155 540 1120 1195 1260 0
-155 -540 0
-155 -1120 0
-155 -1195 0
-155 -1260 0
-540 -1120 0
-540 -1195 0
-540 -1260 0
-1120 -1195 0
-1120 -1260 0
-1195 -1260 0
156 361 1126 1261 1266 0
-156 -361 0
-156 -1126 0
-156 -1261 0
-156 -1266 0
-361 -1126 0
-361 -1261 0
-361 -1266 0
-1126 -1261 0
-1126 -1266 0
-1261 -1266 0
157 362 1127 1262 1267 0
-157 -362 0
-157 -1127 0
-157 -1262 0
-157 -1267 0
-362 -1127 0
-362 -1262 0
-362 -1267 0
-1127 -1262 0
-1127 -1267 0
-1262 -1267 0
158 363 1128 1263 1268 0
-158 -363 0
-158 -1128 0
-158 -1263 0
-158 -1268 0
-363 -1128 0
-363 -1263 0
-363 -1268 0
-1128 -1263 0
-1128 -1268 0
-1263 -1268 0
159 364 1129 1264 1269 0
-159 -364 0
-159 -1129 0
-159 -1264 0
-159 -1269 0
-364 -1129 0
-364 -1264 0
-364 -1269 0
-1129 -1264 0
-1129 -1269 0
-1264 -1269 0
160 365 1130 1265 1270 0
-160 -365 0
-160 -1130 0
-160 -1265 0
-160 -1270 0
-365 -1130 0
-365 -1265 0
-365 -1270 0
-1130 -1265 0
-1130 -1270 0
-1265 -1270 0
161 696 1131 1271 1281 0
-161 -696 0
-161 -1131 0
-161 -1271 0
-161 -1281 0
-696 -1131 0
-696 -1271 0
-696 -1281 0
-1131 -1271 0
-1131 -1281 0
-1271 -1281 0
162 697 1132 1272 1282 0
-162 -697 0
-162 -1132 0
-162 -1272 0
-162 -1282 0
-697 -1132 0
-697 -1272 0
-697 -1282 0
-1132 -1272 0
-1132 -1282 0
-1272 -1282 0
163 698 1133 1273 1283 0
-163 -698 0
-163 -1133 0
-163 -1273 0
-163 -1283 0
-698 -1133 0
-698 -1273 0
-698 -1283 0
-1133 -1273 0
-1133 -1283 0
-1273 -1283 0
164 699 1134 1274 1284 0
-164 -699 0
-164 -1134 0
-164 -1274 0
-164 -1284 0
-699 -1134 0
-699 -1274 0
-699 -1284 0
-1134 -1274 0
-1134 -1284 0
-1274 -1284 0
165 700 1135 1275 1285 0
-165 -700 0
-165 -1135 0
-165 -1275 0
-165 -1285 0
-700 -1135 0
-700 -1275 0
-700 -1285 0
-1135 -1275 0
-1135 -1285 0
-1275 -1285 0
166 1136 1201 1301 1331 0
-166 -1136 0
-166 -1201 0
-166 -1301 0
-166 -1331 0
-1136 -1201 0
-1136 -1301 0
-1136 -1331 0
-1201 -1301 0
-1201 -1331 0
-1301 -1331 0
167 1137 1202 1302 1332 0
-167 -1137 0
-167 -1202 0
-167 -1302 0
-167 -1332 0
-1137 -1202 0
-1137 -1302 0
-1137 -1332 0
-1202 -1302 0
-1202 -1332 0
-1302 -1332 0
168 1138 1203 1303 1333 0
-168 -1138 0
-168 -1203 0
-168 -1303 0
-168 -1333 0
-1138 -1203 0
-1138 -1303 0
-1138 -1333 0
-1203 -1303 0
-1203 -1333 0
-1303 -1333 0
169 1139 1204 1304 1334 0
-169 -1139 0
-169 -1204 0
-169 -1304 0
-169 -1334 0
-1139 -1204 0
-1139 -1304 0
-1139 -1334 0
-1204 -1304 0
-1204 -1334 0
-1304 -1334 0
170 1140 1205 1305 1335 0
-170 -1140 0
-170 -1205 0
-170 -1305 0
-170 -1335 0
-1140 -1205 0
-1140 -1305 0
-1140 -1335 0
-1205 -1305 0
-1205 -1335 0
-1305 -1335 0
171 376 1046 1316 1336 0
-171 -376 0
-171 -1046 0
-171 -1316 0
-171 -1336 0
-376 -1046 0
-376 -1316 0
-376 -1336 0
-1046 -1316 0
-1046 -1336 0
-1316 -1336 0
172 377 1047 1317 1337 0
-172 -377 0
-172 -1047 0
-172 -1317 0
-172 -1337 0
-377 -1047 0
-377 -1317 0
-377 -1337 0
-1047 -1317 0
-1047 -1337 0
-1317 -1337 0
173 378 1048 1318 1338 0
-173 -378 0
-173 -1048 0
-173 -1318 0
-173 -1338 0
-378 -1048 0
-378 -1318 0
-378 -1338 0
-1048 -1318 0
-1048 -1338 0
-1318 -1338 0
174 379 1049 1319 1339 0
-174 -379 0
-174 -1049 0
-174 -1319 0
-174 -1339 0
-379 -1049 0
-379 -1319 0
-379 -1339 0
-1049 -1319 0
-1049 -1339 0
-1319 -1339 0
175 380 1050 1320 1340 0
-175 -380 0
-175 -1050 0
-175 -1320 0
-175 -1340 0
-380 -1050 0
-380 -1320 0
-380 -1340 0
-1050 -1320 0
-1050 -1340 0
-1320 -1340 0
176 726 1311 1326 1336 0
-176 -726 0
-176 -1311 0
-176 -1326 0
-176 -1336 0
-726 -1311 0
-726 -1326 0
-726 -1336 0
-1311 -1326 0
-1311 -1336 0
-1326 -1336 0
177 727 1312 1327 1337 0
-177 -727 0
-177 -1312 0
-177 -1327 0
-177 -1337 0
-727 -1312 0
-727 -1327 0
-727 -1337 0
-1312 -1327 0
-1312 -1337 0
-1327 -1337 0
178 728 1313 1328 1338 0
-178 -728 0
-178 -1313 0
-178 -1328 0
-178 -1338 0
-728 -1313 0
-728 -1328 0
-728 -1338 0
-1313 -1328 0
-1313 -1338 0
-1328 -1338 0
179 729 1314 1329 1339 0
-179 -729 0
-179 -1314 0
-179 -1329 0
-179 -1339 0
-729 -1314 0
-729 -1329 0
-729 -1339 0
-1314 -1329 0
-1314 -1339 0
-1329 -1339 0
180 730 1315 1330 1340 0
-180 -730 0
-180 -1315 0
-180 -1330 0
-180 -1340 0
-730 -1315 0
-730 -1330 0
-730 -1340 0
-1315 -1330 0
-1315 -1340 0
-1330 -1340 0
181 736 1146 1346 1366 0
-181 -736 0
-181 -1146 0
-181 -1346 0
-181 -1366 0
-736 -1146 0
-736 -1346 0
-736 -1366 0
-1146 -1346 0
-1146 -1366 0
-1346 -1366 0
182 737 1147 1347 1367 0
-182 -737 0
-182 -1147 0
-182 -1347 0
-182 -1367 0
-737 -1147 0
-737 -1347 0
-737 -1367 0
-1147 -1347 0
-1147 -1367 0
-1347 -1367 0
183 738 1148 1348 1368 0
-183 -738 0
-183 -1148 0
-183 -1348 0
-183 -1368 0
-738 -1148 0
-738 -1348 0
-738 -1368 0
-1148 -1348 0
-1148 -1368 0
-1348 -1368 0
184 739 1149 1349 1369 0
-184 -739 0
-184 -1149 0
-184 -1349 0
-184 -1369 0
-739 -1149 0
-739 -1349 0
-739 -1369 0
-1149 -1349 0
-1149 -1369 0
-1349 -1369 0
185 740 1150 1350 1370 0
-185 -740 0
-185 -1150 0
-185 -1350 0
-185 -1370 0
-740 -1150 0
-740 -1350 0
-740 -1370 0
-1150 -1350 0
-1150 -1370 0
-1350 -1370 0
186 561 851 1221 1351 0
-186 -561 0
-186 -851 0
-186 -1221 0
-186 -1351 0
-561 -851 0
-561 -1221 0
-561 -1351 0
-851 -1221 0
-851 -1351 0
-1221 -1351 0
187 562 852 1222 1352 0
-187 -562 0
-187 -852 0
-187 -1222 0
-187 -1352 0
-562 -852 0
-562 -1222 0
-562 -1352 0
-852 -1222 0
-852 -1352 0
-1222 -1352 0
188 563 853 1223 1353 0
-188 -563 0
-188 -853 0
-188 -1223 0
-188 -1353 0
-563 -853 0
-563 -1223 0
-563 -1353 0
-853 -1223 0
-853 -1353 0
-1223 -1353 0
189 564 854 1224 1354 0
-189 -564 0
-189 -854 0
-189 -1224 0
-189 -1354 0
-564 -854 0
-564 -1224 0
-564 -1354 0
-854 -1224 0
-854 -1354 0
-1224 -1354 0
190 565 855 1225 1355 0
-190 -565 0
-190 -855 0
-190 -1225 0
-190 -1355 0
-565 -855 0
-565 -1225 0
-565 -1355 0
-855 -1225 0
-855 -1355 0
-1225 -1355 0
191 571 856 1346 1396 0
-191 -571 0
-191 -856 0
-191 -1346 0
-191 -1396 0
-571 -856 0
-571 -1346 0
-571 -1396 0
-856 -1346 0
-856 -1396 0
-1346 -1396 0
192 572 857 1347 1397 0
-192 -572 0
-192 -857 0
-192 -1347 0
-192 -1397 0
-572 -857 0
-572 -1347 0
-572 -1397 0
-857 -1347 0
-857 -1397 0
-1347 -1397 0
193 573 858 1348 1398 0
-193 -573 0
-193 -858 0
-193 -1348 0
-193 -1398 0
-573 -858 0
-573 -1348 0
-573 -1398 0
-858 -1348 0
-858 -1398 0
-1348 -1398 0
194 574 859 1349 1399 0
-194 -574 0
-194 -859 0
-194 -1349 0
-194 -1399 0
-574 -859 0
-574 -1349 0
-574 -1399 0
-859 -1349 0
-859 -1399 0
-1349 -1399 0
195 575 860 1350 1400 0
-195 -575 0
-195 -860 0
-195 -1350 0
-195 -1400 0
-575 -860 0
-575 -1350 0
-575 -1400 0
-860 -1350 0
-860 -1400 0
-1350 -1400 0
196 866 1361 1406 1411 0
-196 -866 0
-196 -1361 0
-196 -1406 0
-196 -1411 0
-866 -1361 0
-866 -1406 0
-866 -1411 0
-1361 -1406 0
-1361 -1411 0
-1406 -1411 0
197 867 1362 1407 1412 0
-197 -867 0
-197 -1362 0
-197 -1407 0
-197 -1412 0
-867 -1362 0
-867 -1407 0
-867 -1412 0
-1362 -1407 0
-1362 -1412 0
-1407 -1412 0
198 868 1363 1408 1413 0
-198 -868 0
-198 -1363 0
-198 -1408 0
-198 -1413 0
-868 -1363 0
-868 -1408 0
-868 -1413 0
-1363 -1408 0
-1363 -1413 0
-1408 -1413 0
199 869 1364 1409 1414 0
-199 -869 0
-199 -1364 0
-199 -1409 0
-199 -1414 0
-869 -1364 0
-869 -1409 0
-869 -1414 0
-1364 -1409 0
-1364 -1414 0
-1409 -1414 0
200 870 1365 1410 1415 0
-200 -870 0
-200 -1365 0
-200 -1410 0
-200 -1415 0
-870 -1365 0
-870 -1410 0
-870 -1415 0
-1365 -1410 0
-1365 -1415 0
-1410 -1415 0
201 746 1161 1231 1371 0
-201 -746 0
-201 -1161 0
-201 -1231 0
-201 -1371 0
-746 -1161 0
-746 -1231 0
-746 -1371 0
-1161 -1231 0
-1161 -1371 0
-1231 -1371 0
202 747 1162 1232 1372 0
-202 -747 0
-202 -1162 0
-202 -1232 0
-202 -1372 0
-747 -1162 0
-747 -1232 0
-747 -1372 0
-1162 -1232 0
-1162 -1372 0
-1232 -1372 0
203 748 1163 1233 1373 0
-203 -748 0
-203 -1163 0
-203 -1233 0
-203 -1373 0
-748 -1163 0
-748 -1233 0
-748 -1373 0
-1163 -1233 0
-1163 -1373 0
-1233 -1373 0
204 749 1164 1234 1374 0
-204 -749 0
-204 -1164 0
-204 -1234 0
-204 -1374 0
-749 -1164 0
-749 -1234 0
-749 -1374 0
-1164 -1234 0
-1164 -1374 0
-1234 -1374 0
205 750 1165 1235 1375 0
-205 -750 0
-205 -1165 0
-205 -1235 0
-205 -1375 0
-750 -1165 0
-750 -1235 0
-750 -1375 0
-1165 -1235 0
-1165 -1375 0
-1235 -1375 0
206 756 1241 1331 1386 0
-206 -756 0
-206 -1241 0
-206 -1331 0
-206 -1386 0
-756 -1241 0
-756 -1331 0
-756 -1386 0
-1241 -1331 0
-1241 -1386 0
-1331 -1386 0
207 757 1242 1332 1387 0
-207 -757 0
-207 -1242 0
-207 -1332 0
-207 -1387 0
-757 -1242 0
-757 -1332 0
-757 -1387 0
-1242 -1332 0
-1242 -1387 0
-1332 -1387 0
208 758 1243 1333 1388 0
-208 -758 0
-208 -1243 0
-208 -1333 0
-208 -1388 0
-758 -1243 0
-758 -1333 0
-758 -1388 0
-1243 -1333 0
-1243 -1388 0
-1333 -1388 0
209 759 1244 1334 1389 0
-209 -759 0
-209 -1244 0
-209 -1334 0
-209 -1389 0
-759 -1244 0
-759 -1334 0
-759 -1389 0
-1244 -1334 0
-1244 -1389 0
-1334 -1389 0
210 760 1245 1335 1390 0
-210 -760 0
-210 -1245 0
-210 -1335 0
-210 -1390 0
-760 -1245 0
-760 -1335 0
-760 -1390 0
-1245 -1335 0
-1245 -1390 0
-1335 -1390 0
211 1081 1176 1246 1396 0
-211 -1081 0
-211 -1176 0
-211 -1246 0
-211 -1396 0
-1081 -1176 0
-1081 -1246 0
-1081 -1396 0
-1176 -1246 0
-1176 -1396 0
-1246 -1396 0
212 1082 1177 1247 1397 0
-212 -1082 0
-212 -1177 0
-212 -1247 0
-212 -1397 0
-1082 -1177 0
-1082 -1247 0
-1082 -1397 0
-1177 -1247 0
-1177 -1397 0
-1247 -1397 0
213 1083 1178 1248 1398 0
-213 -1083 0
-213 -1178 0
-213 -1248 0
-213 -1398 0
-1083 -1178 0
-1083 -1248 0
-1083 -1398 0
-1178 -1248 0
-1178 -1398 0
-1248 -1398 0
214 1084 1179 1249 1399 0
-214 -1084 0
-214 -1179 0
-214 -1249 0
-214 -1399 0
-1084 -1179 0
-1084 -1249 0
-1084 -1399 0
-1179 -1249 0
-1179 -1399 0
-1249 -1399 0
215 1085 1180 1250 1400 0
-215 -1085 0
-215 -1180 0
-215 -1250 0
-215 -1400 0
-1085 -1180 0
-1085 -1250 0
-1085 -1400 0
-1180 -1250 0
-1180 -1400 0
-1250 -1400 0
216 416 1086 1291 1341 0
-216 -416 0
-216 -1086 0
-216 -1291 0
-216 -1341 0
-416 -1086 0
-416 -1291 0
-416 -1341 0
-1086 -1291 0
-1086 -1341 0
-1291 -1341 0
217 417 1087 1292 1342 0
-217 -417 0
-217 -1087 0
-217 -1292 0
-217 -1342 0
-417 -1087 0
-417 -1292 0
-417 -1342 0
-1087 -1292 0
-1087 -1342 0
-1292 -1342 0
218 418 1088 1293 1343 0
-218 -418 0
-218 -1088 0
-218 -1293 0
-218 -1343 0
-418 -1088 0
-418 -1293 0
-418 -1343 0
-1088 -1293 0
-1088 -1343 0
-1293 -1343 0
219 419 1089 1294 1344 0
-219 -419 0
-219 -1089 0
-219 -1294 0
-219 -1344 0
-419 -1089 0
-419 -1294 0
-419 -1344 0
-1089 -1294 0
-1089 -1344 0
-1294 -1344 0
220 420 1090 1295 1345 0
-220 -420 0
-220 -1090 0
-220 -1295 0
-220 -1345 0
-420 -1090 0
-420 -1295 0
-420 -1345 0
-1090 -1295 0
-1090 -1345 0
-1295 -1345 0
221 886 1091 1401 1421 0
-221 -886 0
-221 -1091 0
-221 -1401 0
-221 -1421 0
-886 -1091 0
-886 -1401 0
-886 -1421 0
-1091 -1401 0
-1091 -1421 0
-1401 -1421 0
222 887 1092 1402 1422 0
-222 -887 0
-222 -1092 0
-222 -1402 0
-222 -1422 0
-887 -1092 0
-887 -1402 0
-887 -1422 0
-1092 -1402 0
-1092 -1422 0
-1402 -1422 0
223 888 1093 1403 1423 0
-223 -888 0
-223 -1093 0
-223 -1403 0
-223 -1423 0
-888 -1093 0
-888 -1403 0
-888 -1423 0
-1093 -1403 0
-1093 -1423 0
-1403 -1423 0
224 889 1094 1404 1424 0
-224 -889 0
-224 -1094 0
-224 -1404 0
-224 -1424 0
-889 -1094 0
-889 -1404 0
-889 -1424 0
-1094 -1404 0
-1094 -1424 0
-1404 -1424 0
225 890 1095 1405 1425 0
-225 -890 0
-225 -1095 0
-225 -1405 0
-225 -1425 0
-890 -1095 0
-890 -1405 0
-890 -1425 0
-1095 -1405 0
-1095 -1425 0
-1405 -1425 0
226 246 251 256 261 0
-226 -246 0
-226 -251 0
-226 -256 0
-226 -261 0
-246 -251 0
-246 -256 0
-246 -261 0
-251 -256 0
-251 -261 0
-256 -261 0
227 247 252 257 262 0
-227 -247 0
-227 -252 0
-227 -257 0
-227 -262 0
-247 -252 0
-247 -257 0
-247 -262 0
-252 -257 0
-252 -262 0
-257 -262 0
228 248 253 258 263 0
-228 -248 0
-228 -253 0
-228 -258 0
-228 -263 0
-248 -253 0
-248 -258 0
-248 -263 0
-253 -258 0
-253 -263 0
-258 -263 0
229 249 254 259 264 0
-229 -249 0
-229 -254 0
-229 -259 0
-229 -264 0
-249 -254 0
-249 -259 0
-249 -264 0
-254 -259 0
-254 -264 0
-259 -264 0
230 250 255 260 265 0
-230 -250 0
-230 -255 0
-230 -260 0
-230 -265 0
-250 -255 0
-250 -260 0
-250 -265 0
-255 -260 0
-255 -265 0
-260 -265 0
226 426 431 436 441 0
-226 -426 0
-226 -431 0
-226 -436 0
-226 -441 0
-426 -431 0
-426 -436 0
-426 -441 0
-431 -436 0
-431 -441 0
-436 -441 0
227 427 432 437 442 0
-227 -427 0
-227 -432 0
-227 -437 0
-227 -442 0
-427 -432 0
-427 -437 0
-427 -442 0
-432 -437 0
-432 -442 0
-437 -442 0
228 428 433 438 443 0
-228 -428 0
-228 -433 0
-228 -438 0
-228 -443 0
-428 -433 0
-428 -438 0
-428 -443 0
-433 -438 0
-433 -443 0
-438 -443 0
229 429 434 439 444 0
-229 -429 0
-229 -434 0
-229 -439 0
-229 -444 0
-429 -434 0
-429 -439 0
-429 -444 0
-434 -439 0
-434 -444 0
-439 -444 0
230 430 435 440 445 0
-230 -430 0
-230 -435 0
-230 -440 0
-230 -445 0
-430 -435 0
-430 -440 0
-430 -445 0
-435 -440 0
-435 -445 0
-440 -445 0
231 271 311 346 351 0
-231 -271 0
-231 -311 0
-231 -346 0
-231 -351 0
-271 -311 0
-271 -346 0
-271 -351 0
-311 -346 0
-311 -351 0
-346 -351 0
232 272 312 347 352 0
-232 -272 0
-232 -312 0
-232 -347 0
-232 -352 0
-272 -312 0
-272 -347 0
-272 -352 0
-312 -347 0
-312 -352 0
-347 -352 0
233 273 313 348 353 0
-233 -273 0
-233 -313 0
-233 -348 0
-233 -353 0
-273 -313 0
-273 -348 0
-273 -353 0
-313 -348 0
-313 -353 0
-348 -353 0
234 274 314 349 354 0
-234 -274 0
-234 -314 0
-234 -349 0
-234 -354 0
-274 -314 0
-274 -349 0
-274 -354 0
-314 -349 0
-314 -354 0
-349 -354 0
235 275 315 350 355 0
-235 -275 0
-235 -315 0
-235 -350 0
-235 -355 0
-275 -315 0
-275 -350 0
-275 -355 0
-315 -350 0
-315 -355 0
-350 -355 0
231 516 521 526 531 0
-231 -516 0
-231 -521 0
-231 -526 0
-231 -531 0
-516 -521 0
-516 -526 0
-516 -531 0
-521 -526 0
-521 -531 0
-526 -531 0
232 517 522 527 532 0
-232 -517 0
-232 -522 0
-232 -527 0
-232 -532 0
-517 -522 0
-517 -527 0
-517 -532 0
-522 -527 0
-522 -532 0
-527 -532 0
233 518 523 528 533 0
-233 -518 0
-233 -523 0
-233 -528 0
-233 -533 0
-518 -523 0
-518 -528 0
-518 -533 0
-523 -528 0
-523 -533 0
-528 -533 0
234 519 524 529 534 0
-234 -519 0
-234 -524 0
-234 -529 0
-234 -534 0
-519 -524 0
-519 -529 0
-519 -534 0
-524 -529 0
-524 -534 0
-529 -534 0
235 520 525 530 535 0
-235 -520 0
-235 -525 0
-235 -530 0
-235 -535 0
-520 -525 0
-520 -530 0
-520 -535 0
-525 -530 0
-525 -535 0
-530 -535 0
236 306 381 416 421 0
-236 -306 0
-236 -381 0
-236 -416 0
-236 -421 0
-306 -381 0
-306 -416 0
-306 -421 0
-381 -416 0
-381 -421 0
-416 -421 0
237 307 382 417 422 0
-237 -307 0
-237 -382 0
-237 -417 0
-237 -422 0
-307 -382 0
-307 -417 0
-307 -422 0
-382 -417 0
-382 -422 0
-417 -422 0
238 308 383 418 423 0
-238 -308 0
-238 -383 0
-238 -418 0
-238 -423 0
-308 -383 0
-308 -418 0
-308 -423 0
-383 -418 0
-383 -423 0
-418 -423 0
239 309 384 419 424 0
-239 -309 0
-239 -384 0
-239 -419 0
-239 -424 0
-309 -384 0
-309 -419 0
-309 -424 0
-384 -419 0
-384 -424 0
-419 -424 0
240 310 385 420 425 0
-240 -310 0
-240 -385 0
-240 -420 0
-240 -425 0
-310 -385 0
-310 -420 0
-310 -425 0
-385 -420 0
-385 -425 0
-420 -425 0
236 546 561 586 601 0
-236 -546 0
-236 -561 0
-236 -586 0
-236 -601 0
-546 -561 0
-546 -586 0
-546 -601 0
-561 -586 0
-561 -601 0
-586 -601 0
237 547 562 587 602 0
-237 -547 0
-237 -562 0
-237 -587 0
-237 -602 0
-547 -562 0
-547 -587 0
-547 -602 0
-562 -587 0
-562 -602 0
-587 -602 0
238 548 563 588 603 0
-238 -548 0
-238 -563 0
-238 -588 0
-238 -603 0
-548 -563 0
-548 -588 0
-548 -603 0
-563 -588 0
-563 -603 0
-588 -603 0
239 549 564 589 604 0
-239 -549 0
-239 -564 0
-239 -589 0
-239 -604 0
-549 -564 0
-549 -589 0
-549 -604 0
-564 -589 0
-564 -604 0
-589 -604 0
240 550 565 590 605 0
-240 -550 0
-240 -565 0
-240 -590 0
-240 -605 0
-550 -565 0
-550 -590 0
-550 -605 0
-565 -590 0
-565 -605 0
-590 -605 0
241 261 286 341 421 0
-241 -261 0
-241 -286 0
-241 -341 0
-241 -421 0
-261 -286 0
-261 -341 0
-261 -421 0
-286 -341 0
-286 -421 0
-341 -421 0
242 262 287 342 422 0
-242 -262 0
-242 -287 0
-242 -342 0
-242 -422 0
-262 -287 0
-262 -342 0
-262 -422 0
-287 -342 0
-287 -422 0
-342 -422 0
243 263 288 343 423 0
-243 -263 0
-243 -288 0
-243 -343 0
-243 -423 0
-263 -288 0
-263 -343 0
-263 -423 0
-288 -343 0
-288 -423 0
-343 -423 0
244 264 289 344 424 0
-244 -264 0
-244 -289 0
-244 -344 0
-244 -424 0
-264 -289 0
-264 -344 0
-264 -424 0
-289 -344 0
-289 -424 0
-344 -424 0
245 265 290 345 425 0
-245 -265 0
-245 -290 0
-245 -345 0
-245 -425 0
-265 -290 0
-265 -345 0
-265 -425 0
-290 -345 0
-290 -425 0
-345 -425 0
241 441 531 596 601 0
-241 -441 0
-241 -531 0
-241 -596 0
-241 -601 0
-441 -531 0
-441 -596 0
-441 -601 0
-531 -596 0
-531 -601 0
-596 -601 0
242 442 532 597 602 0
-242 -442 0
-242 -532 0
-242 -597 0
-242 -602 0
-442 -532 0
-442 -597 0
-442 -602 0
-532 -597 0
-532 -602 0
-597 -602 0
243 443 533 598 603 0
-243 -443 0
-243 -533 0
-243 -598 0
-243 -603 0
-443 -533 0
-443 -598 0
-443 -603 0
-533 -598 0
-533 -603 0
-598 -603 0
244 444 534 599 604 0
-244 -444 0
-244 -534 0
-244 -599 0
-244 -604 0
-444 -534 0
-444 -599 0
-444 -604 0
-534 -599 0
-534 -604 0
-599 -604 0
245 445 535 600 605 0
-245 -445 0
-245 -535 0
-245 -600 0
-245 -605 0
-445 -535 0
-445 -600 0
-445 -605 0
-535 -600 0
-535 -605 0
-600 -605 0
246 291 331 336 341 0
-246 -291 0
-246 -331 0
-246 -336 0
-246 -341 0
-291 -331 0
-291 -336 0
-291 -341 0
-331 -336 0
-331 -341 0
-336 -341 0
247 292 332 337 342 0
-247 -292 0
-247 -332 0
-247 -337 0
-247 -342 0
-292 -332 0
-292 -337 0
-292 -342 0
-332 -337 0
-332 -342 0
-337 -342 0
248 293 333 338 343 0
-248 -293 0
-248 -333 0
-248 -338 0
-248 -343 0
-293 -333 0
-293 -338 0
-293 -343 0
-333 -338 0
-333 -343 0
-338 -343 0
249 294 334 339 344 0
-249 -294 0
-249 -334 0
-249 -339 0
-249 -344 0
-294 -334 0
-294 -339 0
-294 -344 0
-334 -339 0
-334 -344 0
-339 -344 0
250 295 335 340 345 0
-250 -295 0
-250 -335 0
-250 -340 0
-250 -345 0
-295 -335 0
-295 -340 0
-295 -345 0
-335 -340 0
-335 -345 0
-340 -345 0
251 276 361 396 406 0
-251 -276 0
-251 -361 0
-251 -396 0
-251 -406 0
-276 -361 0
-276 -396 0
-276 -406 0
-361 -396 0
-361 -406 0
-396 -406 0
252 277 362 397 407 0
-252 -277 0
-252 -362 0
-252 -397 0
-252 -407 0
-277 -362 0
-277 -397 0
-277 -407 0
-362 -397 0
-362 -407 0
-397 -407 0
253 278 363 398 408 0
-253 -278 0
-253 -363 0
-253 -398 0
-253 -408 0
-278 -363 0
-278 -398 0
-278 -408 0
-363 -398 0
-363 -408 0
-398 -408 0
254 279 364 399 409 0
-254 -279 0
-254 -364 0
-254 -399 0
-254 -409 0
-279 -364 0
-279 -399 0
-279 -409 0
-364 -399 0
-364 -409 0
-399 -409 0
255 280 365 400 410 0
-255 -280 0
-255 -365 0
-255 -400 0
-255 -410 0
-280 -365 0
-280 -400 0
-280 -410 0
-365 -400 0
-365 -410 0
-400 -410 0
251 431 646 661 746 0
-251 -431 0
-251 -646 0
-251 -661 0
-251 -746 0
-431 -646 0
-431 -661 0
-431 -746 0
-646 -661 0
-646 -746 0
-661 -746 0
252 432 647 662 747 0
-252 -432 0
-252 -647 0
-252 -662 0
-252 -747 0
-432 -647 0
-432 -662 0
-432 -747 0
-647 -662 0
-647 -747 0
-662 -747 0
253 433 648 663 748 0
-253 -433 0
-253 -648 0
-253 -663 0
-253 -748 0
-433 -648 0
-433 -663 0
-433 -748 0
-648 -663 0
-648 -748 0
-663 -748 0
254 434 649 664 749 0
-254 -434 0
-254 -649 0
-254 -664 0
-254 -749 0
-434 -649 0
-434 -664 0
-434 -749 0
-649 -664 0
-649 -749 0
-664 -749 0
255 435 650 665 750 0
-255 -435 0
-255 -650 0
-255 -665 0
-255 -750 0
-435 -650 0
-435 -665 0
-435 -750 0
-650 -665 0
-650 -750 0
-665 -750 0
256 351 391 411 416 0
-256 -351 0
-256 -391 0
-256 -411 0
-256 -416 0
-351 -391 0
-351 -411 0
-351 -416 0
-391 -411 0
-391 -416 0
-411 -416 0
257 352 392 412 417 0
-257 -352 0
-257 -392 0
-257 -412 0
-257 -417 0
-352 -392 0
-352 -412 0
-352 -417 0
-392 -412 0
-392 -417 0
-412 -417 0
258 353 393 413 418 0
-258 -353 0
-258 -393 0
-258 -413 0
-258 -418 0
-353 -393 0
-353 -413 0
-353 -418 0
-393 -413 0
-393 -418 0
-413 -418 0
259 354 394 414 419 0
-259 -354 0
-259 -394 0
-259 -414 0
-259 -419 0
-354 -394 0
-354 -414 0
-354 -419 0
-394 -414 0
-394 -419 0
-414 -419 0
260 355 395 415 420 0
-260 -355 0
-260 -395 0
-260 -415 0
-260 -420 0
-355 -395 0
-355 -415 0
-355 -420 0
-395 -415 0
-395 -420 0
-415 -420 0
256 706 721 746 756 0
-256 -706 0
-256 -721 0
-256 -746 0
-256 -756 0
-706 -721 0
-706 -746 0
-706 -756 0
-721 -746 0
-721 -756 0
-746 -756 0
257 707 722 747 757 0
-257 -707 0
-257 -722 0
-257 -747 0
-257 -757 0
-707 -722 0
-707 -747 0
-707 -757 0
-722 -747 0
-722 -757 0
-747 -757 0
258 708 723 748 758 0
-258 -708 0
-258 -723 0
-258 -748 0
-258 -758 0
-708 -723 0
-708 -748 0
-708 -758 0
-723 -748 0
-723 -758 0
-748 -758 0
259 709 724 749 759 0
-259 -709 0
-259 -724 0
-259 -749 0
-259 -759 0
-709 -724 0
-709 -749 0
-709 -759 0
-724 -749 0
-724 -759 0
-749 -759 0
260 710 725 750 760 0
-260 -710 0
-260 -725 0
-260 -750 0
-260 -760 0
-710 -725 0
-710 -750 0
-710 -760 0
-725 -750 0
-725 -760 0
-750 -760 0
266 271 276 281 286 0
-266 -271 0
-266 -276 0
-266 -281 0
-266 -286 0
-271 -276 0
-271 -281 0
-271 -286 0
-276 -281 0
-276 -286 0
-281 -286 0
267 272 277 282 287 0
-267 -272 0
-267 -277 0
-267 -282 0
-267 -287 0
-272 -277 0
-272 -282 0
-272 -287 0
-277 -282 0
-277 -287 0
-282 -287 0
268 273 278 283 288 0
-268 -273 0
-268 -278 0
-268 -283 0
-268 -288 0
-273 -278 0
-273 -283 0
-273 -288 0
-278 -283 0
-278 -288 0
-283 -288 0
269 274 279 284 289 0
-269 -274 0
-269 -279 0
-269 -284 0
-269 -289 0
-274 -279 0
-274 -284 0
-274 -289 0
-279 -284 0
-279 -289 0
-284 -289 0
270 275 280 285 290 0
-270 -275 0
-270 -280 0
-270 -285 0
-270 -290 0
-275 -280 0
-275 -285 0
-275 -290 0
-280 -285 0
-280 -290 0
-285 -290 0
266 291 296 301 306 0
-266 -291 0
-266 -296 0
-266 -301 0
-266 -306 0
-291 -296 0
-291 -301 0
-291 -306 0
-296 -301 0
-296 -306 0
-301 -306 0
267 292 297 302 307 0
-267 -292 0
-267 -297 0
-267 -302 0
-267 -307 0
-292 -297 0
-292 -302 0
-292 -307 0
-297 -302 0
-297 -307 0
-302 -307 0
268 293 298 303 308 0
-268 -293 0
-268 -298 0
-268 -303 0
-268 -308 0
-293 -298 0
-293 -303 0
-293 -308 0
-298 -303 0
-298 -308 0
-303 -308 0
269 294 299 304 309 0
-269 -294 0
-269 -299 0
-269 -304 0
-269 -309 0
-294 -299 0
-294 -304 0
-294 -309 0
-299 -304 0
-299 -309 0
-304 -309 0
270 295 300 305 310 0
-270 -295 0
-270 -300 0
-270 -305 0
-270 -310 0
-295 -300 0
-295 -305 0
-295 -310 0
-300 -305 0
-300 -310 0
-305 -310 0
266 761 766 771 776 0
-266 -761 0
-266 -766 0
-266 -771 0
-266 -776 0
-761 -766 0
-761 -771 0
-761 -776 0
-766 -771 0
-766 -776 0
-771 -776 0
267 762 767 772 777 0
-267 -762 0
-267 -767 0
-267 -772 0
-267 -777 0
-762 -767 0
-762 -772 0
-762 -777 0
-767 -772 0
-767 -777 0
-772 -777 0
268 763 768 773 778 0
-268 -763 0
-268 -768 0
-268 -773 0
-268 -778 0
-763 -768 0
-763 -773 0
-763 -778 0
-768 -773 0
-768 -778 0
-773 -778 0
269 764 769 774 779 0
-269 -764 0
-269 -769 0
-269 -774 0
-269 -779 0
-764 -769 0
-764 -774 0
-764 -779 0
-769 -774 0
-769 -779 0
-774 -779 0
270 765 770 775 780 0
-270 -765 0
-270 -770 0
-270 -775 0
-270 -780 0
-765 -770 0
-765 -775 0
-765 -780 0
-770 -775 0
-770 -780 0
-775 -780 0
271 606 816 821 826 0
-271 -606 0
-271 -816 0
-271 -821 0
-271 -826 0
-606 -816 0
-606 -821 0
-606 -826 0
-816 -821 0
-816 -826 0
-821 -826 0
272 607 817 822 827 0
-272 -607 0
-272 -817 0
-272 -822 0
-272 -827 0
-607 -817 0
-607 -822 0
-607 -827 0
-817 -822 0
-817 -827 0
-822 -827 0
273 608 818 823 828 0
-273 -608 0
-273 -818 0
-273 -823 0
-273 -828 0
-608 -818 0
-608 -823 0
-608 -828 0
-818 -823 0
-818 -828 0
-823 -828 0
274 609 819 824 829 0
-274 -609 0
-274 -819 0
-274 -824 0
-274 -829 0
-609 -819 0
-609 -824 0
-609 -829 0
-819 -824 0
-819 -829 0
-824 -829 0
275 610 820 825 830 0
-275 -610 0
-275 -820 0
-275 -825 0
-275 -830 0
-610 -820 0
-610 -825 0
-610 -830 0
-820 -825 0
-820 -830 0
-825 -830 0
276 791 846 866 871 0
-276 -791 0
-276 -846 0
-276 -866 0
-276 -871 0
-791 -846 0
-791 -866 0
-791 -871 0
-846 -866 0
-846 -871 0
-866 -871 0
277 792 847 867 872 0
-277 -792 0
-277 -847 0
-277 -867 0
-277 -872 0
-792 -847 0
-792 -867 0
-792 -872 0
-847 -867 0
-847 -872 0
-867 -872 0
278 793 848 868 873 0
-278 -793 0
-278 -848 0
-278 -868 0
-278 -873 0
-793 -848 0
-793 -868 0
-793 -873 0
-848 -868 0
-848 -873 0
-868 -873 0
279 794 849 869 874 0
-279 -794 0
-279 -849 0
-279 -869 0
-279 -874 0
-794 -849 0
-794 -869 0
-794 -874 0
-849 -869 0
-849 -874 0
-869 -874 0
280 795 850 870 875 0
-280 -795 0
-280 -850 0
-280 -870 0
-280 -875 0
-795 -850 0
-795 -870 0
-795 -875 0
-850 -870 0
-850 -875 0
-870 -875 0
281 321 336 386 401 0
-281 -321 0
-281 -336 0
-281 -386 0
-281 -401 0
-321 -336 0
-321 -386 0
-321 -401 0
-336 -386 0
-336 -401 0
-386 -401 0
282 322 337 387 402 0
-282 -322 0
-282 -337 0
-282 -387 0
-282 -402 0
-322 -337 0
-322 -387 0
-322 -402 0
-337 -387 0
-337 -402 0
-387 -402 0
283 323 338 388 403 0
-283 -323 0
-283 -338 0
-283 -388 0
-283 -403 0
-323 -338 0
-323 -388 0
-323 -403 0
-338 -388 0
-338 -403 0
-388 -403 0
284 324 339 389 404 0
-284 -324 0
-284 -339 0
-284 -389 0
-284 -404 0
-324 -339 0
-324 -389 0
-324 -404 0
-339 -389 0
-339 -404 0
-389 -404 0
285 325 340 390 405 0
-285 -325 0
-285 -340 0
-285 -390 0
-285 -405 0
-325 -340 0
-325 -390 0
-325 -405 0
-340 -390 0
-340 -405 0
-390 -405 0
281 456 866 876 881 0
-281 -456 0
-281 -866 0
-281 -876 0
-281 -881 0
-456 -866 0
-456 -876 0
-456 -881 0
-866 -876 0
-866 -881 0
-876 -881 0
282 457 867 877 882 0
-282 -457 0
-282 -867 0
-282 -877 0
-282 -882 0
-457 -867 0
-457 -877 0
-457 -882 0
-867 -877 0
-867 -882 0
-877 -882 0
283 458 868 878 883 0
-283 -458 0
-283 -868 0
-283 -878 0
-283 -883 0
-458 -868 0
-458 -878 0
-458 -883 0
-868 -878 0
-868 -883 0
-878 -883 0
284 459 869 879 884 0
-284 -459 0
-284 -869 0
-284 -879 0
-284 -884 0
-459 -869 0
-459 -879 0
-459 -884 0
-869 -879 0
-869 -884 0
-879 -884 0
285 460 870 880 885 0
-285 -460 0
-285 -870 0
-285 -880 0
-285 -885 0
-460 -870 0
-460 -880 0
-460 -885 0
-870 -880 0
-870 -885 0
-880 -885 0
286 776 836 881 886 0
-286 -776 0
-286 -836 0
-286 -881 0
-286 -886 0
-776 -836 0
-776 -881 0
-776 -886 0
-836 -881 0
-836 -886 0
-881 -886 0
287 777 837 882 887 0
-287 -777 0
-287 -837 0
-287 -882 0
-287 -887 0
-777 -837 0
-777 -882 0
-777 -887 0
-837 -882 0
-837 -887 0
-882 -887 0
288 778 838 883 888 0
-288 -778 0
-288 -838 0
-288 -883 0
-288 -888 0
-778 -838 0
-778 -883 0
-778 -888 0
-838 -883 0
-838 -888 0
-883 -888 0
289 779 839 884 889 0
-289 -779 0
-289 -839 0
-289 -884 0
-289 -889 0
-779 -839 0
-779 -884 0
-779 -889 0
-839 -884 0
-839 -889 0
-884 -889 0
290 780 840 885 890 0
-290 -780 0
-290 -840 0
-290 -885 0
-290 -890 0
-780 -840 0
-780 -885 0
-780 -890 0
-840 -885 0
-840 -890 0
-885 -890 0
291 466 891 906 911 0
-291 -466 0
-291 -891 0
-291 -906 0
-291 -911 0
-466 -891 0
-466 -906 0
-466 -911 0
-891 -906 0
-891 -911 0
-906 -911 0
292 467 892 907 912 0
-292 -467 0
-292 -892 0
-292 -907 0
-292 -912 0
-467 -892 0
-467 -907 0
-467 -912 0
-892 -907 0
-892 -912 0
-907 -912 0
293 468 893 908 913 0
-293 -468 0
-293 -893 0
-293 -908 0
-293 -913 0
-468 -893 0
-468 -908 0
-468 -913 0
-893 -908 0
-893 -913 0
-908 -913 0
294 469 894 909 914 0
-294 -469 0
-294 -894 0
-294 -909 0
-294 -914 0
-469 -894 0
-469 -909 0
-469 -914 0
-894 -909 0
-894 -914 0
-909 -914 0
295 470 895 910 915 0
-295 -470 0
-295 -895 0
-295 -910 0
-295 -915 0
-470 -895 0
-470 -910 0
-470 -915 0
-895 -910 0
-895 -915 0
-910 -915 0
296 356 366 386 391 0
-296 -356 0
-296 -366 0
-296 -386 0
-296 -391 0
-356 -366 0
-356 -386 0
-356 -391 0
-366 -386 0
-366 -391 0
-386 -391 0
297 357 367 387 392 0
-297 -357 0
-297 -367 0
-297 -387 0
-297 -392 0
-357 -367 0
-357 -387 0
-357 -392 0
-367 -387 0
-367 -392 0
-387 -392 0
298 358 368 388 393 0
-298 -358 0
-298 -368 0
-298 -388 0
-298 -393 0
-358 -368 0
-358 -388 0
-358 -393 0
-368 -388 0
-368 -393 0
-388 -393 0
299 359 369 389 394 0
-299 -359 0
-299 -369 0
-299 -389 0
-299 -394 0
-359 -369 0
-359 -389 0
-359 -394 0
-369 -389 0
-369 -394 0
-389 -394 0
300 360 370 390 395 0
-300 -360 0
-300 -370 0
-300 -390 0
-300 -395 0
-360 -370 0
-360 -390 0
-360 -395 0
-370 -390 0
-370 -395 0
-390 -395 0
296 471 641 956 961 0
-296 -471 0
-296 -641 0
-296 -956 0
-296 -961 0
-471 -641 0
-471 -956 0
-471 -961 0
-641 -956 0
-641 -961 0
-956 -961 0
297 472 642 957 962 0
-297 -472 0
-297 -642 0
-297 -957 0
-297 -962 0
-472 -642 0
-472 -957 0
-472 -962 0
-642 -957 0
-642 -962 0
-957 -962 0
298 473 643 958 963 0
-298 -473 0
-298 -643 0
-298 -958 0
-298 -963 0
-473 -643 0
-473 -958 0
-473 -963 0
-643 -958 0
-643 -963 0
-958 -963 0
299 474 644 959 964 0
-299 -474 0
-299 -644 0
-299 -959 0
-299 -964 0
-474 -644 0
-474 -959 0
-474 -964 0
-644 -959 0
-644 -964 0
-959 -964 0
300 475 645 960 965 0
-300 -475 0
-300 -645 0
-300 -960 0
-300 -965 0
-475 -645 0
-475 -960 0
-475 -965 0
-645 -960 0
-645 -965 0
-960 -965 0
301 326 376 406 411 0
-301 -326 0
-301 -376 0
-301 -406 0
-301 -411 0
-326 -376 0
-326 -406 0
-326 -411 0
-376 -406 0
-376 -411 0
-406 -411 0
302 327 377 407 412 0
-302 -327 0
-302 -377 0
-302 -407 0
-302 -412 0
-327 -377 0
-327 -407 0
-327 -412 0
-377 -407 0
-377 -412 0
-407 -412 0
303 328 378 408 413 0
-303 -328 0
-303 -378 0
-303 -408 0
-303 -413 0
-328 -378 0
-328 -408 0
-328 -413 0
-378 -408 0
-378 -413 0
-408 -413 0
304 329 379 409 414 0
-304 -329 0
-304 -379 0
-304 -409 0
-304 -414 0
-329 -379 0
-329 -409 0
-329 -414 0
-379 -409 0
-379 -414 0
-409 -414 0
305 330 380 410 415 0
-305 -330 0
-305 -380 0
-305 -410 0
-305 -415 0
-330 -380 0
-330 -410 0
-330 -415 0
-380 -410 0
-380 -415 0
-410 -415 0
301 941 976 986 996 0
-301 -941 0
-301 -976 0
-301 -986 0
-301 -996 0
-941 -976 0
-941 -986 0
-941 -996 0
-976 -986 0
-976 -996 0
-986 -996 0
302 942 977 987 997 0
-302 -942 0
-302 -977 0
-302 -987 0
-302 -997 0
-942 -977 0
-942 -987 0
-942 -997 0
-977 -987 0
-977 -997 0
-987 -997 0
303 943 978 988 998 0
-303 -943 0
-303 -978 0
-303 -988 0
-303 -998 0
-943 -978 0
-943 -988 0
-943 -998 0
-978 -988 0
-978 -998 0
-988 -998 0
304 944 979 989 999 0
-304 -944 0
-304 -979 0
-304 -989 0
-304 -999 0
-944 -979 0
-944 -989 0
-944 -999 0
-979 -989 0
-979 -999 0
-989 -999 0
305 945 980 990 1000 0
-305 -945 0
-305 -980 0
-305 -990 0
-305 -1000 0
-945 -980 0
-945 -990 0
-945 -1000 0
-980 -990 0
-980 -1000 0
-990 -1000 0
306 951 966 981 991 0
-306 -951 0
-306 -966 0
-306 -981 0
-306 -991 0
-951 -966 0
-951 -981 0
-951 -991 0
-966 -981 0
-966 -991 0
-981 -991 0
307 952 967 982 992 0
-307 -952 0
-307 -967 0
-307 -982 0
-307 -992 0
-952 -967 0
-952 -982 0
-952 -992 0
-967 -982 0
-967 -992 0
-982 -992 0
308 953 968 983 993 0
-308 -953 0
-308 -968 0
-308 -983 0
-308 -993 0
-953 -968 0
-953 -983 0
-953 -993 0
-968 -983 0
-968 -993 0
-983 -993 0
309 954 969 984 994 0
-309 -954 0
-309 -969 0
-309 -984 0
-309 -994 0
-954 -969 0
-954 -984 0
-954 -994 0
-969 -984 0
-969 -994 0
-984 -994 0
310 955 970 985 995 0
-310 -955 0
-310 -970 0
-310 -985 0
-310 -995 0
-955 -970 0
-955 -985 0
-955 -995 0
-970 -985 0
-970 -995 0
-985 -995 0
311 651 1011 1016 1021 0
-311 -651 0
-311 -1011 0
-311 -1016 0
-311 -1021 0
-651 -1011 0
-651 -1016 0
-651 -1021 0
-1011 -1016 0
-1011 -1021 0
-1016 -1021 0
312 652 1012 1017 1022 0
-312 -652 0
-312 -1012 0
-312 -1017 0
-312 -1022 0
-652 -1012 0
-652 -1017 0
-652 -1022 0
-1012 -1017 0
-1012 -1022 0
-1017 -1022 0
313 653 1013 1018 1023 0
-313 -653 0
-313 -1013 0
-313 -1018 0
-313 -1023 0
-653 -1013 0
-653 -1018 0
-653 -1023 0
-1013 -1018 0
-1013 -1023 0
-1018 -1023 0
314 654 1014 1019 1024 0
-314 -654 0
-314 -1014 0
-314 -1019 0
-314 -1024 0
-654 -1014 0
-654 -1019 0
-654 -1024 0
-1014 -1019 0
-1014 -1024 0
-1019 -1024 0
315 655 1015 1020 1025 0
-315 -655 0
-315 -1015 0
-315 -1020 0
-315 -1025 0
-655 -1015 0
-655 -1020 0
-655 -1025 0
-1015 -1020 0
-1015 -1025 0
-1020 -1025 0
316 496 901 1031 1066 0
-316 -496 0
-316 -901 0
-316 -1031 0
-316 -1066 0
-496 -901 0
-496 -1031 0
-496 -1066 0
-901 -1031 0
-901 -1066 0
-1031 -1066 0
317 497 902 1032 1067 0
-317 -497 0
-317 -902 0
-317 -1032 0
-317 -1067 0
-497 -902 0
-497 -1032 0
-497 -1067 0
-902 -1032 0
-902 -1067 0
-1032 -1067 0
318 498 903 1033 1068 0
-318 -498 0
-318 -903 0
-318 -1033 0
-318 -1068 0
-498 -903 0
-498 -1033 0
-498 -1068 0
-903 -1033 0
-903 -1068 0
-1033 -1068 0
319 499 904 1034 1069 0
-319 -499 0
-319 -904 0
-319 -1034 0
-319 -1069 0
-499 -904 0
-499 -1034 0
-499 -1069 0
-904 -1034 0
-904 -1069 0
-1034 -1069 0
320 500 905 1035 1070 0
-320 -500 0
-320 -905 0
-320 -1035 0
-320 -1070 0
-500 -905 0
-500 -1035 0
-500 -1070 0
-905 -1035 0
-905 -1070 0
-1035 -1070 0
321 666 1016 1071 1076 0
-321 -666 0
-321 -1016 0
-321 -1071 0
-321 -1076 0
-666 -1016 0
-666 -1071 0
-666 -1076 0
-1016 -1071 0
-1016 -1076 0
-1071 -1076 0
322 667 1017 1072 1077 0
-322 -667 0
-322 -1017 0
-322 -1072 0
-322 -1077 0
-667 -1017 0
-667 -1072 0
-667 -1077 0
-1017 -1072 0
-1017 -1077 0
-1072 -1077 0
323 668 1018 1073 1078 0
-323 -668 0
-323 -1018 0
-323 -1073 0
-323 -1078 0
-668 -1018 0
-668 -1073 0
-668 -1078 0
-1018 -1073 0
-1018 -1078 0
-1073 -1078 0
324 669 1019 1074 1079 0
-324 -669 0
-324 -1019 0
-324 -1074 0
-324 -1079 0
-669 -1019 0
-669 -1074 0
-669 -1079 0
-1019 -1074 0
-1019 -1079 0
-1074 -1079 0
325 670 1020 1075 1080 0
-325 -670 0
-325 -1020 0
-325 -1075 0
-325 -1080 0
-670 -1020 0
-670 -1075 0
-670 -1080 0
-1020 -1075 0
-1020 -1080 0
-1075 -1080 0
326 1036 1046 1071 1081 0
-326 -1036 0
-326 -1046 0
-326 -1071 0
-326 -1081 0
-1036 -1046 0
-1036 -1071 0
-1036 -1081 0
-1046 -1071 0
-1046 -1081 0
-1071 -1081 0
327 1037 1047 1072 1082 0
-327 -1037 0
-327 -1047 0
-327 -1072 0
-327 -1082 0
-1037 -1047 0
-1037 -1072 0
-1037 -1082 0
-1047 -1072 0
-1047 -1082 0
-1072 -1082 0
328 1038 1048 1073 1083 0
-328 -1038 0
-328 -1048 0
-328 -1073 0
-328 -1083 0
-1038 -1048 0
-1038 -1073 0
-1038 -1083 0
-1048 -1073 0
-1048 -1083 0
-1073 -1083 0
329 1039 1049 1074 1084 0
-329 -1039 0
-329 -1049 0
-329 -1074 0
-329 -1084 0
-1039 -1049 0
-1039 -1074 0
-1039 -1084 0
-1049 -1074 0
-1049 -1084 0
-1074 -1084 0
330 1040 1050 1075 1085 0
-330 -1040 0
-330 -1050 0
-330 -1075 0
-330 -1085 0
-1040 -1050 0
-1040 -1075 0
-1040 -1085 0
-1050 -1075 0
-1050 -1085 0
-1075 -1085 0
331 1116 1121 1126 1131 0
-331 -1116 0
-331 -1121 0
-331 -1126 0
-331 -1131 0
-1116 -1121 0
-1116 -1126 0
-1116 -1131 0
-1121 -1126 0
-1121 -1131 0
-1126 -1131 0
332 1117 1122 1127 1132 0
-332 -1117 0
-332 -1122 0
-332 -1127 0
-332 -1132 0
-1117 -1122 0
-1117 -1127 0
-1117 -1132 0
-1122 -1127 0
-1122 -1132 0
-1127 -1132 0
333 1118 1123 1128 1133 0
-333 -1118 0
-333 -1123 0
-333 -1128 0
-333 -1133 0
-1118 -1123 0
-1118 -1128 0
-1118 -1133 0
-1123 -1128 0
-1123 -1133 0
-1128 -1133 0
334 1119 1124 1129 1134 0
-334 -1119 0
-334 -1124 0
-334 -1129 0
-334 -1134 0
-1119 -1124 0
-1119 -1129 0
-1119 -1134 0
-1124 -1129 0
-1124 -1134 0
-1129 -1134 0
335 1120 1125 1130 1135 0
-335 -1120 0
-335 -1125 0
-335 -1130 0
-335 -1135 0
-1120 -1125 0
-1120 -1130 0
-1120 -1135 0
-1125 -1130 0
-1125 -1135 0
-1130 -1135 0
336 1131 1136 1151 1171 0
-336 -1131 0
-336 -1136 0
-336 -1151 0
-336 -1171 0
-1131 -1136 0
-1131 -1151 0
-1131 -1171 0
-1136 -1151 0
-1136 -1171 0
-1151 -1171 0
337 1132 1137 1152 1172 0
-337 -1132 0
-337 -1137 0
-337 -1152 0
-337 -1172 0
-1132 -1137 0
-1132 -1152 0
-1132 -1172 0
-1137 -1152 0
-1137 -1172 0
-1152 -1172 0
338 1133 1138 1153 1173 0
-338 -1133 0
-338 -1138 0
-338 -1153 0
-338 -1173 0
-1133 -1138 0
-1133 -1153 0
-1133 -1173 0
-1138 -1153 0
-1138 -1173 0
-1153 -1173 0
339 1134 1139 1154 1174 0
-339 -1134 0
-339 -1139 0
-339 -1154 0
-339 -1174 0
-1134 -1139 0
-1134 -1154 0
-1134 -1174 0
-1139 -1154 0
-1139 -1174 0
-1154 -1174 0
340 1135 1140 1155 1175 0
-340 -1135 0
-340 -1140 0
-340 -1155 0
-340 -1175 0
-1135 -1140 0
-1135 -1155 0
-1135 -1175 0
-1140 -1155 0
-1140 -1175 0
-1155 -1175 0
341 1006 1166 1171 1186 0
-341 -1006 0
-341 -1166 0
-341 -1171 0
-341 -1186 0
-1006 -1166 0
-1006 -1171 0
-1006 -1186 0
-1166 -1171 0
-1166 -1186 0
-1171 -1186 0
342 1007 1167 1172 1187 0
-342 -1007 0
-342 -1167 0
-342 -1172 0
-342 -1187 0
-1007 -1167 0
-1007 -1172 0
-1007 -1187 0
-1167 -1172 0
-1167 -1187 0
-1172 -1187 0
343 1008 1168 1173 1188 0
-343 -1008 0
-343 -1168 0
-343 -1173 0
-343 -1188 0
-1008 -1168 0
-1008 -1173 0
-1008 -1188 0
-1168 -1173 0
-1168 -1188 0
-1173 -1188 0
344 1009 1169 1174 1189 0
-344 -1009 0
-344 -1169 0
-344 -1174 0
-344 -1189 0
-1009 -1169 0
-1009 -1174 0
-1009 -1189 0
-1169 -1174 0
-1169 -1189 0
-1174 -1189 0
345 1010 1170 1175 1190 0
-345 -1010 0
-345 -1170 0
-345 -1175 0
-345 -1190 0
-1010 -1170 0
-1010 -1175 0
-1010 -1190 0
-1170 -1175 0
-1170 -1190 0
-1175 -1190 0
346 516 1011 1191 1196 0
-346 -516 0
-346 -1011 0
-346 -1191 0
-346 -1196 0
-516 -1011 0
-516 -1191 0
-516 -1196 0
-1011 -1191 0
-1011 -1196 0
-1191 -1196 0
347 517 1012 1192 1197 0
-347 -517 0
-347 -1012 0
-347 -1192 0
-347 -1197 0
-517 -1012 0
-517 -1192 0
-517 -1197 0
-1012 -1192 0
-1012 -1197 0
-1192 -1197 0
348 518 1013 1193 1198 0
-348 -518 0
-348 -1013 0
-348 -1193 0
-348 -1198 0
-518 -1013 0
-518 -1193 0
-518 -1198 0
-1013 -1193 0
-1013 -1198 0
-1193 -1198 0
349 519 1014 1194 1199 0
-349 -519 0
-349 -1014 0
-349 -1194 0
-349 -1199 0
-519 -1014 0
-519 -1194 0
-519 -1199 0
-1014 -1194 0
-1014 -1199 0
-1194 -1199 0
350 520 1015 1195 1200 0
-350 -520 0
-350 -1015 0
-350 -1195 0
-350 -1200 0
-520 -1015 0
-520 -1195 0
-520 -1200 0
-1015 -1195 0
-1015 -1200 0
-1195 -1200 0
351 526 1206 1231 1241 0
-351 -526 0
-351 -1206 0
-351 -1231 0
-351 -1241 0
-526 -1206 0
-526 -1231 0
-526 -1241 0
-1206 -1231 0
-1206 -1241 0
-1231 -1241 0
352 527 1207 1232 1242 0
-352 -527 0
-352 -1207 0
-352 -1232 0
-352 -1242 0
-527 -1207 0
-527 -1232 0
-527 -1242 0
-1207 -1232 0
-1207 -1242 0
-1232 -1242 0
353 528 1208 1233 1243 0
-353 -528 0
-353 -1208 0
-353 -1233 0
-353 -1243 0
-528 -1208 0
-528 -1233 0
-528 -1243 0
-1208 -1233 0
-1208 -1243 0
-1233 -1243 0
354 529 1209 1234 1244 0
-354 -529 0
-354 -1209 0
-354 -1234 0
-354 -1244 0
-529 -1209 0
-529 -1234 0
-529 -1244 0
-1209 -1234 0
-1209 -1244 0
-1234 -1244 0
355 530 1210 1235 1245 0
-355 -530 0
-355 -1210 0
-355 -1235 0
-355 -1245 0
-530 -1210 0
-530 -1235 0
-530 -1245 0
-1210 -1235 0
-1210 -1245 0
-1235 -1245 0
356 1026 1121 1256 1261 0
-356 -1026 0
-356 -1121 0
-356 -1256 0
-356 -1261 0
-1026 -1121 0
-1026 -1256 0
-1026 -1261 0
-1121 -1256 0
-1121 -1261 0
-1256 -1261 0
357 1027 1122 1257 1262 0
-357 -1027 0
-357 -1122 0
-357 -1257 0
-357 -1262 0
-1027 -1122 0
-1027 -1257 0
-1027 -1262 0
-1122 -1257 0
-1122 -1262 0
-1257 -1262 0
358 1028 1123 1258 1263 0
-358 -1028 0
-358 -1123 0
-358 -1258 0
-358 -1263 0
-1028 -1123 0
-1028 -1258 0
-1028 -1263 0
-1123 -1258 0
-1123 -1263 0
-1258 -1263 0
359 1029 1124 1259 1264 0
-359 -1029 0
-359 -1124 0
-359 -1259 0
-359 -1264 0
-1029 -1124 0
-1029 -1259 0
-1029 -1264 0
-1124 -1259 0
-1124 -1264 0
-1259 -1264 0
360 1030 1125 1260 1265 0
-360 -1030 0
-360 -1125 0
-360 -1260 0
-360 -1265 0
-1030 -1125 0
-1030 -1260 0
-1030 -1265 0
-1125 -1260 0
-1125 -1265 0
-1260 -1265 0
366 551 841 1256 1301 0
-366 -551 0
-366 -841 0
-366 -1256 0
-366 -1301 0
-551 -841 0
-551 -1256 0
-551 -1301 0
-841 -1256 0
-841 -1301 0
-1256 -1301 0
367 552 842 1257 1302 0
-367 -552 0
-367 -842 0
-367 -1257 0
-367 -1302 0
-552 -842 0
-552 -1257 0
-552 -1302 0
-842 -1257 0
-842 -1302 0
-1257 -1302 0
368 553 843 1258 1303 0
-368 -553 0
-368 -843 0
-368 -1258 0
-368 -1303 0
-553 -843 0
-553 -1258 0
-553 -1303 0
-843 -1258 0
-843 -1303 0
-1258 -1303 0
369 554 844 1259 1304 0
-369 -554 0
-369 -844 0
-369 -1259 0
-369 -1304 0
-554 -844 0
-554 -1259 0
-554 -1304 0
-844 -1259 0
-844 -1304 0
-1259 -1304 0
370 555 845 1260 1305 0
-370 -555 0
-370 -845 0
-370 -1260 0
-370 -1305 0
-555 -845 0
-555 -1260 0
-555 -1305 0
-845 -1260 0
-845 -1305 0
-1260 -1305 0
371 556 716 1306 1311 0
-371 -556 0
-371 -716 0
-371 -1306 0
-371 -1311 0
-556 -716 0
-556 -1306 0
-556 -1311 0
-716 -1306 0
-716 -1311 0
-1306 -1311 0
372 557 717 1307 1312 0
-372 -557 0
-372 -717 0
-372 -1307 0
-372 -1312 0
-557 -717 0
-557 -1307 0
-557 -1312 0
-717 -1307 0
-717 -1312 0
-1307 -1312 0
373 558 718 1308 1313 0
-373 -558 0
-373 -718 0
-373 -1308 0
-373 -1313 0
-558 -718 0
-558 -1308 0
-558 -1313 0
-718 -1308 0
-718 -1313 0
-1308 -1313 0
374 559 719 1309 1314 0
-374 -559 0
-374 -719 0
-374 -1309 0
-374 -1314 0
-559 -719 0
-559 -1309 0
-559 -1314 0
-719 -1309 0
-719 -1314 0
-1309 -1314 0
375 560 720 1310 1315 0
-375 -560 0
-375 -720 0
-375 -1310 0
-375 -1315 0
-560 -720 0
-560 -1310 0
-560 -1315 0
-720 -1310 0
-720 -1315 0
-1310 -1315 0
381 951 1051 1321 1341 0
-381 -951 0
-381 -1051 0
-381 -1321 0
-381 -1341 0
-951 -1051 0
-951 -1321 0
-951 -1341 0
-1051 -1321 0
-1051 -1341 0
-1321 -1341 0
382 952 1052 1322 1342 0
-382 -952 0
-382 -1052 0
-382 -1322 0
-382 -1342 0
-952 -1052 0
-952 -1322 0
-952 -1342 0
-1052 -1322 0
-1052 -1342 0
-1322 -1342 0
383 953 1053 1323 1343 0
-383 -953 0
-383 -1053 0
-383 -1323 0
-383 -1343 0
-953 -1053 0
-953 -1323 0
-953 -1343 0
-1053 -1323 0
-1053 -1343 0
-1323 -1343 0
384 954 1054 1324 1344 0
-384 -954 0
-384 -1054 0
-384 -1324 0
-384 -1344 0
-954 -1054 0
-954 -1324 0
-954 -1344 0
-1054 -1324 0
-1054 -1344 0
-1324 -1344 0
385 955 1055 1325 1345 0
-385 -955 0
-385 -1055 0
-385 -1325 0
-385 -1345 0
-955 -1055 0
-955 -1325 0
-955 -1345 0
-1055 -1325 0
-1055 -1345 0
-1325 -1345 0
386 1216 1301 1361 1381 0
-386 -1216 0
-386 -1301 0
-386 -1361 0
-386 -1381 0
-1216 -1301 0
-1216 -1361 0
-1216 -1381 0
-1301 -1361 0
-1301 -1381 0
-1361 -1381 0
387 1217 1302 1362 1382 0
-387 -1217 0
-387 -1302 0
-387 -1362 0
-387 -1382 0
-1217 -1302 0
-1217 -1362 0
-1217 -1382 0
-1302 -1362 0
-1302 -1382 0
-1362 -1382 0
388 1218 1303 1363 1383 0
-388 -1218 0
-388 -1303 0
-388 -1363 0
-388 -1383 0
-1218 -1303 0
-1218 -1363 0
-1218 -1383 0
-1303 -1363 0
-1303 -1383 0
-1363 -1383 0
389 1219 1304 1364 1384 0
-389 -1219 0
-389 -1304 0
-389 -1364 0
-389 -1384 0
-1219 -1304 0
-1219 -1364 0
-1219 -1384 0
-1304 -1364 0
-1304 -1384 0
-1364 -1384 0
390 1220 1305 1365 1385 0
-390 -1220 0
-390 -1305 0
-390 -1365 0
-390 -1385 0
-1220 -1305 0
-1220 -1365 0
-1220 -1385 0
-1305 -1365 0
-1305 -1385 0
-1365 -1385 0
391 566 956 1056 1371 0
-391 -566 0
-391 -956 0
-391 -1056 0
-391 -1371 0
-566 -956 0
-566 -1056 0
-566 -1371 0
-956 -1056 0
-956 -1371 0
-1056 -1371 0
392 567 957 1057 1372 0
-392 -567 0
-392 -957 0
-392 -1057 0
-392 -1372 0
-567 -957 0
-567 -1057 0
-567 -1372 0
-957 -1057 0
-957 -1372 0
-1057 -1372 0
393 568 958 1058 1373 0
-393 -568 0
-393 -958 0
-393 -1058 0
-393 -1373 0
-568 -958 0
-568 -1058 0
-568 -1373 0
-958 -1058 0
-958 -1373 0
-1058 -1373 0
394 569 959 1059 1374 0
-394 -569 0
-394 -959 0
-394 -1059 0
-394 -1374 0
-569 -959 0
-569 -1059 0
-569 -1374 0
-959 -1059 0
-959 -1374 0
-1059 -1374 0
395 570 960 1060 1375 0
-395 -570 0
-395 -960 0
-395 -1060 0
-395 -1375 0
-570 -960 0
-570 -1060 0
-570 -1375 0
-960 -1060 0
-960 -1375 0
-1060 -1375 0
396 1066 1226 1266 1306 0
-396 -1066 0
-396 -1226 0
-396 -1266 0
-396 -1306 0
-1066 -1226 0
-1066 -1266 0
-1066 -1306 0
-1226 -1266 0
-1226 -1306 0
-1266 -1306 0
397 1067 1227 1267 1307 0
-397 -1067 0
-397 -1227 0
-397 -1267 0
-397 -1307 0
-1067 -1227 0
-1067 -1267 0
-1067 -1307 0
-1227 -1267 0
-1227 -1307 0
-1267 -1307 0
398 1068 1228 1268 1308 0
-398 -1068 0
-398 -1228 0
-398 -1268 0
-398 -1308 0
-1068 -1228 0
-1068 -1268 0
-1068 -1308 0
-1228 -1268 0
-1228 -1308 0
-1268 -1308 0
399 1069 1229 1269 1309 0
-399 -1069 0
-399 -1229 0
-399 -1269 0
-399 -1309 0
-1069 -1229 0
-1069 -1269 0
-1069 -1309 0
-1229 -1269 0
-1229 -1309 0
-1269 -1309 0
400 1070 1230 1270 1310 0
-400 -1070 0
-400 -1230 0
-400 -1270 0
-400 -1310 0
-1070 -1230 0
-1070 -1270 0
-1070 -1310 0
-1230 -1270 0
-1230 -1310 0
-1270 -1310 0
401 1151 1271 1386 1391 0
-401 -1151 0
-401 -1271 0
-401 -1386 0
-401 -1391 0
-1151 -1271 0
-1151 -1386 0
-1151 -1391 0
-1271 -1386 0
-1271 -1391 0
-1386 -1391 0
402 1152 1272 1387 1392 0
-402 -1152 0
-402 -1272 0
-402 -1387 0
-402 -1392 0
-1152 -1272 0
-1152 -1387 0
-1152 -1392 0
-1272 -1387 0
-1272 -1392 0
-1387 -1392 0
403 1153 1273 1388 1393 0
-403 -1153 0
-403 -1273 0
-403 -1388 0
-403 -1393 0
-1153 -1273 0
-1153 -1388 0
-1153 -1393 0
-1273 -1388 0
-1273 -1393 0
-1388 -1393 0
404 1154 1274 1389 1394 0
-404 -1154 0
-404 -1274 0
-404 -1389 0
-404 -1394 0
-1154 -1274 0
-1154 -1389 0
-1154 -1394 0
-1274 -1389 0
-1274 -1394 0
-1389 -1394 0
405 1155 1275 1390 1395 0
-405 -1155 0
-405 -1275 0
-405 -1390 0
-405 -1395 0
-1155 -1275 0
-1155 -1390 0
-1155 -1395 0
-1275 -1390 0
-1275 -1395 0
-1390 -1395 0
406 976 1316 1366 1406 0
-406 -976 0
-406 -1316 0
-406 -1366 0
-406 -1406 0
-976 -1316 0
-976 -1366 0
-976 -1406 0
-1316 -1366 0
-1316 -1406 0
-1366 -1406 0
407 977 1317 1367 1407 0
-407 -977 0
-407 -1317 0
-407 -1367 0
-407 -1407 0
-977 -1317 0
-977 -1367 0
-977 -1407 0
-1317 -1367 0
-1317 -1407 0
-1367 -1407 0
408 978 1318 1368 1408 0
-408 -978 0
-408 -1318 0
-408 -1368 0
-408 -1408 0
-978 -1318 0
-978 -1368 0
-978 -1408 0
-1318 -1368 0
-1318 -1408 0
-1368 -1408 0
409 979 1319 1369 1409 0
-409 -979 0
-409 -1319 0
-409 -1369 0
-409 -1409 0
-979 -1319 0
-979 -1369 0
-979 -1409 0
-1319 -1369 0
-1319 -1409 0
-1369 -1409 0
410 980 1320 1370 1410 0
-410 -980 0
-410 -1320 0
-410 -1370 0
-410 -1410 0
-980 -1320 0
-980 -1370 0
-980 -1410 0
-1320 -1370 0
-1320 -1410 0
-1370 -1410 0
411 591 1181 1286 1421 0
-411 -591 0
-411 -1181 0
-411 -1286 0
-411 -1421 0
-591 -1181 0
-591 -1286 0
-591 -1421 0
-1181 -1286 0
-1181 -1421 0
-1286 -1421 0
412 592 1182 1287 1422 0
-412 -592 0
-412 -1182 0
-412 -1287 0
-412 -1422 0
-592 -1182 0
-592 -1287 0
-592 -1422 0
-1182 -1287 0
-1182 -1422 0
-1287 -1422 0
413 593 1183 1288 1423 0
-413 -593 0
-413 -1183 0
-413 -1288 0
-413 -1423 0
-593 -1183 0
-593 -1288 0
-593 -1423 0
-1183 -1288 0
-1183 -1423 0
-1288 -1423 0
414 594 1184 1289 1424 0
-414 -594 0
-414 -1184 0
-414 -1289 0
-414 -1424 0
-594 -1184 0
-594 -1289 0
-594 -1424 0
-1184 -1289 0
-1184 -1424 0
-1289 -1424 0
415 595 1185 1290 1425 0
-415 -595 0
-415 -1185 0
-415 -1290 0
-415 -1425 0
-595 -1185 0
-595 -1290 0
-595 -1425 0
-1185 -1290 0
-1185 -1425 0
-1290 -1425 0
421 601 1186 1296 1416 0
-421 -601 0
-421 -1186 0
-421 -1296 0
-421 -1416 0
-601 -1186 0
-601 -1296 0
-601 -1416 0
-1186 -1296 0
-1186 -1416 0
-1296 -1416 0
422 602 1187 1297 1417 0
-422 -602 0
-422 -1187 0
-422 -1297 0
-422 -1417 0
-602 -1187 0
-602 -1297 0
-602 -1417 0
-1187 -1297 0
-1187 -1417 0
-1297 -1417 0
423 603 1188 1298 1418 0
-423 -603 0
-423 -1188 0
-423 -1298 0
-423 -1418 0
-603 -1188 0
-603 -1298 0
-603 -1418 0
-1188 -1298 0
-1188 -1418 0
-1298 -1418 0
424 604 1189 1299 1419 0
-424 -604 0
-424 -1189 0
-424 -1299 0
-424 -1419 0
-604 -1189 0
-604 -1299 0
-604 -1419 0
-1189 -1299 0
-1189 -1419 0
-1299 -1419 0
425 605 1190 1300 1420 0
-425 -605 0
-425 -1190 0
-425 -1300 0
-425 -1420 0
-605 -1190 0
-605 -1300 0
-605 -1420 0
-1190 -1300 0
-1190 -1420 0
-1300 -1420 0
426 446 451 456 461 0
-426 -446 0
-426 -451 0
-426 -456 0
-426 -461 0
-446 -451 0
-446 -456 0
-446 -461 0
-451 -456 0
-451 -461 0
-456 -461 0
427 447 452 457 462 0
-427 -447 0
-427 -452 0
-427 -457 0
-427 -462 0
-447 -452 0
-447 -457 0
-447 -462 0
-452 -457 0
-452 -462 0
-457 -462 0
428 448 453 458 463 0
-428 -448 0
-428 -453 0
-428 -458 0
-428 -463 0
-448 -453 0
-448 -458 0
-448 -463 0
-453 -458 0
-453 -463 0
-458 -463 0
429 449 454 459 464 0
-429 -449 0
-429 -454 0
-429 -459 0
-429 -464 0
-449 -454 0
-449 -459 0
-449 -464 0
-454 -459 0
-454 -464 0
-459 -464 0
430 450 455 460 465 0
-430 -450 0
-430 -455 0
-430 -460 0
-430 -465 0
-450 -455 0
-450 -460 0
-450 -465 0
-455 -460 0
-455 -465 0
-460 -465 0
426 606 611 616 621 0
-426 -606 0
-426 -611 0
-426 -616 0
-426 -621 0
-606 -611 0
-606 -616 0
-606 -621 0
-611 -616 0
-611 -621 0
-616 -621 0
427 607 612 617 622 0
-427 -607 0
-427 -612 0
-427 -617 0
-427 -622 0
-607 -612 0
-607 -617 0
-607 -622 0
-612 -617 0
-612 -622 0
-617 -622 0
428 608 613 618 623 0
-428 -608 0
-428 -613 0
-428 -618 0
-428 -623 0
-608 -613 0
-608 -618 0
-608 -623 0
-613 -618 0
-613 -623 0
-618 -623 0
429 609 614 619 624 0
-429 -609 0
-429 -614 0
-429 -619 0
-429 -624 0
-609 -614 0
-609 -619 0
-609 -624 0
-614 -619 0
-614 -624 0
-619 -624 0
430 610 615 620 625 0
-430 -610 0
-430 -615 0
-430 -620 0
-430 -625 0
-610 -615 0
-610 -620 0
-610 -625 0
-615 -620 0
-615 -625 0
-620 -625 0
436 456 481 581 586 0
-436 -456 0
-436 -481 0
-436 -581 0
-436 -586 0
-456 -481 0
-456 -581 0
-456 -586 0
-481 -581 0
-481 -586 0
-581 -586 0
437 457 482 582 587 0
-437 -457 0
-437 -482 0
-437 -582 0
-437 -587 0
-457 -482 0
-457 -582 0
-457 -587 0
-482 -582 0
-482 -587 0
-582 -587 0
438 458 483 583 588 0
-438 -458 0
-438 -483 0
-438 -583 0
-438 -588 0
-458 -483 0
-458 -583 0
-458 -588 0
-483 -583 0
-483 -588 0
-583 -588 0
439 459 484 584 589 0
-439 -459 0
-439 -484 0
-439 -584 0
-439 -589 0
-459 -484 0
-459 -584 0
-459 -589 0
-484 -584 0
-484 -589 0
-584 -589 0
440 460 485 585 590 0
-440 -460 0
-440 -485 0
-440 -585 0
-440 -590 0
-460 -485 0
-460 -585 0
-460 -590 0
-485 -585 0
-485 -590 0
-585 -590 0
436 666 696 751 756 0
-436 -666 0
-436 -696 0
-436 -751 0
-436 -756 0
-666 -696 0
-666 -751 0
-666 -756 0
-696 -751 0
-696 -756 0
-751 -756 0
437 667 697 752 757 0
-437 -667 0
-437 -697 0
-437 -752 0
-437 -757 0
-667 -697 0
-667 -752 0
-667 -757 0
-697 -752 0
-697 -757 0
-752 -757 0
438 668 698 753 758 0
-438 -668 0
-438 -698 0
-438 -753 0
-438 -758 0
-668 -698 0
-668 -753 0
-668 -758 0
-698 -753 0
-698 -758 0
-753 -758 0
439 669 699 754 759 0
-439 -669 0
-439 -699 0
-439 -754 0
-439 -759 0
-669 -699 0
-669 -754 0
-669 -759 0
-699 -754 0
-699 -759 0
-754 -759 0
440 670 700 755 760 0
-440 -670 0
-440 -700 0
-440 -755 0
-440 -760 0
-670 -700 0
-670 -755 0
-670 -760 0
-700 -755 0
-700 -760 0
-755 -760 0
446 516 536 541 546 0
-446 -516 0
-446 -536 0
-446 -541 0
-446 -546 0
-516 -536 0
-516 -541 0
-516 -546 0
-536 -541 0
-536 -546 0
-541 -546 0
447 517 537 542 547 0
-447 -517 0
-447 -537 0
-447 -542 0
-447 -547 0
-517 -537 0
-517 -542 0
-517 -547 0
-537 -542 0
-537 -547 0
-542 -547 0
448 518 538 543 548 0
-448 -518 0
-448 -538 0
-448 -543 0
-448 -548 0
-518 -538 0
-518 -543 0
-518 -548 0
-538 -543 0
-538 -548 0
-543 -548 0
449 519 539 544 549 0
-449 -519 0
-449 -539 0
-449 -544 0
-449 -549 0
-519 -539 0
-519 -544 0
-519 -549 0
-539 -544 0
-539 -549 0
-544 -549 0
450 520 540 545 550 0
-450 -520 0
-450 -540 0
-450 -545 0
-450 -550 0
-520 -540 0
-520 -545 0
-520 -550 0
-540 -545 0
-540 -550 0
-545 -550 0
451 506 536 551 556 0
-451 -506 0
-451 -536 0
-451 -551 0
-451 -556 0
-506 -536 0
-506 -551 0
-506 -556 0
-536 -551 0
-536 -556 0
-551 -556 0
452 507 537 552 557 0
-452 -507 0
-452 -537 0
-452 -552 0
-452 -557 0
-507 -537 0
-507 -552 0
-507 -557 0
-537 -552 0
-537 -557 0
-552 -557 0
453 508 538 553 558 0
-453 -508 0
-453 -538 0
-453 -553 0
-453 -558 0
-508 -538 0
-508 -553 0
-508 -558 0
-538 -553 0
-538 -558 0
-553 -558 0
454 509 539 554 559 0
-454 -509 0
-454 -539 0
-454 -554 0
-454 -559 0
-509 -539 0
-509 -554 0
-509 -559 0
-539 -554 0
-539 -559 0
-554 -559 0
455 510 540 555 560 0
-455 -510 0
-455 -540 0
-455 -555 0
-455 -560 0
-510 -540 0
-510 -555 0
-510 -560 0
-540 -555 0
-540 -560 0
-555 -560 0
451 771 786 841 846 0
-451 -771 0
-451 -786 0
-451 -841 0
-451 -846 0
-771 -786 0
-771 -841 0
-771 -846 0
-786 -841 0
-786 -846 0
-841 -846 0
452 772 787 842 847 0
-452 -772 0
-452 -787 0
-452 -842 0
-452 -847 0
-772 -787 0
-772 -842 0
-772 -847 0
-787 -842 0
-787 -847 0
-842 -847 0
453 773 788 843 848 0
-453 -773 0
-453 -788 0
-453 -843 0
-453 -848 0
-773 -788 0
-773 -843 0
-773 -848 0
-788 -843 0
-788 -848 0
-843 -848 0
454 774 789 844 849 0
-454 -774 0
-454 -789 0
-454 -844 0
-454 -849 0
-774 -789 0
-774 -844 0
-774 -849 0
-789 -844 0
-789 -849 0
-844 -849 0
455 775 790 845 850 0
-455 -775 0
-455 -790 0
-455 -845 0
-455 -850 0
-775 -790 0
-775 -845 0
-775 -850 0
-790 -845 0
-790 -850 0
-845 -850 0
461 526 566 576 591 0
-461 -526 0
-461 -566 0
-461 -576 0
-461 -591 0
-526 -566 0
-526 -576 0
-526 -591 0
-566 -576 0
-566 -591 0
-576 -591 0
462 527 567 577 592 0
-462 -527 0
-462 -567 0
-462 -577 0
-462 -592 0
-527 -567 0
-527 -577 0
-527 -592 0
-567 -577 0
-567 -592 0
-577 -592 0
463 528 568 578 593 0
-463 -528 0
-463 -568 0
-463 -578 0
-463 -593 0
-528 -568 0
-528 -578 0
-528 -593 0
-568 -578 0
-568 -593 0
-578 -593 0
464 529 569 579 594 0
-464 -529 0
-464 -569 0
-464 -579 0
-464 -594 0
-529 -569 0
-529 -579 0
-529 -594 0
-569 -579 0
-569 -594 0
-579 -594 0
465 530 570 580 595 0
-465 -530 0
-465 -570 0
-465 -580 0
-465 -595 0
-530 -570 0
-530 -580 0
-530 -595 0
-570 -580 0
-570 -595 0
-580 -595 0
461 796 831 861 886 0
-461 -796 0
-461 -831 0
-461 -861 0
-461 -886 0
-796 -831 0
-796 -861 0
-796 -886 0
-831 -861 0
-831 -886 0
-861 -886 0
462 797 832 862 887 0
-462 -797 0
-462 -832 0
-462 -862 0
-462 -887 0
-797 -832 0
-797 -862 0
-797 -887 0
-832 -862 0
-832 -887 0
-862 -887 0
463 798 833 863 888 0
-463 -798 0
-463 -833 0
-463 -863 0
-463 -888 0
-798 -833 0
-798 -863 0
-798 -888 0
-833 -863 0
-833 -888 0
-863 -888 0
464 799 834 864 889 0
-464 -799 0
-464 -834 0
-464 -864 0
-464 -889 0
-799 -834 0
-799 -864 0
-799 -889 0
-834 -864 0
-834 -889 0
-864 -889 0
465 800 835 865 890 0
-465 -800 0
-465 -835 0
-465 -865 0
-465 -890 0
-800 -835 0
-800 -865 0
-800 -890 0
-835 -865 0
-835 -890 0
-865 -890 0
471 491 551 561 566 0
-471 -491 0
-471 -551 0
-471 -561 0
-471 -566 0
-491 -551 0
-491 -561 0
-491 -566 0
-551 -561 0
-551 -566 0
-561 -566 0
472 492 552 562 567 0
-472 -492 0
-472 -552 0
-472 -562 0
-472 -567 0
-492 -552 0
-492 -562 0
-492 -567 0
-552 -562 0
-552 -567 0
-562 -567 0
473 493 553 563 568 0
-473 -493 0
-473 -553 0
-473 -563 0
-473 -568 0
-493 -553 0
-493 -563 0
-493 -568 0
-553 -563 0
-553 -568 0
-563 -568 0
474 494 554 564 569 0
-474 -494 0
-474 -554 0
-474 -564 0
-474 -569 0
-494 -554 0
-494 -564 0
-494 -569 0
-554 -564 0
-554 -569 0
-564 -569 0
475 495 555 565 570 0
-475 -495 0
-475 -555 0
-475 -565 0
-475 -570 0
-495 -555 0
-495 -565 0
-495 -570 0
-555 -565 0
-555 -570 0
-565 -570 0
476 496 556 571 576 0
-476 -496 0
-476 -556 0
-476 -571 0
-476 -576 0
-496 -556 0
-496 -571 0
-496 -576 0
-556 -571 0
-556 -576 0
-571 -576 0
477 497 557 572 577 0
-477 -497 0
-477 -557 0
-477 -572 0
-477 -577 0
-497 -557 0
-497 -572 0
-497 -577 0
-557 -572 0
-557 -577 0
-572 -577 0
478 498 558 573 578 0
-478 -498 0
-478 -558 0
-478 -573 0
-478 -578 0
-498 -558 0
-498 -573 0
-498 -578 0
-558 -573 0
-558 -578 0
-573 -578 0
479 499 559 574 579 0
-479 -499 0
-479 -559 0
-479 -574 0
-479 -579 0
-499 -559 0
-499 -574 0
-499 -579 0
-559 -574 0
-559 -579 0
-574 -579 0
480 500 560 575 580 0
-480 -500 0
-480 -560 0
-480 -575 0
-480 -580 0
-500 -560 0
-500 -575 0
-500 -580 0
-560 -575 0
-560 -580 0
-575 -580 0
476 901 936 966 971 0
-476 -901 0
-476 -936 0
-476 -966 0
-476 -971 0
-901 -936 0
-901 -966 0
-901 -971 0
-936 -966 0
-936 -971 0
-966 -971 0
477 902 937 967 972 0
-477 -902 0
-477 -937 0
-477 -967 0
-477 -972 0
-902 -937 0
-902 -967 0
-902 -972 0
-937 -967 0
-937 -972 0
-967 -972 0
478 903 938 968 973 0
-478 -903 0
-478 -938 0
-478 -968 0
-478 -973 0
-903 -938 0
-903 -968 0
-903 -973 0
-938 -968 0
-938 -973 0
-968 -973 0
479 904 939 969 974 0
-479 -904 0
-479 -939 0
-479 -969 0
-479 -974 0
-904 -939 0
-904 -969 0
-904 -974 0
-939 -969 0
-939 -974 0
-969 -974 0
480 905 940 970 975 0
-480 -905 0
-480 -940 0
-480 -970 0
-480 -975 0
-905 -940 0
-905 -970 0
-905 -975 0
-940 -970 0
-940 -975 0
-970 -975 0
486 781 891 1001 1006 0
-486 -781 0
-486 -891 0
-486 -1001 0
-486 -1006 0
-781 -891 0
-781 -1001 0
-781 -1006 0
-891 -1001 0
-891 -1006 0
-1001 -1006 0
487 782 892 1002 1007 0
-487 -782 0
-487 -892 0
-487 -1002 0
-487 -1007 0
-782 -892 0
-782 -1002 0
-782 -1007 0
-892 -1002 0
-892 -1007 0
-1002 -1007 0
488 783 893 1003 1008 0
-488 -783 0
-488 -893 0
-488 -1003 0
-488 -1008 0
-783 -893 0
-783 -1003 0
-783 -1008 0
-893 -1003 0
-893 -1008 0
-1003 -1008 0
489 784 894 1004 1009 0
-489 -784 0
-489 -894 0
-489 -1004 0
-489 -1009 0
-784 -894 0
-784 -1004 0
-784 -1009 0
-894 -1004 0
-894 -1009 0
-1004 -1009 0
490 785 895 1005 1010 0
-490 -785 0
-490 -895 0
-490 -1005 0
-490 -1010 0
-785 -895 0
-785 -1005 0
-785 -1010 0
-895 -1005 0
-895 -1010 0
-1005 -1010 0
506 1096 1116 1136 1141 0
-506 -1096 0
-506 -1116 0
-506 -1136 0
-506 -1141 0
-1096 -1116 0
-1096 -1136 0
-1096 -1141 0
-1116 -1136 0
-1116 -1141 0
-1136 -1141 0
507 1097 1117 1137 1142 0
-507 -1097 0
-507 -1117 0
-507 -1137 0
-507 -1142 0
-1097 -1117 0
-1097 -1137 0
-1097 -1142 0
-1117 -1137 0
-1117 -1142 0
-1137 -1142 0
508 1098 1118 1138 1143 0
-508 -1098 0
-508 -1118 0
-508 -1138 0
-508 -1143 0
-1098 -1118 0
-1098 -1138 0
-1098 -1143 0
-1118 -1138 0
-1118 -1143 0
-1138 -1143 0
509 1099 1119 1139 1144 0
-509 -1099 0
-509 -1119 0
-509 -1139 0
-509 -1144 0
-1099 -1119 0
-1099 -1139 0
-1099 -1144 0
-1119 -1139 0
-1119 -1144 0
-1139 -1144 0
510 1100 1120 1140 1145 0
-510 -1100 0
-510 -1120 0
-510 -1140 0
-510 -1145 0
-1100 -1120 0
-1100 -1140 0
-1100 -1145 0
-1120 -1140 0
-1120 -1145 0
-1140 -1145 0
511 906 1126 1161 1166 0
-511 -906 0
-511 -1126 0
-511 -1161 0
-511 -1166 0
-906 -1126 0
-906 -1161 0
-906 -1166 0
-1126 -1161 0
-1126 -1166 0
-1161 -1166 0
512 907 1127 1162 1167 0
-512 -907 0
-512 -1127 0
-512 -1162 0
-512 -1167 0
-907 -1127 0
-907 -1162 0
-907 -1167 0
-1127 -1162 0
-1127 -1167 0
-1162 -1167 0
513 908 1128 1163 1168 0
-513 -908 0
-513 -1128 0
-513 -1163 0
-513 -1168 0
-908 -1128 0
-908 -1163 0
-908 -1168 0
-1128 -1163 0
-1128 -1168 0
-1163 -1168 0
514 909 1129 1164 1169 0
-514 -909 0
-514 -1129 0
-514 -1164 0
-514 -1169 0
-909 -1129 0
-909 -1164 0
-909 -1169 0
-1129 -1164 0
-1129 -1169 0
-1164 -1169 0
515 910 1130 1165 1170 0
-515 -910 0
-515 -1130 0
-515 -1165 0
-515 -1170 0
-910 -1130 0
-910 -1165 0
-910 -1170 0
-1130 -1165 0
-1130 -1170 0
-1165 -1170 0
521 921 1226 1231 1236 0
-521 -921 0
-521 -1226 0
-521 -1231 0
-521 -1236 0
-921 -1226 0
-921 -1231 0
-921 -1236 0
-1226 -1231 0
-1226 -1236 0
-1231 -1236 0
522 922 1227 1232 1237 0
-522 -922 0
-522 -1227 0
-522 -1232 0
-522 -1237 0
-922 -1227 0
-922 -1232 0
-922 -1237 0
-1227 -1232 0
-1227 -1237 0
-1232 -1237 0
523 923 1228 1233 1238 0
-523 -923 0
-523 -1228 0
-523 -1233 0
-523 -1238 0
-923 -1228 0
-923 -1233 0
-923 -1238 0
-1228 -1233 0
-1228 -1238 0
-1233 -1238 0
524 924 1229 1234 1239 0
-524 -924 0
-524 -1229 0
-524 -1234 0
-524 -1239 0
-924 -1229 0
-924 -1234 0
-924 -1239 0
-1229 -1234 0
-1229 -1239 0
-1234 -1239 0
525 925 1230 1235 1240 0
-525 -925 0
-525 -1230 0
-525 -1235 0
-525 -1240 0
-925 -1230 0
-925 -1235 0
-925 -1240 0
-1230 -1235 0
-1230 -1240 0
-1235 -1240 0
531 931 1021 1236 1251 0
-531 -931 0
-531 -1021 0
-531 -1236 0
-531 -1251 0
-931 -1021 0
-931 -1236 0
-931 -1251 0
-1021 -1236 0
-1021 -1251 0
-1236 -1251 0
532 932 1022 1237 1252 0
-532 -932 0
-532 -1022 0
-532 -1237 0
-532 -1252 0
-932 -1022 0
-932 -1237 0
-932 -1252 0
-1022 -1237 0
-1022 -1252 0
-1237 -1252 0
533 933 1023 1238 1253 0
-533 -933 0
-533 -1023 0
-533 -1238 0
-533 -1253 0
-933 -1023 0
-933 -1238 0
-933 -1253 0
-1023 -1238 0
-1023 -1253 0
-1238 -1253 0
534 934 1024 1239 1254 0
-534 -934 0
-534 -1024 0
-534 -1239 0
-534 -1254 0
-934 -1024 0
-934 -1239 0
-934 -1254 0
-1024 -1239 0
-1024 -1254 0
-1239 -1254 0
535 935 1025 1240 1255 0
-535 -935 0
-535 -1025 0
-535 -1240 0
-535 -1255 0
-935 -1025 0
-935 -1240 0
-935 -1255 0
-1025 -1240 0
-1025 -1255 0
-1240 -1255 0
541 571 581 591 596 0
-541 -571 0
-541 -581 0
-541 -591 0
-541 -596 0
-571 -581 0
-571 -591 0
-571 -596 0
-581 -591 0
-581 -596 0
-591 -596 0
542 572 582 592 597 0
-542 -572 0
-542 -582 0
-542 -592 0
-542 -597 0
-572 -582 0
-572 -592 0
-572 -597 0
-582 -592 0
-582 -597 0
-592 -597 0
543 573 583 593 598 0
-543 -573 0
-543 -583 0
-543 -593 0
-543 -598 0
-573 -583 0
-573 -593 0
-573 -598 0
-583 -593 0
-583 -598 0
-593 -598 0
544 574 584 594 599 0
-544 -574 0
-544 -584 0
-544 -594 0
-544 -599 0
-574 -584 0
-574 -594 0
-574 -599 0
-584 -594 0
-584 -599 0
-594 -599 0
545 575 585 595 600 0
-545 -575 0
-545 -585 0
-545 -595 0
-545 -600 0
-575 -585 0
-575 -595 0
-575 -600 0
-585 -595 0
-585 -600 0
-595 -600 0
541 701 941 1036 1286 0
-541 -701 0
-541 -941 0
-541 -1036 0
-541 -1286 0
-701 -941 0
-701 -1036 0
-701 -1286 0
-941 -1036 0
-941 -1286 0
-1036 -1286 0
542 702 942 1037 1287 0
-542 -702 0
-542 -942 0
-542 -1037 0
-542 -1287 0
-702 -942 0
-702 -1037 0
-702 -1287 0
-942 -1037 0
-942 -1287 0
-1037 -1287 0
543 703 943 1038 1288 0
-543 -703 0
-543 -943 0
-543 -1038 0
-543 -1288 0
-703 -943 0
-703 -1038 0
-703 -1288 0
-943 -1038 0
-943 -1288 0
-1038 -1288 0
544 704 944 1039 1289 0
-544 -704 0
-544 -944 0
-544 -1039 0
-544 -1289 0
-704 -944 0
-704 -1039 0
-704 -1289 0
-944 -1039 0
-944 -1289 0
-1039 -1289 0
545 705 945 1040 1290 0
-545 -705 0
-545 -945 0
-545 -1040 0
-545 -1290 0
-705 -945 0
-705 -1040 0
-705 -1290 0
-945 -1040 0
-945 -1290 0
-1040 -1290 0
546 1041 1196 1291 1296 0
-546 -1041 0
-546 -1196 0
-546 -1291 0
-546 -1296 0
-1041 -1196 0
-1041 -1291 0
-1041 -1296 0
-1196 -1291 0
-1196 -1296 0
-1291 -1296 0
547 1042 1197 1292 1297 0
-547 -1042 0
-547 -1197 0
-547 -1292 0
-547 -1297 0
-1042 -1197 0
-1042 -1292 0
-1042 -1297 0
-1197 -1292 0
-1197 -1297 0
-1292 -1297 0
548 1043 1198 1293 1298 0
-548 -1043 0
-548 -1198 0
-548 -1293 0
-548 -1298 0
-1043 -1198 0
-1043 -1293 0
-1043 -1298 0
-1198 -1293 0
-1198 -1298 0
-1293 -1298 0
549 1044 1199 1294 1299 0
-549 -1044 0
-549 -1199 0
-549 -1294 0
-549 -1299 0
-1044 -1199 0
-1044 -1294 0
-1044 -1299 0
-1199 -1294 0
-1199 -1299 0
-1294 -1299 0
550 1045 1200 1295 1300 0
-550 -1045 0
-550 -1200 0
-550 -1295 0
-550 -1300 0
-1045 -1200 0
-1045 -1295 0
-1045 -1300 0
-1200 -1295 0
-1200 -1300 0
-1295 -1300 0
576 861 971 1386 1401 0
-576 -861 0
-576 -971 0
-576 -1386 0
-576 -1401 0
-861 -971 0
-861 -1386 0
-861 -1401 0
-971 -1386 0
-971 -1401 0
-1386 -1401 0
577 862 972 1387 1402 0
-577 -862 0
-577 -972 0
-577 -1387 0
-577 -1402 0
-862 -972 0
-862 -1387 0
-862 -1402 0
-972 -1387 0
-972 -1402 0
-1387 -1402 0
578 863 973 1388 1403 0
-578 -863 0
-578 -973 0
-578 -1388 0
-578 -1403 0
-863 -973 0
-863 -1388 0
-863 -1403 0
-973 -1388 0
-973 -1403 0
-1388 -1403 0
579 864 974 1389 1404 0
-579 -864 0
-579 -974 0
-579 -1389 0
-579 -1404 0
-864 -974 0
-864 -1389 0
-864 -1404 0
-974 -1389 0
-974 -1404 0
-1389 -1404 0
580 865 975 1390 1405 0
-580 -865 0
-580 -975 0
-580 -1390 0
-580 -1405 0
-865 -975 0
-865 -1390 0
-865 -1405 0
-975 -1390 0
-975 -1405 0
-1390 -1405 0
581 876 986 1071 1406 0
-581 -876 0
-581 -986 0
-581 -1071 0
-581 -1406 0
-876 -986 0
-876 -1071 0
-876 -1406 0
-986 -1071 0
-986 -1406 0
-1071 -1406 0
582 877 987 1072 1407 0
-582 -877 0
-582 -987 0
-582 -1072 0
-582 -1407 0
-877 -987 0
-877 -1072 0
-877 -1407 0
-987 -1072 0
-987 -1407 0
-1072 -1407 0
583 878 988 1073 1408 0
-583 -878 0
-583 -988 0
-583 -1073 0
-583 -1408 0
-878 -988 0
-878 -1073 0
-878 -1408 0
-988 -1073 0
-988 -1408 0
-1073 -1408 0
584 879 989 1074 1409 0
-584 -879 0
-584 -989 0
-584 -1074 0
-584 -1409 0
-879 -989 0
-879 -1074 0
-879 -1409 0
-989 -1074 0
-989 -1409 0
-1074 -1409 0
585 880 990 1075 1410 0
-585 -880 0
-585 -990 0
-585 -1075 0
-585 -1410 0
-880 -990 0
-880 -1075 0
-880 -1410 0
-990 -1075 0
-990 -1410 0
-1075 -1410 0
586 751 991 1076 1411 0
-586 -751 0
-586 -991 0
-586 -1076 0
-586 -1411 0
-751 -991 0
-751 -1076 0
-751 -1411 0
-991 -1076 0
-991 -1411 0
-1076 -1411 0
587 752 992 1077 1412 0
-587 -752 0
-587 -992 0
-587 -1077 0
-587 -1412 0
-752 -992 0
-752 -1077 0
-752 -1412 0
-992 -1077 0
-992 -1412 0
-1077 -1412 0
588 753 993 1078 1413 0
-588 -753 0
-588 -993 0
-588 -1078 0
-588 -1413 0
-753 -993 0
-753 -1078 0
-753 -1413 0
-993 -1078 0
-993 -1413 0
-1078 -1413 0
589 754 994 1079 1414 0
-589 -754 0
-589 -994 0
-589 -1079 0
-589 -1414 0
-754 -994 0
-754 -1079 0
-754 -1414 0
-994 -1079 0
-994 -1414 0
-1079 -1414 0
590 755 995 1080 1415 0
-590 -755 0
-590 -995 0
-590 -1080 0
-590 -1415 0
-755 -995 0
-755 -1080 0
-755 -1415 0
-995 -1080 0
-995 -1415 0
-1080 -1415 0
596 996 1251 1336 1421 0
-596 -996 0
-596 -1251 0
-596 -1336 0
-596 -1421 0
-996 -1251 0
-996 -1336 0
-996 -1421 0
-1251 -1336 0
-1251 -1421 0
-1336 -1421 0
597 997 1252 1337 1422 0
-597 -997 0
-597 -1252 0
-597 -1337 0
-597 -1422 0
-997 -1252 0
-997 -1337 0
-997 -1422 0
-1252 -1337 0
-1252 -1422 0
-1337 -1422 0
598 998 1253 1338 1423 0
-598 -998 0
-598 -1253 0
-598 -1338 0
-598 -1423 0
-998 -1253 0
-998 -1338 0
-998 -1423 0
-1253 -1338 0
-1253 -1423 0
-1338 -1423 0
599 999 1254 1339 1424 0
-599 -999 0
-599 -1254 0
-599 -1339 0
-599 -1424 0
-999 -1254 0
-999 -1339 0
-999 -1424 0
-1254 -1339 0
-1254 -1424 0
-1339 -1424 0
600 1000 1255 1340 1425 0
-600 -1000 0
-600 -1255 0
-600 -1340 0
-600 -1425 0
-1000 -1255 0
-1000 -1340 0
-1000 -1425 0
-1255 -1340 0
-1255 -1425 0
-1340 -1425 0
611 641 671 731 736 0
-611 -641 0
-611 -671 0
-611 -731 0
-611 -736 0
-641 -671 0
-641 -731 0
-641 -736 0
-671 -731 0
-671 -736 0
-731 -736 0
612 642 672 732 737 0
-612 -642 0
-612 -672 0
-612 -732 0
-612 -737 0
-642 -672 0
-642 -732 0
-642 -737 0
-672 -732 0
-672 -737 0
-732 -737 0
613 643 673 733 738 0
-613 -643 0
-613 -673 0
-613 -733 0
-613 -738 0
-643 -673 0
-643 -733 0
-643 -738 0
-673 -733 0
-673 -738 0
-733 -738 0
614 644 674 734 739 0
-614 -644 0
-614 -674 0
-614 -734 0
-614 -739 0
-644 -674 0
-644 -734 0
-644 -739 0
-674 -734 0
-674 -739 0
-734 -739 0
615 645 675 735 740 0
-615 -645 0
-615 -675 0
-615 -735 0
-615 -740 0
-645 -675 0
-645 -735 0
-645 -740 0
-675 -735 0
-675 -740 0
-735 -740 0
616 806 816 856 861 0
-616 -806 0
-616 -816 0
-616 -856 0
-616 -861 0
-806 -816 0
-806 -856 0
-806 -861 0
-816 -856 0
-816 -861 0
-856 -861 0
617 807 817 857 862 0
-617 -807 0
-617 -817 0
-617 -857 0
-617 -862 0
-807 -817 0
-807 -857 0
-807 -862 0
-817 -857 0
-817 -862 0
-857 -862 0
618 808 818 858 863 0
-618 -808 0
-618 -818 0
-618 -858 0
-618 -863 0
-808 -818 0
-808 -858 0
-808 -863 0
-818 -858 0
-818 -863 0
-858 -863 0
619 809 819 859 864 0
-619 -809 0
-619 -819 0
-619 -859 0
-619 -864 0
-809 -819 0
-809 -859 0
-809 -864 0
-819 -859 0
-819 -864 0
-859 -864 0
620 810 820 860 865 0
-620 -810 0
-620 -820 0
-620 -860 0
-620 -865 0
-810 -820 0
-810 -860 0
-810 -865 0
-820 -860 0
-820 -865 0
-860 -865 0
621 676 686 701 736 0
-621 -676 0
-621 -686 0
-621 -701 0
-621 -736 0
-676 -686 0
-676 -701 0
-676 -736 0
-686 -701 0
-686 -736 0
-701 -736 0
622 677 687 702 737 0
-622 -677 0
-622 -687 0
-622 -702 0
-622 -737 0
-677 -687 0
-677 -702 0
-677 -737 0
-687 -702 0
-687 -737 0
-702 -737 0
623 678 688 703 738 0
-623 -678 0
-623 -688 0
-623 -703 0
-623 -738 0
-678 -688 0
-678 -703 0
-678 -738 0
-688 -703 0
-688 -738 0
-703 -738 0
624 679 689 704 739 0
-624 -679 0
-624 -689 0
-624 -704 0
-624 -739 0
-679 -689 0
-679 -704 0
-679 -739 0
-689 -704 0
-689 -739 0
-704 -739 0
625 680 690 705 740 0
-625 -680 0
-625 -690 0
-625 -705 0
-625 -740 0
-680 -690 0
-680 -705 0
-680 -740 0
-690 -705 0
-690 -740 0
-705 -740 0
626 631 636 641 646 0
-626 -631 0
-626 -636 0
-626 -641 0
-626 -646 0
-631 -636 0
-631 -641 0
-631 -646 0
-636 -641 0
-636 -646 0
-641 -646 0
627 632 637 642 647 0
-627 -632 0
-627 -637 0
-627 -642 0
-627 -647 0
-632 -637 0
-632 -642 0
-632 -647 0
-637 -642 0
-637 -647 0
-642 -647 0
628 633 638 643 648 0
-628 -633 0
-628 -638 0
-628 -643 0
-628 -648 0
-633 -638 0
-633 -643 0
-633 -648 0
-638 -643 0
-638 -648 0
-643 -648 0
629 634 639 644 649 0
-629 -634 0
-629 -639 0
-629 -644 0
-629 -649 0
-634 -639 0
-634 -644 0
-634 -649 0
-639 -644 0
-639 -649 0
-644 -649 0
630 635 640 645 650 0
-630 -635 0
-630 -640 0
-630 -645 0
-630 -650 0
-635 -640 0
-635 -645 0
-635 -650 0
-640 -645 0
-640 -650 0
-645 -650 0
626 651 656 661 666 0
-626 -651 0
-626 -656 0
-626 -661 0
-626 -666 0
-651 -656 0
-651 -661 0
-651 -666 0
-656 -661 0
-656 -666 0
-661 -666 0
627 652 657 662 667 0
-627 -652 0
-627 -657 0
-627 -662 0
-627 -667 0
-652 -657 0
-652 -662 0
-652 -667 0
-657 -662 0
-657 -667 0
-662 -667 0
628 653 658 663 668 0
-628 -653 0
-628 -658 0
-628 -663 0
-628 -668 0
-653 -658 0
-653 -663 0
-653 -668 0
-658 -663 0
-658 -668 0
-663 -668 0
629 654 659 664 669 0
-629 -654 0
-629 -659 0
-629 -664 0
-629 -669 0
-654 -659 0
-654 -664 0
-654 -669 0
-659 -664 0
-659 -669 0
-664 -669 0
630 655 660 665 670 0
-630 -655 0
-630 -660 0
-630 -665 0
-630 -670 0
-655 -660 0
-655 -665 0
-655 -670 0
-660 -665 0
-660 -670 0
-665 -670 0
626 761 891 896 901 0
-626 -761 0
-626 -891 0
-626 -896 0
-626 -901 0
-761 -891 0
-761 -896 0
-761 -901 0
-891 -896 0
-891 -901 0
-896 -901 0
627 762 892 897 902 0
-627 -762 0
-627 -892 0
-627 -897 0
-627 -902 0
-762 -892 0
-762 -897 0
-762 -902 0
-892 -897 0
-892 -902 0
-897 -902 0
628 763 893 898 903 0
-628 -763 0
-628 -893 0
-628 -898 0
-628 -903 0
-763 -893 0
-763 -898 0
-763 -903 0
-893 -898 0
-893 -903 0
-898 -903 0
629 764 894 899 904 0
-629 -764 0
-629 -894 0
-629 -899 0
-629 -904 0
-764 -894 0
-764 -899 0
-764 -904 0
-894 -899 0
-894 -904 0
-899 -904 0
630 765 895 900 905 0
-630 -765 0
-630 -895 0
-630 -900 0
-630 -905 0
-765 -895 0
-765 -900 0
-765 -905 0
-895 -900 0
-895 -905 0
-900 -905 0
631 696 701 706 711 0
-631 -696 0
-631 -701 0
-631 -706 0
-631 -711 0
-696 -701 0
-696 -706 0
-696 -711 0
-701 -706 0
-701 -711 0
-706 -711 0
632 697 702 707 712 0
-632 -697 0
-632 -702 0
-632 -707 0
-632 -712 0
-697 -702 0
-697 -707 0
-697 -712 0
-702 -707 0
-702 -712 0
-707 -712 0
633 698 703 708 713 0
-633 -698 0
-633 -703 0
-633 -708 0
-633 -713 0
-698 -703 0
-698 -708 0
-698 -713 0
-703 -708 0
-703 -713 0
-708 -713 0
634 699 704 709 714 0
-634 -699 0
-634 -704 0
-634 -709 0
-634 -714 0
-699 -704 0
-699 -709 0
-699 -714 0
-704 -709 0
-704 -714 0
-709 -714 0
635 700 705 710 715 0
-635 -700 0
-635 -705 0
-635 -710 0
-635 -715 0
-700 -705 0
-700 -710 0
-700 -715 0
-705 -710 0
-705 -715 0
-710 -715 0
631 766 936 941 946 0
-631 -766 0
-631 -936 0
-631 -941 0
-631 -946 0
-766 -936 0
-766 -941 0
-766 -946 0
-936 -941 0
-936 -946 0
-941 -946 0
632 767 937 942 947 0
-632 -767 0
-632 -937 0
-632 -942 0
-632 -947 0
-767 -937 0
-767 -942 0
-767 -947 0
-937 -942 0
-937 -947 0
-942 -947 0
633 768 938 943 948 0
-633 -768 0
-633 -938 0
-633 -943 0
-633 -948 0
-768 -938 0
-768 -943 0
-768 -948 0
-938 -943 0
-938 -948 0
-943 -948 0
634 769 939 944 949 0
-634 -769 0
-634 -939 0
-634 -944 0
-634 -949 0
-769 -939 0
-769 -944 0
-769 -949 0
-939 -944 0
-939 -949 0
-944 -949 0
635 770 940 945 950 0
-635 -770 0
-635 -940 0
-635 -945 0
-635 -950 0
-770 -940 0
-770 -945 0
-770 -950 0
-940 -945 0
-940 -950 0
-945 -950 0
636 656 716 721 726 0
-636 -656 0
-636 -716 0
-636 -721 0
-636 -726 0
-656 -716 0
-656 -721 0
-656 -726 0
-716 -721 0
-716 -726 0
-721 -726 0
637 657 717 722 727 0
-637 -657 0
-637 -717 0
-637 -722 0
-637 -727 0
-657 -717 0
-657 -722 0
-657 -727 0
-717 -722 0
-717 -727 0
-722 -727 0
638 658 718 723 728 0
-638 -658 0
-638 -718 0
-638 -723 0
-638 -728 0
-658 -718 0
-658 -723 0
-658 -728 0
-718 -723 0
-718 -728 0
-723 -728 0
639 659 719 724 729 0
-639 -659 0
-639 -719 0
-639 -724 0
-639 -729 0
-659 -719 0
-659 -724 0
-659 -729 0
-719 -724 0
-719 -729 0
-724 -729 0
640 660 720 725 730 0
-640 -660 0
-640 -720 0
-640 -725 0
-640 -730 0
-660 -720 0
-660 -725 0
-660 -730 0
-720 -725 0
-720 -730 0
-725 -730 0
636 771 896 916 951 0
-636 -771 0
-636 -896 0
-636 -916 0
-636 -951 0
-771 -896 0
-771 -916 0
-771 -951 0
-896 -916 0
-896 -951 0
-916 -951 0
637 772 897 917 952 0
-637 -772 0
-637 -897 0
-637 -917 0
-637 -952 0
-772 -897 0
-772 -917 0
-772 -952 0
-897 -917 0
-897 -952 0
-917 -952 0
638 773 898 918 953 0
-638 -773 0
-638 -898 0
-638 -918 0
-638 -953 0
-773 -898 0
-773 -918 0
-773 -953 0
-898 -918 0
-898 -953 0
-918 -953 0
639 774 899 919 954 0
-639 -774 0
-639 -899 0
-639 -919 0
-639 -954 0
-774 -899 0
-774 -919 0
-774 -954 0
-899 -919 0
-899 -954 0
-919 -954 0
640 775 900 920 955 0
-640 -775 0
-640 -900 0
-640 -920 0
-640 -955 0
-775 -900 0
-775 -920 0
-775 -955 0
-900 -920 0
-900 -955 0
-920 -955 0
646 906 921 976 981 0
-646 -906 0
-646 -921 0
-646 -976 0
-646 -981 0
-906 -921 0
-906 -976 0
-906 -981 0
-921 -976 0
-921 -981 0
-976 -981 0
647 907 922 977 982 0
-647 -907 0
-647 -922 0
-647 -977 0
-647 -982 0
-907 -922 0
-907 -977 0
-907 -982 0
-922 -977 0
-922 -982 0
-977 -982 0
648 908 923 978 983 0
-648 -908 0
-648 -923 0
-648 -978 0
-648 -983 0
-908 -923 0
-908 -978 0
-908 -983 0
-923 -978 0
-923 -983 0
-978 -983 0
649 909 924 979 984 0
-649 -909 0
-649 -924 0
-649 -979 0
-649 -984 0
-909 -924 0
-909 -979 0
-909 -984 0
-924 -979 0
-924 -984 0
-979 -984 0
650 910 925 980 985 0
-650 -910 0
-650 -925 0
-650 -980 0
-650 -985 0
-910 -925 0
-910 -980 0
-910 -985 0
-925 -980 0
-925 -985 0
-980 -985 0
656 786 896 1046 1051 0
-656 -786 0
-656 -896 0
-656 -1046 0
-656 -1051 0
-786 -896 0
-786 -1046 0
-786 -1051 0
-896 -1046 0
-896 -1051 0
-1046 -1051 0
657 787 897 1047 1052 0
-657 -787 0
-657 -897 0
-657 -1047 0
-657 -1052 0
-787 -897 0
-787 -1047 0
-787 -1052 0
-897 -1047 0
-897 -1052 0
-1047 -1052 0
658 788 898 1048 1053 0
-658 -788 0
-658 -898 0
-658 -1048 0
-658 -1053 0
-788 -898 0
-788 -1048 0
-788 -1053 0
-898 -1048 0
-898 -1053 0
-1048 -1053 0
659 789 899 1049 1054 0
-659 -789 0
-659 -899 0
-659 -1049 0
-659 -1054 0
-789 -899 0
-789 -1049 0
-789 -1054 0
-899 -1049 0
-899 -1054 0
-1049 -1054 0
660 790 900 1050 1055 0
-660 -790 0
-660 -900 0
-660 -1050 0
-660 -1055 0
-790 -900 0
-790 -1050 0
-790 -1055 0
-900 -1050 0
-900 -1055 0
-1050 -1055 0
671 801 1101 1121 1146 0
-671 -801 0
-671 -1101 0
-671 -1121 0
-671 -1146 0
-801 -1101 0
-801 -1121 0
-801 -1146 0
-1101 -1121 0
-1101 -1146 0
-1121 -1146 0
672 802 1102 1122 1147 0
-672 -802 0
-672 -1102 0
-672 -1122 0
-672 -1147 0
-802 -1102 0
-802 -1122 0
-802 -1147 0
-1102 -1122 0
-1102 -1147 0
-1122 -1147 0
673 803 1103 1123 1148 0
-673 -803 0
-673 -1103 0
-673 -1123 0
-673 -1148 0
-803 -1103 0
-803 -1123 0
-803 -1148 0
-1103 -1123 0
-1103 -1148 0
-1123 -1148 0
674 804 1104 1124 1149 0
-674 -804 0
-674 -1104 0
-674 -1124 0
-674 -1149 0
-804 -1104 0
-804 -1124 0
-804 -1149 0
-1104 -1124 0
-1104 -1149 0
-1124 -1149 0
675 805 1105 1125 1150 0
-675 -805 0
-675 -1105 0
-675 -1125 0
-675 -1150 0
-805 -1105 0
-805 -1125 0
-805 -1150 0
-1105 -1125 0
-1105 -1150 0
-1125 -1150 0
676 1111 1146 1176 1181 0
-676 -1111 0
-676 -1146 0
-676 -1176 0
-676 -1181 0
-1111 -1146 0
-1111 -1176 0
-1111 -1181 0
-1146 -1176 0
-1146 -1181 0
-1176 -1181 0
677 1112 1147 1177 1182 0
-677 -1112 0
-677 -1147 0
-677 -1177 0
-677 -1182 0
-1112 -1147 0
-1112 -1177 0
-1112 -1182 0
-1147 -1177 0
-1147 -1182 0
-1177 -1182 0
678 1113 1148 1178 1183 0
-678 -1113 0
-678 -1148 0
-678 -1178 0
-678 -1183 0
-1113 -1148 0
-1113 -1178 0
-1113 -1183 0
-1148 -1178 0
-1148 -1183 0
-1178 -1183 0
679 1114 1149 1179 1184 0
-679 -1114 0
-679 -1149 0
-679 -1179 0
-679 -1184 0
-1114 -1149 0
-1114 -1179 0
-1114 -1184 0
-1149 -1179 0
-1149 -1184 0
-1179 -1184 0
680 1115 1150 1180 1185 0
-680 -1115 0
-680 -1150 0
-680 -1180 0
-680 -1185 0
-1115 -1150 0
-1115 -1180 0
-1115 -1185 0
-1150 -1180 0
-1150 -1185 0
-1180 -1185 0
681 811 1156 1176 1186 0
-681 -811 0
-681 -1156 0
-681 -1176 0
-681 -1186 0
-811 -1156 0
-811 -1176 0
-811 -1186 0
-1156 -1176 0
-1156 -1186 0
-1176 -1186 0
682 812 1157 1177 1187 0
-682 -812 0
-682 -1157 0
-682 -1177 0
-682 -1187 0
-812 -1157 0
-812 -1177 0
-812 -1187 0
-1157 -1177 0
-1157 -1187 0
-1177 -1187 0
683 813 1158 1178 1188 0
-683 -813 0
-683 -1158 0
-683 -1178 0
-683 -1188 0
-813 -1158 0
-813 -1178 0
-813 -1188 0
-1158 -1178 0
-1158 -1188 0
-1178 -1188 0
684 814 1159 1179 1189 0
-684 -814 0
-684 -1159 0
-684 -1179 0
-684 -1189 0
-814 -1159 0
-814 -1179 0
-814 -1189 0
-1159 -1179 0
-1159 -1189 0
-1179 -1189 0
685 815 1160 1180 1190 0
-685 -815 0
-685 -1160 0
-685 -1180 0
-685 -1190 0
-815 -1160 0
-815 -1180 0
-815 -1190 0
-1160 -1180 0
-1160 -1190 0
-1180 -1190 0
686 821 1111 1246 1251 0
-686 -821 0
-686 -1111 0
-686 -1246 0
-686 -1251 0
-821 -1111 0
-821 -1246 0
-821 -1251 0
-1111 -1246 0
-1111 -1251 0
-1246 -1251 0
687 822 1112 1247 1252 0
-687 -822 0
-687 -1112 0
-687 -1247 0
-687 -1252 0
-822 -1112 0
-822 -1247 0
-822 -1252 0
-1112 -1247 0
-1112 -1252 0
-1247 -1252 0
688 823 1113 1248 1253 0
-688 -823 0
-688 -1113 0
-688 -1248 0
-688 -1253 0
-823 -1113 0
-823 -1248 0
-823 -1253 0
-1113 -1248 0
-1113 -1253 0
-1248 -1253 0
689 824 1114 1249 1254 0
-689 -824 0
-689 -1114 0
-689 -1249 0
-689 -1254 0
-824 -1114 0
-824 -1249 0
-824 -1254 0
-1114 -1249 0
-1114 -1254 0
-1249 -1254 0
690 825 1115 1250 1255 0
-690 -825 0
-690 -1115 0
-690 -1250 0
-690 -1255 0
-825 -1115 0
-825 -1250 0
-825 -1255 0
-1115 -1250 0
-1115 -1255 0
-1250 -1255 0
691 826 1196 1221 1246 0
-691 -826 0
-691 -1196 0
-691 -1221 0
-691 -1246 0
-826 -1196 0
-826 -1221 0
-826 -1246 0
-1196 -1221 0
-1196 -1246 0
-1221 -1246 0
692 827 1197 1222 1247 0
-692 -827 0
-692 -1197 0
-692 -1222 0
-692 -1247 0
-827 -1197 0
-827 -1222 0
-827 -1247 0
-1197 -1222 0
-1197 -1247 0
-1222 -1247 0
693 828 1198 1223 1248 0
-693 -828 0
-693 -1198 0
-693 -1223 0
-693 -1248 0
-828 -1198 0
-828 -1223 0
-828 -1248 0
-1198 -1223 0
-1198 -1248 0
-1223 -1248 0
694 829 1199 1224 1249 0
-694 -829 0
-694 -1199 0
-694 -1224 0
-694 -1249 0
-829 -1199 0
-829 -1224 0
-829 -1249 0
-1199 -1224 0
-1199 -1249 0
-1224 -1249 0
695 830 1200 1225 1250 0
-695 -830 0
-695 -1200 0
-695 -1225 0
-695 -1250 0
-830 -1200 0
-830 -1225 0
-830 -1250 0
-1200 -1225 0
-1200 -1250 0
-1225 -1250 0
706 831 946 1286 1291 0
-706 -831 0
-706 -946 0
-706 -1286 0
-706 -1291 0
-831 -946 0
-831 -1286 0
-831 -1291 0
-946 -1286 0
-946 -1291 0
-1286 -1291 0
707 832 947 1287 1292 0
-707 -832 0
-707 -947 0
-707 -1287 0
-707 -1292 0
-832 -947 0
-832 -1287 0
-832 -1292 0
-947 -1287 0
-947 -1292 0
-1287 -1292 0
708 833 948 1288 1293 0
-708 -833 0
-708 -948 0
-708 -1288 0
-708 -1293 0
-833 -948 0
-833 -1288 0
-833 -1293 0
-948 -1288 0
-948 -1293 0
-1288 -1293 0
709 834 949 1289 1294 0
-709 -834 0
-709 -949 0
-709 -1289 0
-709 -1294 0
-834 -949 0
-834 -1289 0
-834 -1294 0
-949 -1289 0
-949 -1294 0
-1289 -1294 0
710 835 950 1290 1295 0
-710 -835 0
-710 -950 0
-710 -1290 0
-710 -1295 0
-835 -950 0
-835 -1290 0
-835 -1295 0
-950 -1290 0
-950 -1295 0
-1290 -1295 0
711 836 1276 1281 1296 0
-711 -836 0
-711 -1276 0
-711 -1281 0
-711 -1296 0
-836 -1276 0
-836 -1281 0
-836 -1296 0
-1276 -1281 0
-1276 -1296 0
-1281 -1296 0
712 837 1277 1282 1297 0
-712 -837 0
-712 -1277 0
-712 -1282 0
-712 -1297 0
-837 -1277 0
-837 -1282 0
-837 -1297 0
-1277 -1282 0
-1277 -1297 0
-1282 -1297 0
713 838 1278 1283 1298 0
-713 -838 0
-713 -1278 0
-713 -1283 0
-713 -1298 0
-838 -1278 0
-838 -1283 0
-838 -1298 0
-1278 -1283 0
-1278 -1298 0
-1283 -1298 0
714 839 1279 1284 1299 0
-714 -839 0
-714 -1279 0
-714 -1284 0
-714 -1299 0
-839 -1279 0
-839 -1284 0
-839 -1299 0
-1279 -1284 0
-1279 -1299 0
-1284 -1299 0
715 840 1280 1285 1300 0
-715 -840 0
-715 -1280 0
-715 -1285 0
-715 -1300 0
-840 -1280 0
-840 -1285 0
-840 -1300 0
-1280 -1285 0
-1280 -1300 0
-1285 -1300 0
721 1141 1206 1331 1341 0
-721 -1141 0
-721 -1206 0
-721 -1331 0
-721 -1341 0
-1141 -1206 0
-1141 -1331 0
-1141 -1341 0
-1206 -1331 0
-1206 -1341 0
-1331 -1341 0
722 1142 1207 1332 1342 0
-722 -1142 0
-722 -1207 0
-722 -1332 0
-722 -1342 0
-1142 -1207 0
-1142 -1332 0
-1142 -1342 0
-1207 -1332 0
-1207 -1342 0
-1332 -1342 0
723 1143 1208 1333 1343 0
-723 -1143 0
-723 -1208 0
-723 -1333 0
-723 -1343 0
-1143 -1208 0
-1143 -1333 0
-1143 -1343 0
-1208 -1333 0
-1208 -1343 0
-1333 -1343 0
724 1144 1209 1334 1344 0
-724 -1144 0
-724 -1209 0
-724 -1334 0
-724 -1344 0
-1144 -1209 0
-1144 -1334 0
-1144 -1344 0
-1209 -1334 0
-1209 -1344 0
-1334 -1344 0
725 1145 1210 1335 1345 0
-725 -1145 0
-725 -1210 0
-725 -1335 0
-725 -1345 0
-1145 -1210 0
-1145 -1335 0
-1145 -1345 0
-1210 -1335 0
-1210 -1345 0
-1335 -1345 0
731 1211 1346 1351 1356 0
-731 -1211 0
-731 -1346 0
-731 -1351 0
-731 -1356 0
-1211 -1346 0
-1211 -1351 0
-1211 -1356 0
-1346 -1351 0
-1346 -1356 0
-1351 -1356 0
732 1212 1347 1352 1357 0
-732 -1212 0
-732 -1347 0
-732 -1352 0
-732 -1357 0
-1212 -1347 0
-1212 -1352 0
-1212 -1357 0
-1347 -1352 0
-1347 -1357 0
-1352 -1357 0
733 1213 1348 1353 1358 0
-733 -1213 0
-733 -1348 0
-733 -1353 0
-733 -1358 0
-1213 -1348 0
-1213 -1353 0
-1213 -1358 0
-1348 -1353 0
-1348 -1358 0
-1353 -1358 0
734 1214 1349 1354 1359 0
-734 -1214 0
-734 -1349 0
-734 -1354 0
-734 -1359 0
-1214 -1349 0
-1214 -1354 0
-1214 -1359 0
-1349 -1354 0
-1349 -1359 0
-1354 -1359 0
735 1215 1350 1355 1360 0
-735 -1215 0
-735 -1350 0
-735 -1355 0
-735 -1360 0
-1215 -1350 0
-1215 -1355 0
-1215 -1360 0
-1350 -1355 0
-1350 -1360 0
-1355 -1360 0
741 966 1156 1351 1396 0
-741 -966 0
-741 -1156 0
-741 -1351 0
-741 -1396 0
-966 -1156 0
-966 -1351 0
-966 -1396 0
-1156 -1351 0
-1156 -1396 0
-1351 -1396 0
742 967 1157 1352 1397 0
-742 -967 0
-742 -1157 0
-742 -1352 0
-742 -1397 0
-967 -1157 0
-967 -1352 0
-967 -1397 0
-1157 -1352 0
-1157 -1397 0
-1352 -1397 0
743 968 1158 1353 1398 0
-743 -968 0
-743 -1158 0
-743 -1353 0
-743 -1398 0
-968 -1158 0
-968 -1353 0
-968 -1398 0
-1158 -1353 0
-1158 -1398 0
-1353 -1398 0
744 969 1159 1354 1399 0
-744 -969 0
-744 -1159 0
-744 -1354 0
-744 -1399 0
-969 -1159 0
-969 -1354 0
-969 -1399 0
-1159 -1354 0
-1159 -1399 0
-1354 -1399 0
745 970 1160 1355 1400 0
-745 -970 0
-745 -1160 0
-745 -1355 0
-745 -1400 0
-970 -1160 0
-970 -1355 0
-970 -1400 0
-1160 -1355 0
-1160 -1400 0
-1355 -1400 0
761 781 786 791 796 0
-761 -781 0
-761 -786 0
-761 -791 0
-761 -796 0
-781 -786 0
-781 -791 0
-781 -796 0
-786 -791 0
-786 -796 0
-791 -796 0
762 782 787 792 797 0
-762 -782 0
-762 -787 0
-762 -792 0
-762 -797 0
-782 -787 0
-782 -792 0
-782 -797 0
-787 -792 0
-787 -797 0
-792 -797 0
763 783 788 793 798 0
-763 -783 0
-763 -788 0
-763 -793 0
-763 -798 0
-783 -788 0
-783 -793 0
-783 -798 0
-788 -793 0
-788 -798 0
-793 -798 0
764 784 789 794 799 0
-764 -784 0
-764 -789 0
-764 -794 0
-764 -799 0
-784 -789 0
-784 -794 0
-784 -799 0
-789 -794 0
-789 -799 0
-794 -799 0
765 785 790 795 800 0
-765 -785 0
-765 -790 0
-765 -795 0
-765 -800 0
-785 -790 0
-785 -795 0
-785 -800 0
-790 -795 0
-790 -800 0
-795 -800 0
796 1001 1056 1086 1091 0
-796 -1001 0
-796 -1056 0
-796 -1086 0
-796 -1091 0
-1001 -1056 0
-1001 -1086 0
-1001 -1091 0
-1056 -1086 0
-1056 -1091 0
-1086 -1091 0
797 1002 1057 1087 1092 0
-797 -1002 0
-797 -1057 0
-797 -1087 0
-797 -1092 0
-1002 -1057 0
-1002 -1087 0
-1002 -1092 0
-1057 -1087 0
-1057 -1092 0
-1087 -1092 0
798 1003 1058 1088 1093 0
-798 -1003 0
-798 -1058 0
-798 -1088 0
-798 -1093 0
-1003 -1058 0
-1003 -1088 0
-1003 -1093 0
-1058 -1088 0
-1058 -1093 0
-1088 -1093 0
799 1004 1059 1089 1094 0
-799 -1004 0
-799 -1059 0
-799 -1089 0
-799 -1094 0
-1004 -1059 0
-1004 -1089 0
-1004 -1094 0
-1059 -1089 0
-1059 -1094 0
-1089 -1094 0
800 1005 1060 1090 1095 0
-800 -1005 0
-800 -1060 0
-800 -1090 0
-800 -1095 0
-1005 -1060 0
-1005 -1090 0
-1005 -1095 0
-1060 -1090 0
-1060 -1095 0
-1090 -1095 0
846 1306 1316 1321 1326 0
-846 -1306 0
-846 -1316 0
-846 -1321 0
-846 -1326 0
-1306 -1316 0
-1306 -1321 0
-1306 -1326 0
-1316 -1321 0
-1316 -1326 0
-1321 -1326 0
847 1307 1317 1322 1327 0
-847 -1307 0
-847 -1317 0
-847 -1322 0
-847 -1327 0
-1307 -1317 0
-1307 -1322 0
-1307 -1327 0
-1317 -1322 0
-1317 -1327 0
-1322 -1327 0
848 1308 1318 1323 1328 0
-848 -1308 0
-848 -1318 0
-848 -1323 0
-848 -1328 0
-1308 -1318 0
-1308 -1323 0
-1308 -1328 0
-1318 -1323 0
-1318 -1328 0
-1323 -1328 0
849 1309 1319 1324 1329 0
-849 -1309 0
-849 -1319 0
-849 -1324 0
-849 -1329 0
-1309 -1319 0
-1309 -1324 0
-1309 -1329 0
-1319 -1324 0
-1319 -1329 0
-1324 -1329 0
850 1310 1320 1325 1330 0
-850 -1310 0
-850 -1320 0
-850 -1325 0
-850 -1330 0
-1310 -1320 0
-1310 -1325 0
-1310 -1330 0
-1320 -1325 0
-1320 -1330 0
-1325 -1330 0
871 981 1321 1411 1416 0
-871 -981 0
-871 -1321 0
-871 -1411 0
-871 -1416 0
-981 -1321 0
-981 -1411 0
-981 -1416 0
-1321 -1411 0
-1321 -1416 0
-1411 -1416 0
872 982 1322 1412 1417 0
-872 -982 0
-872 -1322 0
-872 -1412 0
-872 -1417 0
-982 -1322 0
-982 -1412 0
-982 -1417 0
-1322 -1412 0
-1322 -1417 0
-1412 -1417 0
873 983 1323 1413 1418 0
-873 -983 0
-873 -1323 0
-873 -1413 0
-873 -1418 0
-983 -1323 0
-983 -1413 0
-983 -1418 0
-1323 -1413 0
-1323 -1418 0
-1413 -1418 0
874 984 1324 1414 1419 0
-874 -984 0
-874 -1324 0
-874 -1414 0
-874 -1419 0
-984 -1324 0
-984 -1414 0
-984 -1419 0
-1324 -1414 0
-1324 -1419 0
-1414 -1419 0
875 985 1325 1415 1420 0
-875 -985 0
-875 -1325 0
-875 -1415 0
-875 -1420 0
-985 -1325 0
-985 -1415 0
-985 -1420 0
-1325 -1415 0
-1325 -1420 0
-1415 -1420 0
881 1171 1281 1381 1391 0
-881 -1171 0
-881 -1281 0
-881 -1381 0
-881 -1391 0
-1171 -1281 0
-1171 -1381 0
-1171 -1391 0
-1281 -1381 0
-1281 -1391 0
-1381 -1391 0
882 1172 1282 1382 1392 0
-882 -1172 0
-882 -1282 0
-882 -1382 0
-882 -1392 0
-1172 -1282 0
-1172 -1382 0
-1172 -1392 0
-1282 -1382 0
-1282 -1392 0
-1382 -1392 0
883 1173 1283 1383 1393 0
-883 -1173 0
-883 -1283 0
-883 -1383 0
-883 -1393 0
-1173 -1283 0
-1173 -1383 0
-1173 -1393 0
-1283 -1383 0
-1283 -1393 0
-1383 -1393 0
884 1174 1284 1384 1394 0
-884 -1174 0
-884 -1284 0
-884 -1384 0
-884 -1394 0
-1174 -1284 0
-1174 -1384 0
-1174 -1394 0
-1284 -1384 0
-1284 -1394 0
-1384 -1394 0
885 1175 1285 1385 1395 0
-885 -1175 0
-885 -1285 0
-885 -1385 0
-885 -1395 0
-1175 -1285 0
-1175 -1385 0
-1175 -1395 0
-1285 -1385 0
-1285 -1395 0
-1385 -1395 0
911 1001 1141 1161 1181 0
-911 -1001 0
-911 -1141 0
-911 -1161 0
-911 -1181 0
-1001 -1141 0
-1001 -1161 0
-1001 -1181 0
-1141 -1161 0
-1141 -1181 0
-1161 -1181 0
912 1002 1142 1162 1182 0
-912 -1002 0
-912 -1142 0
-912 -1162 0
-912 -1182 0
-1002 -1142 0
-1002 -1162 0
-1002 -1182 0
-1142 -1162 0
-1142 -1182 0
-1162 -1182 0
913 1003 1143 1163 1183 0
-913 -1003 0
-913 -1143 0
-913 -1163 0
-913 -1183 0
-1003 -1143 0
-1003 -1163 0
-1003 -1183 0
-1143 -1163 0
-1143 -1183 0
-1163 -1183 0
914 1004 1144 1164 1184 0
-914 -1004 0
-914 -1144 0
-914 -1164 0
-914 -1184 0
-1004 -1144 0
-1004 -1164 0
-1004 -1184 0
-1144 -1164 0
-1144 -1184 0
-1164 -1184 0
915 1005 1145 1165 1185 0
-915 -1005 0
-915 -1145 0
-915 -1165 0
-915 -1185 0
-1005 -1145 0
-1005 -1165 0
-1005 -1185 0
-1145 -1165 0
-1145 -1185 0
-1165 -1185 0
916 1096 1191 1201 1206 0
-916 -1096 0
-916 -1191 0
-916 -1201 0
-916 -1206 0
-1096 -1191 0
-1096 -1201 0
-1096 -1206 0
-1191 -1201 0
-1191 -1206 0
-1201 -1206 0
917 1097 1192 1202 1207 0
-917 -1097 0
-917 -1192 0
-917 -1202 0
-917 -1207 0
-1097 -1192 0
-1097 -1202 0
-1097 -1207 0
-1192 -1202 0
-1192 -1207 0
-1202 -1207 0
918 1098 1193 1203 1208 0
-918 -1098 0
-918 -1193 0
-918 -1203 0
-918 -1208 0
-1098 -1193 0
-1098 -1203 0
-1098 -1208 0
-1193 -1203 0
-1193 -1208 0
-1203 -1208 0
919 1099 1194 1204 1209 0
-919 -1099 0
-919 -1194 0
-919 -1204 0
-919 -1209 0
-1099 -1194 0
-1099 -1204 0
-1099 -1209 0
-1194 -1204 0
-1194 -1209 0
-1204 -1209 0
920 1100 1195 1205 1210 0
-920 -1100 0
-920 -1195 0
-920 -1205 0
-920 -1210 0
-1100 -1195 0
-1100 -1205 0
-1100 -1210 0
-1195 -1205 0
-1195 -1210 0
-1205 -1210 0
926 1016 1201 1216 1241 0
-926 -1016 0
-926 -1201 0
-926 -1216 0
-926 -1241 0
-1016 -1201 0
-1016 -1216 0
-1016 -1241 0
-1201 -1216 0
-1201 -1241 0
-1216 -1241 0
927 1017 1202 1217 1242 0
-927 -1017 0
-927 -1202 0
-927 -1217 0
-927 -1242 0
-1017 -1202 0
-1017 -1217 0
-1017 -1242 0
-1202 -1217 0
-1202 -1242 0
-1217 -1242 0
928 1018 1203 1218 1243 0
-928 -1018 0
-928 -1203 0
-928 -1218 0
-928 -1243 0
-1018 -1203 0
-1018 -1218 0
-1018 -1243 0
-1203 -1218 0
-1203 -1243 0
-1218 -1243 0
929 1019 1204 1219 1244 0
-929 -1019 0
-929 -1204 0
-929 -1219 0
-929 -1244 0
-1019 -1204 0
-1019 -1219 0
-1019 -1244 0
-1204 -1219 0
-1204 -1244 0
-1219 -1244 0
930 1020 1205 1220 1245 0
-930 -1020 0
-930 -1205 0
-930 -1220 0
-930 -1245 0
-1020 -1205 0
-1020 -1220 0
-1020 -1245 0
-1205 -1220 0
-1205 -1245 0
-1220 -1245 0
936 1031 1266 1271 1276 0
-936 -1031 0
-936 -1266 0
-936 -1271 0
-936 -1276 0
-1031 -1266 0
-1031 -1271 0
-1031 -1276 0
-1266 -1271 0
-1266 -1276 0
-1271 -1276 0
937 1032 1267 1272 1277 0
-937 -1032 0
-937 -1267 0
-937 -1272 0
-937 -1277 0
-1032 -1267 0
-1032 -1272 0
-1032 -1277 0
-1267 -1272 0
-1267 -1277 0
-1272 -1277 0
938 1033 1268 1273 1278 0
-938 -1033 0
-938 -1268 0
-938 -1273 0
-938 -1278 0
-1033 -1268 0
-1033 -1273 0
-1033 -1278 0
-1268 -1273 0
-1268 -1278 0
-1273 -1278 0
939 1034 1269 1274 1279 0
-939 -1034 0
-939 -1269 0
-939 -1274 0
-939 -1279 0
-1034 -1269 0
-1034 -1274 0
-1034 -1279 0
-1269 -1274 0
-1269 -1279 0
-1274 -1279 0
940 1035 1270 1275 1280 0
-940 -1035 0
-940 -1270 0
-940 -1275 0
-940 -1280 0
-1035 -1270 0
-1035 -1275 0
-1035 -1280 0
-1270 -1275 0
-1270 -1280 0
-1275 -1280 0
961 1061 1356 1376 1381 0
-961 -1061 0
-961 -1356 0
-961 -1376 0
-961 -1381 0
-1061 -1356 0
-1061 -1376 0
-1061 -1381 0
-1356 -1376 0
-1356 -1381 0
-1376 -1381 0
962 1062 1357 1377 1382 0
-962 -1062 0
-962 -1357 0
-962 -1377 0
-962 -1382 0
-1062 -1357 0
-1062 -1377 0
-1062 -1382 0
-1357 -1377 0
-1357 -1382 0
-1377 -1382 0
963 1063 1358 1378 1383 0
-963 -1063 0
-963 -1358 0
-963 -1378 0
-963 -1383 0
-1063 -1358 0
-1063 -1378 0
-1063 -1383 0
-1358 -1378 0
-1358 -1383 0
-1378 -1383 0
964 1064 1359 1379 1384 0
-964 -1064 0
-964 -1359 0
-964 -1379 0
-964 -1384 0
-1064 -1359 0
-1064 -1379 0
-1064 -1384 0
-1359 -1379 0
-1359 -1384 0
-1379 -1384 0
965 1065 1360 1380 1385 0
-965 -1065 0
-965 -1360 0
-965 -1380 0
-965 -1385 0
-1065 -1360 0
-1065 -1380 0
-1065 -1385 0
-1360 -1380 0
-1360 -1385 0
-1380 -1385 0
1011 1026 1031 1036 1041 0
-1011 -1026 0
-1011 -1031 0
-1011 -1036 0
-1011 -1041 0
-1026 -1031 0
-1026 -1036 0
-1026 -1041 0
-1031 -1036 0
-1031 -1041 0
-1036 -1041 0
1012 1027 1032 1037 1042 0
-1012 -1027 0
-1012 -1032 0
-1012 -1037 0
-1012 -1042 0
-1027 -1032 0
-1027 -1037 0
-1027 -1042 0
-1032 -1037 0
-1032 -1042 0
-1037 -1042 0
1013 1028 1033 1038 1043 0
-1013 -1028 0
-1013 -1033 0
-1013 -1038 0
-1013 -1043 0
-1028 -1033 0
-1028 -1038 0
-1028 -1043 0
-1033 -1038 0
-1033 -1043 0
-1038 -1043 0
1014 1029 1034 1039 1044 0
-1014 -1029 0
-1014 -1034 0
-1014 -1039 0
-1014 -1044 0
-1029 -1034 0
-1029 -1039 0
-1029 -1044 0
-1034 -1039 0
-1034 -1044 0
-1039 -1044 0
1015 1030 1035 1040 1045 0
-1015 -1030 0
-1015 -1035 0
-1015 -1040 0
-1015 -1045 0
-1030 -1035 0
-1030 -1040 0
-1030 -1045 0
-1035 -1040 0
-1035 -1045 0
-1040 -1045 0
1041 1051 1076 1081 1086 0
-1041 -1051 0
-1041 -1076 0
-1041 -1081 0
-1041 -1086 0
-1051 -1076 0
-1051 -1081 0
-1051 -1086 0
-1076 -1081 0
-1076 -1086 0
-1081 -1086 0
1042 1052 1077 1082 1087 0
-1042 -1052 0
-1042 -1077 0
-1042 -1082 0
-1042 -1087 0
-1052 -1077 0
-1052 -1082 0
-1052 -1087 0
-1077 -1082 0
-1077 -1087 0
-1082 -1087 0
1043 1053 1078 1083 1088 0
-1043 -1053 0
-1043 -1078 0
-1043 -1083 0
-1043 -1088 0
-1053 -1078 0
-1053 -1083 0
-1053 -1088 0
-1078 -1083 0
-1078 -1088 0
-1083 -1088 0
1044 1054 1079 1084 1089 0
-1044 -1054 0
-1044 -1079 0
-1044 -1084 0
-1044 -1089 0
-1054 -1079 0
-1054 -1084 0
-1054 -1089 0
-1079 -1084 0
-1079 -1089 0
-1084 -1089 0
1045 1055 1080 1085 1090 0
-1045 -1055 0
-1045 -1080 0
-1045 -1085 0
-1045 -1090 0
-1055 -1080 0
-1055 -1085 0
-1055 -1090 0
-1080 -1085 0
-1080 -1090 0
-1085 -1090 0
1166 1236 1326 1376 1416 0
-1166 -1236 0
-1166 -1326 0
-1166 -1376 0
-1166 -1416 0
-1236 -1326 0
-1236 -1376 0
-1236 -1416 0
-1326 -1376 0
-1326 -1416 0
-1376 -1416 0
1167 1237 1327 1377 1417 0
-1167 -1237 0
-1167 -1327 0
-1167 -1377 0
-1167 -1417 0
-1237 -1327 0
-1237 -1377 0
-1237 -1417 0
-1327 -1377 0
-1327 -1417 0
-1377 -1417 0
1168 1238 1328 1378 1418 0
-1168 -1238 0
-1168 -1328 0
-1168 -1378 0
-1168 -1418 0
-1238 -1328 0
-1238 -1378 0
-1238 -1418 0
-1328 -1378 0
-1328 -1418 0
-1378 -1418 0
1169 1239 1329 1379 1419 0
-1169 -1239 0
-1169 -1329 0
-1169 -1379 0
-1169 -1419 0
-1239 -1329 0
-1239 -1379 0
-1239 -1419 0
-1329 -1379 0
-1329 -1419 0
-1379 -1419 0
1170 1240 1330 1380 1420 0
-1170 -1240 0
-1170 -1330 0
-1170 -1380 0
-1170 -1420 0
-1240 -1330 0
-1240 -1380 0
-1240 -1420 0
-1330 -1380 0
-1330 -1420 0
-1380 -1420 0
1261 1361 1366 1371 1376 0
-1261 -1361 0
-1261 -1366 0
-1261 -1371 0
-1261 -1376 0
-1361 -1366 0
-1361 -1371 0
-1361 -1376 0
-1366 -1371 0
-1366 -1376 0
-1371 -1376 0
1262 1362 1367 1372 1377 0
-1262 -1362 0
-1262 -1367 0
-1262 -1372 0
-1262 -1377 0
-1362 -1367 0
-1362 -1372 0
-1362 -1377 0
-1367 -1372 0
-1367 -1377 0
-1372 -1377 0
1263 1363 1368 1373 1378 0
-1263 -1363 0
-1263 -1368 0
-1263 -1373 0
-1263 -1378 0
-1363 -1368 0
-1363 -1373 0
-1363 -1378 0
-1368 -1373 0
-1368 -1378 0
-1373 -1378 0
1264 1364 1369 1374 1379 0
-1264 -1364 0
-1264 -1369 0
-1264 -1374 0
-1264 -1379 0
-1364 -1369 0
-1364 -1374 0
-1364 -1379 0
-1369 -1374 0
-1369 -1379 0
-1374 -1379 0
1265 1365 1370 1375 1380 0
-1265 -1365 0
-1265 -1370 0
-1265 -1375 0
-1265 -1380 0
-1365 -1370 0
-1365 -1375 0
-1365 -1380 0
-1370 -1375 0
-1370 -1380 0
-1375 -1380 0
1276 1311 1356 1391 1401 0
-1276 -1311 0
-1276 -1356 0
-1276 -1391 0
-1276 -1401 0
-1311 -1356 0
-1311 -1391 0
-1311 -1401 0
-1356 -1391 0
-1356 -1401 0
-1391 -1401 0
1277 1312 1357 1392 1402 0
-1277 -1312 0
-1277 -1357 0
-1277 -1392 0
-1277 -1402 0
-1312 -1357 0
-1312 -1392 0
-1312 -1402 0
-1357 -1392 0
-1357 -1402 0
-1392 -1402 0
1278 1313 1358 1393 1403 0
-1278 -1313 0
-1278 -1358 0
-1278 -1393 0
-1278 -1403 0
-1313 -1358 0
-1313 -1393 0
-1313 -1403 0
-1358 -1393 0
-1358 -1403 0
-1393 -1403 0
1279 1314 1359 1394 1404 0
-1279 -1314 0
-1279 -1359 0
-1279 -1394 0
-1279 -1404 0
-1314 -1359 0
-1314 -1394 0
-1314 -1404 0
-1359 -1394 0
-1359 -1404 0
-1394 -1404 0
1280 1315 1360 1395 1405 0
-1280 -1315 0
-1280 -1360 0
-1280 -1395 0
-1280 -1405 0
-1315 -1360 0
-1315 -1395 0
-1315 -1405 0
-1360 -1395 0
-1360 -1405 0
-1395 -1405 0
1 0
7 0
13 0
19 0
25 0
