p cnf 288 3018
1 2 3 4 0
-1 -2 0
-1 -3 0
-1 -4 0
-2 -3 0
-2 -4 0
-3 -4 0
-1 0
5 6 7 8 0
-5 -6 0
-5 -7 0
-5 -8 0
-6 -7 0
-6 -8 0
-7 -8 0
-6 0
9 10 11 12 0
-9 -10 0
-9 -11 0
-9 -12 0
-10 -11 0
-10 -12 0
-11 -12 0
-11 0
13 14 15 16 0
-13 -14 0
-13 -15 0
-13 -16 0
-14 -15 0
-14 -16 0
-15 -16 0
-16 0
17 18 19 20 0
-17 -18 0
-17 -19 0
-17 -20 0
-18 -19 0
-18 -20 0
-19 -20 0
-17 0
21 22 23 24 0
-21 -22 0
-21 -23 0
-21 -24 0
-22 -23 0
-22 -24 0
-23 -24 0
-22 0
25 26 27 28 0
-25 -26 0
-25 -27 0
-25 -28 0
-26 -27 0
-26 -28 0
-27 -28 0
-27 0
29 30 31 32 0
-29 -30 0
-29 -31 0
-29 -32 0
-30 -31 0
-30 -32 0
-31 -32 0
-32 0
33 34 35 36 0
-33 -34 0
-33 -35 0
-33 -36 0
-34 -35 0
-34 -36 0
-35 -36 0
-33 0
37 38 39 40 0
-37 -38 0
-37 -39 0
-37 -40 0
-38 -39 0
-38 -40 0
-39 -40 0
-38 0
41 42 43 44 0
-41 -42 0
-41 -43 0
-41 -44 0
-42 -43 0
-42 -44 0
-43 -44 0
-43 0
45 46 47 48 0
-45 -46 0
-45 -47 0
-45 -48 0
-46 -47 0
-46 -48 0
-47 -48 0
-48 0
1 5 9 13 0
-1 -5 0
-1 -9 0
-1 -13 0
-5 -9 0
-5 -13 0
-9 -13 0
2 6 10 14 0
-2 -6 0
-2 -10 0
-2 -14 0
-6 -10 0
-6 -14 0
-10 -14 0
3 7 11 15 0
-3 -7 0
-3 -11 0
-3 -15 0
-7 -11 0
-7 -15 0
-11 -15 0
4 8 12 16 0
-4 -8 0
-4 -12 0
-4 -16 0
-8 -12 0
-8 -16 0
-12 -16 0
17 21 25 29 0
-17 -21 0
-17 -25 0
-17 -29 0
-21 -25 0
-21 -29 0
-25 -29 0
18 22 26 30 0
-18 -22 0
-18 -26 0
-18 -30 0
-22 -26 0
-22 -30 0
-26 -30 0
19 23 27 31 0
-19 -23 0
-19 -27 0
-19 -31 0
-23 -27 0
-23 -31 0
-27 -31 0
20 24 28 32 0
-20 -24 0
-20 -28 0
-20 -32 0
-24 -28 0
-24 -32 0
-28 -32 0
33 37 41 45 0
-33 -37 0
-33 -41 0
-33 -45 0
-37 -41 0
-37 -45 0
-41 -45 0
34 38 42 46 0
-34 -38 0
-34 -42 0
-34 -46 0
-38 -42 0
-38 -46 0
-42 -46 0
35 39 43 47 0
-35 -39 0
-35 -43 0
-35 -47 0
-39 -43 0
-39 -47 0
-43 -47 0
36 40 44 48 0
-36 -40 0
-36 -44 0
-36 -48 0
-40 -44 0
-40 -48 0
-44 -48 0
2 18 34 0
-2 -18 0
-2 -34 0
-18 -34 0
3 19 35 0
-3 -19 0
-3 -35 0
-19 -35 0
4 20 36 0
-4 -20 0
-4 -36 0
-20 -36 0
5 21 37 0
-5 -21 0
-5 -37 0
-21 -37 0
7 23 39 0
-7 -23 0
-7 -39 0
-23 -39 0
8 24 40 0
-8 -24 0
-8 -40 0
-24 -40 0
9 25 41 0
-9 -25 0
-9 -41 0
-25 -41 0
10 26 42 0
-10 -26 0
-10 -42 0
-26 -42 0
12 28 44 0
-12 -28 0
-12 -44 0
-28 -44 0
13 29 45 0
-13 -29 0
-13 -45 0
-29 -45 0
14 30 46 0
-14 -30 0
-14 -46 0
-30 -46 0
15 31 47 0
-15 -31 0
-15 -47 0
-31 -47 0
49 50 51 52 53 0
-49 -50 0
-49 -51 0
-49 -52 0
-49 -53 0
-50 -51 0
-50 -52 0
-50 -53 0
-51 -52 0
-51 -53 0
-52 -53 0
-49 0
-50 0
54 55 56 57 58 0
-54 -55 0
-54 -56 0
-54 -57 0
-54 -58 0
-55 -56 0
-55 -57 0
-55 -58 0
-56 -57 0
-56 -58 0
-57 -58 0
-54 0
-56 0
59 60 61 62 63 0
-59 -60 0
-59 -61 0
-59 -62 0
-59 -63 0
-60 -61 0
-60 -62 0
-60 -63 0
-61 -62 0
-61 -63 0
-62 -63 0
-59 0
-62 0
64 65 66 67 68 0
-64 -65 0
-64 -66 0
-64 -67 0
-64 -68 0
-65 -66 0
-65 -67 0
-65 -68 0
-66 -67 0
-66 -68 0
-67 -68 0
-65 0
-66 0
69 70 71 72 73 0
-69 -70 0
-69 -71 0
-69 -72 0
-69 -73 0
-70 -71 0
-70 -72 0
-70 -73 0
-71 -72 0
-71 -73 0
-72 -73 0
-70 0
-72 0
74 75 76 77 78 0
-74 -75 0
-74 -76 0
-74 -77 0
-74 -78 0
-75 -76 0
-75 -77 0
-75 -78 0
-76 -77 0
-76 -78 0
-77 -78 0
-76 0
-77 0
79 80 81 82 83 0
-79 -80 0
-79 -81 0
-79 -82 0
-79 -83 0
-80 -81 0
-80 -82 0
-80 -83 0
-81 -82 0
-81 -83 0
-82 -83 0
-79 0
-80 0
84 85 86 87 88 0
-84 -85 0
-84 -86 0
-84 -87 0
-84 -88 0
-85 -86 0
-85 -87 0
-85 -88 0
-86 -87 0
-86 -88 0
-87 -88 0
-84 0
-86 0
89 90 91 92 93 0
-89 -90 0
-89 -91 0
-89 -92 0
-89 -93 0
-90 -91 0
-90 -92 0
-90 -93 0
-91 -92 0
-91 -93 0
-92 -93 0
-89 0
-92 0
94 95 96 97 98 0
-94 -95 0
-94 -96 0
-94 -97 0
-94 -98 0
-95 -96 0
-95 -97 0
-95 -98 0
-96 -97 0
-96 -98 0
-97 -98 0
-95 0
-96 0
99 100 101 102 103 0
-99 -100 0
-99 -101 0
-99 -102 0
-99 -103 0
-100 -101 0
-100 -102 0
-100 -103 0
-101 -102 0
-101 -103 0
-102 -103 0
-100 0
-102 0
104 105 106 107 108 0
-104 -105 0
-104 -106 0
-104 -107 0
-104 -108 0
-105 -106 0
-105 -107 0
-105 -108 0
-106 -107 0
-106 -108 0
-107 -108 0
-106 0
-107 0
109 110 111 112 113 0
-109 -110 0
-109 -111 0
-109 -112 0
-109 -113 0
-110 -111 0
-110 -112 0
-110 -113 0
-111 -112 0
-111 -113 0
-112 -113 0
-109 0
-110 0
114 115 116 117 118 0
-114 -115 0
-114 -116 0
-114 -117 0
-114 -118 0
-115 -116 0
-115 -117 0
-115 -118 0
-116 -117 0
-116 -118 0
-117 -118 0
-114 0
-116 0
119 120 121 122 123 0
-119 -120 0
-119 -121 0
-119 -122 0
-119 -123 0
-120 -121 0
-120 -122 0
-120 -123 0
-121 -122 0
-121 -123 0
-122 -123 0
-119 0
-122 0
124 125 126 127 128 0
-124 -125 0
-124 -126 0
-124 -127 0
-124 -128 0
-125 -126 0
-125 -127 0
-125 -128 0
-126 -127 0
-126 -128 0
-127 -128 0
-125 0
-126 0
129 130 131 132 133 0
-129 -130 0
-129 -131 0
-129 -132 0
-129 -133 0
-130 -131 0
-130 -132 0
-130 -133 0
-131 -132 0
-131 -133 0
-132 -133 0
-130 0
-132 0
134 135 136 137 138 0
-134 -135 0
-134 -136 0
-134 -137 0
-134 -138 0
-135 -136 0
-135 -137 0
-135 -138 0
-136 -137 0
-136 -138 0
-137 -138 0
-136 0
-137 0
50 55 60 2 0
-50 -55 0
-50 -60 0
-50 -2 0
-55 -60 0
-55 -2 0
-60 -2 0
51 56 61 3 0
-51 -56 0
-51 -61 0
-51 -3 0
-56 -61 0
-56 -3 0
-61 -3 0
52 57 62 4 0
-52 -57 0
-52 -62 0
-52 -4 0
-57 -62 0
-57 -4 0
-62 -4 0
53 58 63 0
-53 -58 0
-53 -63 0
-58 -63 0
49 64 69 5 0
-49 -64 0
-49 -69 0
-49 -5 0
-64 -69 0
-64 -5 0
-69 -5 0
51 66 71 7 0
-51 -66 0
-51 -71 0
-51 -7 0
-66 -71 0
-66 -7 0
-71 -7 0
52 67 72 8 0
-52 -67 0
-52 -72 0
-52 -8 0
-67 -72 0
-67 -8 0
-72 -8 0
53 68 73 0
-53 -68 0
-53 -73 0
-68 -73 0
54 64 74 9 0
-54 -64 0
-54 -74 0
-54 -9 0
-64 -74 0
-64 -9 0
-74 -9 0
55 65 75 10 0
-55 -65 0
-55 -75 0
-55 -10 0
-65 -75 0
-65 -10 0
-75 -10 0
57 67 77 12 0
-57 -67 0
-57 -77 0
-57 -12 0
-67 -77 0
-67 -12 0
-77 -12 0
58 68 78 0
-58 -68 0
-58 -78 0
-68 -78 0
59 69 74 13 0
-59 -69 0
-59 -74 0
-59 -13 0
-69 -74 0
-69 -13 0
-74 -13 0
60 70 75 14 0
-60 -70 0
-60 -75 0
-60 -14 0
-70 -75 0
-70 -14 0
-75 -14 0
61 71 76 15 0
-61 -71 0
-61 -76 0
-61 -15 0
-71 -76 0
-71 -15 0
-76 -15 0
63 73 78 0
-63 -73 0
-63 -78 0
-73 -78 0
80 85 90 18 0
-80 -85 0
-80 -90 0
-80 -18 0
-85 -90 0
-85 -18 0
-90 -18 0
81 86 91 19 0
-81 -86 0
-81 -91 0
-81 -19 0
-86 -91 0
-86 -19 0
-91 -19 0
82 87 92 20 0
-82 -87 0
-82 -92 0
-82 -20 0
-87 -92 0
-87 -20 0
-92 -20 0
83 88 93 0
-83 -88 0
-83 -93 0
-88 -93 0
79 94 99 21 0
-79 -94 0
-79 -99 0
-79 -21 0
-94 -99 0
-94 -21 0
-99 -21 0
81 96 101 23 0
-81 -96 0
-81 -101 0
-81 -23 0
-96 -101 0
-96 -23 0
-101 -23 0
82 97 102 24 0
-82 -97 0
-82 -102 0
-82 -24 0
-97 -102 0
-97 -24 0
-102 -24 0
83 98 103 0
-83 -98 0
-83 -103 0
-98 -103 0
84 94 104 25 0
-84 -94 0
-84 -104 0
-84 -25 0
-94 -104 0
-94 -25 0
-104 -25 0
85 95 105 26 0
-85 -95 0
-85 -105 0
-85 -26 0
-95 -105 0
-95 -26 0
-105 -26 0
87 97 107 28 0
-87 -97 0
-87 -107 0
-87 -28 0
-97 -107 0
-97 -28 0
-107 -28 0
88 98 108 0
-88 -98 0
-88 -108 0
-98 -108 0
89 99 104 29 0
-89 -99 0
-89 -104 0
-89 -29 0
-99 -104 0
-99 -29 0
-104 -29 0
90 100 105 30 0
-90 -100 0
-90 -105 0
-90 -30 0
-100 -105 0
-100 -30 0
-105 -30 0
91 101 106 31 0
-91 -101 0
-91 -106 0
-91 -31 0
-101 -106 0
-101 -31 0
-106 -31 0
93 103 108 0
-93 -103 0
-93 -108 0
-103 -108 0
110 115 120 34 0
-110 -115 0
-110 -120 0
-110 -34 0
-115 -120 0
-115 -34 0
-120 -34 0
111 116 121 35 0
-111 -116 0
-111 -121 0
-111 -35 0
-116 -121 0
-116 -35 0
-121 -35 0
112 117 122 36 0
-112 -117 0
-112 -122 0
-112 -36 0
-117 -122 0
-117 -36 0
-122 -36 0
113 118 123 0
-113 -118 0
-113 -123 0
-118 -123 0
109 124 129 37 0
-109 -124 0
-109 -129 0
-109 -37 0
-124 -129 0
-124 -37 0
-129 -37 0
111 126 131 39 0
-111 -126 0
-111 -131 0
-111 -39 0
-126 -131 0
-126 -39 0
-131 -39 0
112 127 132 40 0
-112 -127 0
-112 -132 0
-112 -40 0
-127 -132 0
-127 -40 0
-132 -40 0
113 128 133 0
-113 -128 0
-113 -133 0
-128 -133 0
114 124 134 41 0
-114 -124 0
-114 -134 0
-114 -41 0
-124 -134 0
-124 -41 0
-134 -41 0
115 125 135 42 0
-115 -125 0
-115 -135 0
-115 -42 0
-125 -135 0
-125 -42 0
-135 -42 0
117 127 137 44 0
-117 -127 0
-117 -137 0
-117 -44 0
-127 -137 0
-127 -44 0
-137 -44 0
118 128 138 0
-118 -128 0
-118 -138 0
-128 -138 0
119 129 134 45 0
-119 -129 0
-119 -134 0
-119 -45 0
-129 -134 0
-129 -45 0
-134 -45 0
120 130 135 46 0
-120 -130 0
-120 -135 0
-120 -46 0
-130 -135 0
-130 -46 0
-135 -46 0
121 131 136 47 0
-121 -131 0
-121 -136 0
-121 -47 0
-131 -136 0
-131 -47 0
-136 -47 0
123 133 138 0
-123 -133 0
-123 -138 0
-133 -138 0
51 81 111 0
-51 -81 0
-51 -111 0
-81 -111 0
52 82 112 0
-52 -82 0
-52 -112 0
-82 -112 0
53 83 113 0
-53 -83 0
-53 -113 0
-83 -113 0
55 85 115 0
-55 -85 0
-55 -115 0
-85 -115 0
57 87 117 0
-57 -87 0
-57 -117 0
-87 -117 0
58 88 118 0
-58 -88 0
-58 -118 0
-88 -118 0
60 90 120 0
-60 -90 0
-60 -120 0
-90 -120 0
61 91 121 0
-61 -91 0
-61 -121 0
-91 -121 0
63 93 123 0
-63 -93 0
-63 -123 0
-93 -123 0
64 94 124 0
-64 -94 0
-64 -124 0
-94 -124 0
67 97 127 0
-67 -97 0
-67 -127 0
-97 -127 0
68 98 128 0
-68 -98 0
-68 -128 0
-98 -128 0
69 99 129 0
-69 -99 0
-69 -129 0
-99 -129 0
71 101 131 0
-71 -101 0
-71 -131 0
-101 -131 0
73 103 133 0
-73 -103 0
-73 -133 0
-103 -133 0
74 104 134 0
-74 -104 0
-74 -134 0
-104 -134 0
75 105 135 0
-75 -105 0
-75 -135 0
-105 -135 0
78 108 138 0
-78 -108 0
-78 -138 0
-108 -138 0
139 140 141 142 143 0
-139 -140 0
-139 -141 0
-139 -142 0
-139 -143 0
-140 -141 0
-140 -142 0
-140 -143 0
-141 -142 0
-141 -143 0
-142 -143 0
144 145 146 147 148 0
-144 -145 0
-144 -146 0
-144 -147 0
-144 -148 0
-145 -146 0
-145 -147 0
-145 -148 0
-146 -147 0
-146 -148 0
-147 -148 0
149 150 151 152 153 0
-149 -150 0
-149 -151 0
-149 -152 0
-149 -153 0
-150 -151 0
-150 -152 0
-150 -153 0
-151 -152 0
-151 -153 0
-152 -153 0
154 155 156 157 158 0
-154 -155 0
-154 -156 0
-154 -157 0
-154 -158 0
-155 -156 0
-155 -157 0
-155 -158 0
-156 -157 0
-156 -158 0
-157 -158 0
159 160 161 162 163 0
-159 -160 0
-159 -161 0
-159 -162 0
-159 -163 0
-160 -161 0
-160 -162 0
-160 -163 0
-161 -162 0
-161 -163 0
-162 -163 0
164 165 166 167 168 0
-164 -165 0
-164 -166 0
-164 -167 0
-164 -168 0
-165 -166 0
-165 -167 0
-165 -168 0
-166 -167 0
-166 -168 0
-167 -168 0
169 170 171 172 173 0
-169 -170 0
-169 -171 0
-169 -172 0
-169 -173 0
-170 -171 0
-170 -172 0
-170 -173 0
-171 -172 0
-171 -173 0
-172 -173 0
174 175 176 177 178 0
-174 -175 0
-174 -176 0
-174 -177 0
-174 -178 0
-175 -176 0
-175 -177 0
-175 -178 0
-176 -177 0
-176 -178 0
-177 -178 0
179 180 181 182 183 0
-179 -180 0
-179 -181 0
-179 -182 0
-179 -183 0
-180 -181 0
-180 -182 0
-180 -183 0
-181 -182 0
-181 -183 0
-182 -183 0
184 185 186 187 188 0
-184 -185 0
-184 -186 0
-184 -187 0
-184 -188 0
-185 -186 0
-185 -187 0
-185 -188 0
-186 -187 0
-186 -188 0
-187 -188 0
189 190 191 192 193 0
-189 -190 0
-189 -191 0
-189 -192 0
-189 -193 0
-190 -191 0
-190 -192 0
-190 -193 0
-191 -192 0
-191 -193 0
-192 -193 0
194 195 196 197 198 0
-194 -195 0
-194 -196 0
-194 -197 0
-194 -198 0
-195 -196 0
-195 -197 0
-195 -198 0
-196 -197 0
-196 -198 0
-197 -198 0
199 200 201 202 203 0
-199 -200 0
-199 -201 0
-199 -202 0
-199 -203 0
-200 -201 0
-200 -202 0
-200 -203 0
-201 -202 0
-201 -203 0
-202 -203 0
204 205 206 207 208 0
-204 -205 0
-204 -206 0
-204 -207 0
-204 -208 0
-205 -206 0
-205 -207 0
-205 -208 0
-206 -207 0
-206 -208 0
-207 -208 0
209 210 211 212 213 0
-209 -210 0
-209 -211 0
-209 -212 0
-209 -213 0
-210 -211 0
-210 -212 0
-210 -213 0
-211 -212 0
-211 -213 0
-212 -213 0
214 215 216 217 218 0
-214 -215 0
-214 -216 0
-214 -217 0
-214 -218 0
-215 -216 0
-215 -217 0
-215 -218 0
-216 -217 0
-216 -218 0
-217 -218 0
219 220 221 222 223 0
-219 -220 0
-219 -221 0
-219 -222 0
-219 -223 0
-220 -221 0
-220 -222 0
-220 -223 0
-221 -222 0
-221 -223 0
-222 -223 0
224 225 226 227 228 0
-224 -225 0
-224 -226 0
-224 -227 0
-224 -228 0
-225 -226 0
-225 -227 0
-225 -228 0
-226 -227 0
-226 -228 0
-227 -228 0
139 144 49 1 5 0
-139 -144 0
-139 -49 0
-139 -1 0
-139 -5 0
-144 -49 0
-144 -1 0
-144 -5 0
-49 -1 0
-49 -5 0
-1 -5 0
140 145 50 2 6 0
-140 -145 0
-140 -50 0
-140 -2 0
-140 -6 0
-145 -50 0
-145 -2 0
-145 -6 0
-50 -2 0
-50 -6 0
-2 -6 0
141 146 51 3 7 0
-141 -146 0
-141 -51 0
-141 -3 0
-141 -7 0
-146 -51 0
-146 -3 0
-146 -7 0
-51 -3 0
-51 -7 0
-3 -7 0
142 147 52 4 8 0
-142 -147 0
-142 -52 0
-142 -4 0
-142 -8 0
-147 -52 0
-147 -4 0
-147 -8 0
-52 -4 0
-52 -8 0
-4 -8 0
143 148 53 0
-143 -148 0
-143 -53 0
-148 -53 0
139 149 79 17 21 0
-139 -149 0
-139 -79 0
-139 -17 0
-139 -21 0
-149 -79 0
-149 -17 0
-149 -21 0
-79 -17 0
-79 -21 0
-17 -21 0
140 150 80 18 22 0
-140 -150 0
-140 -80 0
-140 -18 0
-140 -22 0
-150 -80 0
-150 -18 0
-150 -22 0
-80 -18 0
-80 -22 0
-18 -22 0
141 151 81 19 23 0
-141 -151 0
-141 -81 0
-141 -19 0
-141 -23 0
-151 -81 0
-151 -19 0
-151 -23 0
-81 -19 0
-81 -23 0
-19 -23 0
142 152 82 20 24 0
-142 -152 0
-142 -82 0
-142 -20 0
-142 -24 0
-152 -82 0
-152 -20 0
-152 -24 0
-82 -20 0
-82 -24 0
-20 -24 0
143 153 83 0
-143 -153 0
-143 -83 0
-153 -83 0
144 149 109 33 37 0
-144 -149 0
-144 -109 0
-144 -33 0
-144 -37 0
-149 -109 0
-149 -33 0
-149 -37 0
-109 -33 0
-109 -37 0
-33 -37 0
145 150 110 34 38 0
-145 -150 0
-145 -110 0
-145 -34 0
-145 -38 0
-150 -110 0
-150 -34 0
-150 -38 0
-110 -34 0
-110 -38 0
-34 -38 0
146 151 111 35 39 0
-146 -151 0
-146 -111 0
-146 -35 0
-146 -39 0
-151 -111 0
-151 -35 0
-151 -39 0
-111 -35 0
-111 -39 0
-35 -39 0
147 152 112 36 40 0
-147 -152 0
-147 -112 0
-147 -36 0
-147 -40 0
-152 -112 0
-152 -36 0
-152 -40 0
-112 -36 0
-112 -40 0
-36 -40 0
148 153 113 0
-148 -153 0
-148 -113 0
-153 -113 0
154 159 54 1 9 0
-154 -159 0
-154 -54 0
-154 -1 0
-154 -9 0
-159 -54 0
-159 -1 0
-159 -9 0
-54 -1 0
-54 -9 0
-1 -9 0
155 160 55 2 10 0
-155 -160 0
-155 -55 0
-155 -2 0
-155 -10 0
-160 -55 0
-160 -2 0
-160 -10 0
-55 -2 0
-55 -10 0
-2 -10 0
156 161 56 3 11 0
-156 -161 0
-156 -56 0
-156 -3 0
-156 -11 0
-161 -56 0
-161 -3 0
-161 -11 0
-56 -3 0
-56 -11 0
-3 -11 0
157 162 57 4 12 0
-157 -162 0
-157 -57 0
-157 -4 0
-157 -12 0
-162 -57 0
-162 -4 0
-162 -12 0
-57 -4 0
-57 -12 0
-4 -12 0
158 163 58 0
-158 -163 0
-158 -58 0
-163 -58 0
154 164 84 17 25 0
-154 -164 0
-154 -84 0
-154 -17 0
-154 -25 0
-164 -84 0
-164 -17 0
-164 -25 0
-84 -17 0
-84 -25 0
-17 -25 0
155 165 85 18 26 0
-155 -165 0
-155 -85 0
-155 -18 0
-155 -26 0
-165 -85 0
-165 -18 0
-165 -26 0
-85 -18 0
-85 -26 0
-18 -26 0
156 166 86 19 27 0
-156 -166 0
-156 -86 0
-156 -19 0
-156 -27 0
-166 -86 0
-166 -19 0
-166 -27 0
-86 -19 0
-86 -27 0
-19 -27 0
157 167 87 20 28 0
-157 -167 0
-157 -87 0
-157 -20 0
-157 -28 0
-167 -87 0
-167 -20 0
-167 -28 0
-87 -20 0
-87 -28 0
-20 -28 0
158 168 88 0
-158 -168 0
-158 -88 0
-168 -88 0
159 164 114 33 41 0
-159 -164 0
-159 -114 0
-159 -33 0
-159 -41 0
-164 -114 0
-164 -33 0
-164 -41 0
-114 -33 0
-114 -41 0
-33 -41 0
160 165 115 34 42 0
-160 -165 0
-160 -115 0
-160 -34 0
-160 -42 0
-165 -115 0
-165 -34 0
-165 -42 0
-115 -34 0
-115 -42 0
-34 -42 0
161 166 116 35 43 0
-161 -166 0
-161 -116 0
-161 -35 0
-161 -43 0
-166 -116 0
-166 -35 0
-166 -43 0
-116 -35 0
-116 -43 0
-35 -43 0
162 167 117 36 44 0
-162 -167 0
-162 -117 0
-162 -36 0
-162 -44 0
-167 -117 0
-167 -36 0
-167 -44 0
-117 -36 0
-117 -44 0
-36 -44 0
163 168 118 0
-163 -168 0
-163 -118 0
-168 -118 0
169 174 59 1 13 0
-169 -174 0
-169 -59 0
-169 -1 0
-169 -13 0
-174 -59 0
-174 -1 0
-174 -13 0
-59 -1 0
-59 -13 0
-1 -13 0
170 175 60 2 14 0
-170 -175 0
-170 -60 0
-170 -2 0
-170 -14 0
-175 -60 0
-175 -2 0
-175 -14 0
-60 -2 0
-60 -14 0
-2 -14 0
171 176 61 3 15 0
-171 -176 0
-171 -61 0
-171 -3 0
-171 -15 0
-176 -61 0
-176 -3 0
-176 -15 0
-61 -3 0
-61 -15 0
-3 -15 0
172 177 62 4 16 0
-172 -177 0
-172 -62 0
-172 -4 0
-172 -16 0
-177 -62 0
-177 -4 0
-177 -16 0
-62 -4 0
-62 -16 0
-4 -16 0
173 178 63 0
-173 -178 0
-173 -63 0
-178 -63 0
169 179 89 17 29 0
-169 -179 0
-169 -89 0
-169 -17 0
-169 -29 0
-179 -89 0
-179 -17 0
-179 -29 0
-89 -17 0
-89 -29 0
-17 -29 0
170 180 90 18 30 0
-170 -180 0
-170 -90 0
-170 -18 0
-170 -30 0
-180 -90 0
-180 -18 0
-180 -30 0
-90 -18 0
-90 -30 0
-18 -30 0
171 181 91 19 31 0
-171 -181 0
-171 -91 0
-171 -19 0
-171 -31 0
-181 -91 0
-181 -19 0
-181 -31 0
-91 -19 0
-91 -31 0
-19 -31 0
172 182 92 20 32 0
-172 -182 0
-172 -92 0
-172 -20 0
-172 -32 0
-182 -92 0
-182 -20 0
-182 -32 0
-92 -20 0
-92 -32 0
-20 -32 0
173 183 93 0
-173 -183 0
-173 -93 0
-183 -93 0
174 179 119 33 45 0
-174 -179 0
-174 -119 0
-174 -33 0
-174 -45 0
-179 -119 0
-179 -33 0
-179 -45 0
-119 -33 0
-119 -45 0
-33 -45 0
175 180 120 34 46 0
-175 -180 0
-175 -120 0
-175 -34 0
-175 -46 0
-180 -120 0
-180 -34 0
-180 -46 0
-120 -34 0
-120 -46 0
-34 -46 0
176 181 121 35 47 0
-176 -181 0
-176 -121 0
-176 -35 0
-176 -47 0
-181 -121 0
-181 -35 0
-181 -47 0
-121 -35 0
-121 -47 0
-35 -47 0
177 182 122 36 48 0
-177 -182 0
-177 -122 0
-177 -36 0
-177 -48 0
-182 -122 0
-182 -36 0
-182 -48 0
-122 -36 0
-122 -48 0
-36 -48 0
178 183 123 0
-178 -183 0
-178 -123 0
-183 -123 0
184 189 64 5 9 0
-184 -189 0
-184 -64 0
-184 -5 0
-184 -9 0
-189 -64 0
-189 -5 0
-189 -9 0
-64 -5 0
-64 -9 0
-5 -9 0
185 190 65 6 10 0
-185 -190 0
-185 -65 0
-185 -6 0
-185 -10 0
-190 -65 0
-190 -6 0
-190 -10 0
-65 -6 0
-65 -10 0
-6 -10 0
186 191 66 7 11 0
-186 -191 0
-186 -66 0
-186 -7 0
-186 -11 0
-191 -66 0
-191 -7 0
-191 -11 0
-66 -7 0
-66 -11 0
-7 -11 0
187 192 67 8 12 0
-187 -192 0
-187 -67 0
-187 -8 0
-187 -12 0
-192 -67 0
-192 -8 0
-192 -12 0
-67 -8 0
-67 -12 0
-8 -12 0
188 193 68 0
-188 -193 0
-188 -68 0
-193 -68 0
184 194 94 21 25 0
-184 -194 0
-184 -94 0
-184 -21 0
-184 -25 0
-194 -94 0
-194 -21 0
-194 -25 0
-94 -21 0
-94 -25 0
-21 -25 0
185 195 95 22 26 0
-185 -195 0
-185 -95 0
-185 -22 0
-185 -26 0
-195 -95 0
-195 -22 0
-195 -26 0
-95 -22 0
-95 -26 0
-22 -26 0
186 196 96 23 27 0
-186 -196 0
-186 -96 0
-186 -23 0
-186 -27 0
-196 -96 0
-196 -23 0
-196 -27 0
-96 -23 0
-96 -27 0
-23 -27 0
187 197 97 24 28 0
-187 -197 0
-187 -97 0
-187 -24 0
-187 -28 0
-197 -97 0
-197 -24 0
-197 -28 0
-97 -24 0
-97 -28 0
-24 -28 0
188 198 98 0
-188 -198 0
-188 -98 0
-198 -98 0
189 194 124 37 41 0
-189 -194 0
-189 -124 0
-189 -37 0
-189 -41 0
-194 -124 0
-194 -37 0
-194 -41 0
-124 -37 0
-124 -41 0
-37 -41 0
190 195 125 38 42 0
-190 -195 0
-190 -125 0
-190 -38 0
-190 -42 0
-195 -125 0
-195 -38 0
-195 -42 0
-125 -38 0
-125 -42 0
-38 -42 0
191 196 126 39 43 0
-191 -196 0
-191 -126 0
-191 -39 0
-191 -43 0
-196 -126 0
-196 -39 0
-196 -43 0
-126 -39 0
-126 -43 0
-39 -43 0
192 197 127 40 44 0
-192 -197 0
-192 -127 0
-192 -40 0
-192 -44 0
-197 -127 0
-197 -40 0
-197 -44 0
-127 -40 0
-127 -44 0
-40 -44 0
193 198 128 0
-193 -198 0
-193 -128 0
-198 -128 0
199 204 69 5 13 0
-199 -204 0
-199 -69 0
-199 -5 0
-199 -13 0
-204 -69 0
-204 -5 0
-204 -13 0
-69 -5 0
-69 -13 0
-5 -13 0
200 205 70 6 14 0
-200 -205 0
-200 -70 0
-200 -6 0
-200 -14 0
-205 -70 0
-205 -6 0
-205 -14 0
-70 -6 0
-70 -14 0
-6 -14 0
201 206 71 7 15 0
-201 -206 0
-201 -71 0
-201 -7 0
-201 -15 0
-206 -71 0
-206 -7 0
-206 -15 0
-71 -7 0
-71 -15 0
-7 -15 0
202 207 72 8 16 0
-202 -207 0
-202 -72 0
-202 -8 0
-202 -16 0
-207 -72 0
-207 -8 0
-207 -16 0
-72 -8 0
-72 -16 0
-8 -16 0
203 208 73 0
-203 -208 0
-203 -73 0
-208 -73 0
199 209 99 21 29 0
-199 -209 0
-199 -99 0
-199 -21 0
-199 -29 0
-209 -99 0
-209 -21 0
-209 -29 0
-99 -21 0
-99 -29 0
-21 -29 0
200 210 100 22 30 0
-200 -210 0
-200 -100 0
-200 -22 0
-200 -30 0
-210 -100 0
-210 -22 0
-210 -30 0
-100 -22 0
-100 -30 0
-22 -30 0
201 211 101 23 31 0
-201 -211 0
-201 -101 0
-201 -23 0
-201 -31 0
-211 -101 0
-211 -23 0
-211 -31 0
-101 -23 0
-101 -31 0
-23 -31 0
202 212 102 24 32 0
-202 -212 0
-202 -102 0
-202 -24 0
-202 -32 0
-212 -102 0
-212 -24 0
-212 -32 0
-102 -24 0
-102 -32 0
-24 -32 0
203 213 103 0
-203 -213 0
-203 -103 0
-213 -103 0
204 209 129 37 45 0
-204 -209 0
-204 -129 0
-204 -37 0
-204 -45 0
-209 -129 0
-209 -37 0
-209 -45 0
-129 -37 0
-129 -45 0
-37 -45 0
205 210 130 38 46 0
-205 -210 0
-205 -130 0
-205 -38 0
-205 -46 0
-210 -130 0
-210 -38 0
-210 -46 0
-130 -38 0
-130 -46 0
-38 -46 0
206 211 131 39 47 0
-206 -211 0
-206 -131 0
-206 -39 0
-206 -47 0
-211 -131 0
-211 -39 0
-211 -47 0
-131 -39 0
-131 -47 0
-39 -47 0
207 212 132 40 48 0
-207 -212 0
-207 -132 0
-207 -40 0
-207 -48 0
-212 -132 0
-212 -40 0
-212 -48 0
-132 -40 0
-132 -48 0
-40 -48 0
208 213 133 0
-208 -213 0
-208 -133 0
-213 -133 0
214 219 74 9 13 0
-214 -219 0
-214 -74 0
-214 -9 0
-214 -13 0
-219 -74 0
-219 -9 0
-219 -13 0
-74 -9 0
-74 -13 0
-9 -13 0
215 220 75 10 14 0
-215 -220 0
-215 -75 0
-215 -10 0
-215 -14 0
-220 -75 0
-220 -10 0
-220 -14 0
-75 -10 0
-75 -14 0
-10 -14 0
216 221 76 11 15 0
-216 -221 0
-216 -76 0
-216 -11 0
-216 -15 0
-221 -76 0
-221 -11 0
-221 -15 0
-76 -11 0
-76 -15 0
-11 -15 0
217 222 77 12 16 0
-217 -222 0
-217 -77 0
-217 -12 0
-217 -16 0
-222 -77 0
-222 -12 0
-222 -16 0
-77 -12 0
-77 -16 0
-12 -16 0
218 223 78 0
-218 -223 0
-218 -78 0
-223 -78 0
214 224 104 25 29 0
-214 -224 0
-214 -104 0
-214 -25 0
-214 -29 0
-224 -104 0
-224 -25 0
-224 -29 0
-104 -25 0
-104 -29 0
-25 -29 0
215 225 105 26 30 0
-215 -225 0
-215 -105 0
-215 -26 0
-215 -30 0
-225 -105 0
-225 -26 0
-225 -30 0
-105 -26 0
-105 -30 0
-26 -30 0
216 226 106 27 31 0
-216 -226 0
-216 -106 0
-216 -27 0
-216 -31 0
-226 -106 0
-226 -27 0
-226 -31 0
-106 -27 0
-106 -31 0
-27 -31 0
217 227 107 28 32 0
-217 -227 0
-217 -107 0
-217 -28 0
-217 -32 0
-227 -107 0
-227 -28 0
-227 -32 0
-107 -28 0
-107 -32 0
-28 -32 0
218 228 108 0
-218 -228 0
-218 -108 0
-228 -108 0
219 224 134 41 45 0
-219 -224 0
-219 -134 0
-219 -41 0
-219 -45 0
-224 -134 0
-224 -41 0
-224 -45 0
-134 -41 0
-134 -45 0
-41 -45 0
220 225 135 42 46 0
-220 -225 0
-220 -135 0
-220 -42 0
-220 -46 0
-225 -135 0
-225 -42 0
-225 -46 0
-135 -42 0
-135 -46 0
-42 -46 0
221 226 136 43 47 0
-221 -226 0
-221 -136 0
-221 -43 0
-221 -47 0
-226 -136 0
-226 -43 0
-226 -47 0
-136 -43 0
-136 -47 0
-43 -47 0
222 227 137 44 48 0
-222 -227 0
-222 -137 0
-222 -44 0
-222 -48 0
-227 -137 0
-227 -44 0
-227 -48 0
-137 -44 0
-137 -48 0
-44 -48 0
223 228 138 0
-223 -228 0
-223 -138 0
-228 -138 0
229 230 231 232 233 0
-229 -230 0
-229 -231 0
-229 -232 0
-229 -233 0
-230 -231 0
-230 -232 0
-230 -233 0
-231 -232 0
-231 -233 0
-232 -233 0
234 235 236 237 238 0
-234 -235 0
-234 -236 0
-234 -237 0
-234 -238 0
-235 -236 0
-235 -237 0
-235 -238 0
-236 -237 0
-236 -238 0
-237 -238 0
239 240 241 242 243 0
-239 -240 0
-239 -241 0
-239 -242 0
-239 -243 0
-240 -241 0
-240 -242 0
-240 -243 0
-241 -242 0
-241 -243 0
-242 -243 0
244 245 246 247 248 0
-244 -245 0
-244 -246 0
-244 -247 0
-244 -248 0
-245 -246 0
-245 -247 0
-245 -248 0
-246 -247 0
-246 -248 0
-247 -248 0
249 250 251 252 253 0
-249 -250 0
-249 -251 0
-249 -252 0
-249 -253 0
-250 -251 0
-250 -252 0
-250 -253 0
-251 -252 0
-251 -253 0
-252 -253 0
254 255 256 257 258 0
-254 -255 0
-254 -256 0
-254 -257 0
-254 -258 0
-255 -256 0
-255 -257 0
-255 -258 0
-256 -257 0
-256 -258 0
-257 -258 0
259 260 261 262 263 0
-259 -260 0
-259 -261 0
-259 -262 0
-259 -263 0
-260 -261 0
-260 -262 0
-260 -263 0
-261 -262 0
-261 -263 0
-262 -263 0
264 265 266 267 268 0
-264 -265 0
-264 -266 0
-264 -267 0
-264 -268 0
-265 -266 0
-265 -267 0
-265 -268 0
-266 -267 0
-266 -268 0
-267 -268 0
269 270 271 272 273 0
-269 -270 0
-269 -271 0
-269 -272 0
-269 -273 0
-270 -271 0
-270 -272 0
-270 -273 0
-271 -272 0
-271 -273 0
-272 -273 0
274 275 276 277 278 0
-274 -275 0
-274 -276 0
-274 -277 0
-274 -278 0
-275 -276 0
-275 -277 0
-275 -278 0
-276 -277 0
-276 -278 0
-277 -278 0
279 280 281 282 283 0
-279 -280 0
-279 -281 0
-279 -282 0
-279 -283 0
-280 -281 0
-280 -282 0
-280 -283 0
-281 -282 0
-281 -283 0
-282 -283 0
284 285 286 287 288 0
-284 -285 0
-284 -286 0
-284 -287 0
-284 -288 0
-285 -286 0
-285 -287 0
-285 -288 0
-286 -287 0
-286 -288 0
-287 -288 0
229 234 139 49 79 0
-229 -234 0
-229 -139 0
-229 -49 0
-229 -79 0
-234 -139 0
-234 -49 0
-234 -79 0
-139 -49 0
-139 -79 0
-49 -79 0
230 235 140 50 80 0
-230 -235 0
-230 -140 0
-230 -50 0
-230 -80 0
-235 -140 0
-235 -50 0
-235 -80 0
-140 -50 0
-140 -80 0
-50 -80 0
231 236 141 51 81 0
-231 -236 0
-231 -141 0
-231 -51 0
-231 -81 0
-236 -141 0
-236 -51 0
-236 -81 0
-141 -51 0
-141 -81 0
-51 -81 0
232 237 142 52 82 0
-232 -237 0
-232 -142 0
-232 -52 0
-232 -82 0
-237 -142 0
-237 -52 0
-237 -82 0
-142 -52 0
-142 -82 0
-52 -82 0
233 238 143 53 83 0
-233 -238 0
-233 -143 0
-233 -53 0
-233 -83 0
-238 -143 0
-238 -53 0
-238 -83 0
-143 -53 0
-143 -83 0
-53 -83 0
229 239 154 54 84 0
-229 -239 0
-229 -154 0
-229 -54 0
-229 -84 0
-239 -154 0
-239 -54 0
-239 -84 0
-154 -54 0
-154 -84 0
-54 -84 0
230 240 155 55 85 0
-230 -240 0
-230 -155 0
-230 -55 0
-230 -85 0
-240 -155 0
-240 -55 0
-240 -85 0
-155 -55 0
-155 -85 0
-55 -85 0
231 241 156 56 86 0
-231 -241 0
-231 -156 0
-231 -56 0
-231 -86 0
-241 -156 0
-241 -56 0
-241 -86 0
-156 -56 0
-156 -86 0
-56 -86 0
232 242 157 57 87 0
-232 -242 0
-232 -157 0
-232 -57 0
-232 -87 0
-242 -157 0
-242 -57 0
-242 -87 0
-157 -57 0
-157 -87 0
-57 -87 0
233 243 158 58 88 0
-233 -243 0
-233 -158 0
-233 -58 0
-233 -88 0
-243 -158 0
-243 -58 0
-243 -88 0
-158 -58 0
-158 -88 0
-58 -88 0
234 239 169 59 89 0
-234 -239 0
-234 -169 0
-234 -59 0
-234 -89 0
-239 -169 0
-239 -59 0
-239 -89 0
-169 -59 0
-169 -89 0
-59 -89 0
235 240 170 60 90 0
-235 -240 0
-235 -170 0
-235 -60 0
-235 -90 0
-240 -170 0
-240 -60 0
-240 -90 0
-170 -60 0
-170 -90 0
-60 -90 0
236 241 171 61 91 0
-236 -241 0
-236 -171 0
-236 -61 0
-236 -91 0
-241 -171 0
-241 -61 0
-241 -91 0
-171 -61 0
-171 -91 0
-61 -91 0
237 242 172 62 92 0
-237 -242 0
-237 -172 0
-237 -62 0
-237 -92 0
-242 -172 0
-242 -62 0
-242 -92 0
-172 -62 0
-172 -92 0
-62 -92 0
238 243 173 63 93 0
-238 -243 0
-238 -173 0
-238 -63 0
-238 -93 0
-243 -173 0
-243 -63 0
-243 -93 0
-173 -63 0
-173 -93 0
-63 -93 0
229 244 184 64 94 0
-229 -244 0
-229 -184 0
-229 -64 0
-229 -94 0
-244 -184 0
-244 -64 0
-244 -94 0
-184 -64 0
-184 -94 0
-64 -94 0
230 245 185 65 95 0
-230 -245 0
-230 -185 0
-230 -65 0
-230 -95 0
-245 -185 0
-245 -65 0
-245 -95 0
-185 -65 0
-185 -95 0
-65 -95 0
231 246 186 66 96 0
-231 -246 0
-231 -186 0
-231 -66 0
-231 -96 0
-246 -186 0
-246 -66 0
-246 -96 0
-186 -66 0
-186 -96 0
-66 -96 0
232 247 187 67 97 0
-232 -247 0
-232 -187 0
-232 -67 0
-232 -97 0
-247 -187 0
-247 -67 0
-247 -97 0
-187 -67 0
-187 -97 0
-67 -97 0
233 248 188 68 98 0
-233 -248 0
-233 -188 0
-233 -68 0
-233 -98 0
-248 -188 0
-248 -68 0
-248 -98 0
-188 -68 0
-188 -98 0
-68 -98 0
234 244 199 69 99 0
-234 -244 0
-234 -199 0
-234 -69 0
-234 -99 0
-244 -199 0
-244 -69 0
-244 -99 0
-199 -69 0
-199 -99 0
-69 -99 0
235 245 200 70 100 0
-235 -245 0
-235 -200 0
-235 -70 0
-235 -100 0
-245 -200 0
-245 -70 0
-245 -100 0
-200 -70 0
-200 -100 0
-70 -100 0
236 246 201 71 101 0
-236 -246 0
-236 -201 0
-236 -71 0
-236 -101 0
-246 -201 0
-246 -71 0
-246 -101 0
-201 -71 0
-201 -101 0
-71 -101 0
237 247 202 72 102 0
-237 -247 0
-237 -202 0
-237 -72 0
-237 -102 0
-247 -202 0
-247 -72 0
-247 -102 0
-202 -72 0
-202 -102 0
-72 -102 0
238 248 203 73 103 0
-238 -248 0
-238 -203 0
-238 -73 0
-238 -103 0
-248 -203 0
-248 -73 0
-248 -103 0
-203 -73 0
-203 -103 0
-73 -103 0
239 244 214 74 104 0
-239 -244 0
-239 -214 0
-239 -74 0
-239 -104 0
-244 -214 0
-244 -74 0
-244 -104 0
-214 -74 0
-214 -104 0
-74 -104 0
240 245 215 75 105 0
-240 -245 0
-240 -215 0
-240 -75 0
-240 -105 0
-245 -215 0
-245 -75 0
-245 -105 0
-215 -75 0
-215 -105 0
-75 -105 0
241 246 216 76 106 0
-241 -246 0
-241 -216 0
-241 -76 0
-241 -106 0
-246 -216 0
-246 -76 0
-246 -106 0
-216 -76 0
-216 -106 0
-76 -106 0
242 247 217 77 107 0
-242 -247 0
-242 -217 0
-242 -77 0
-242 -107 0
-247 -217 0
-247 -77 0
-247 -107 0
-217 -77 0
-217 -107 0
-77 -107 0
243 248 218 78 108 0
-243 -248 0
-243 -218 0
-243 -78 0
-243 -108 0
-248 -218 0
-248 -78 0
-248 -108 0
-218 -78 0
-218 -108 0
-78 -108 0
249 254 144 49 109 0
-249 -254 0
-249 -144 0
-249 -49 0
-249 -109 0
-254 -144 0
-254 -49 0
-254 -109 0
-144 -49 0
-144 -109 0
-49 -109 0
250 255 145 50 110 0
-250 -255 0
-250 -145 0
-250 -50 0
-250 -110 0
-255 -145 0
-255 -50 0
-255 -110 0
-145 -50 0
-145 -110 0
-50 -110 0
251 256 146 51 111 0
-251 -256 0
-251 -146 0
-251 -51 0
-251 -111 0
-256 -146 0
-256 -51 0
-256 -111 0
-146 -51 0
-146 -111 0
-51 -111 0
252 257 147 52 112 0
-252 -257 0
-252 -147 0
-252 -52 0
-252 -112 0
-257 -147 0
-257 -52 0
-257 -112 0
-147 -52 0
-147 -112 0
-52 -112 0
253 258 148 53 113 0
-253 -258 0
-253 -148 0
-253 -53 0
-253 -113 0
-258 -148 0
-258 -53 0
-258 -113 0
-148 -53 0
-148 -113 0
-53 -113 0
249 259 159 54 114 0
-249 -259 0
-249 -159 0
-249 -54 0
-249 -114 0
-259 -159 0
-259 -54 0
-259 -114 0
-159 -54 0
-159 -114 0
-54 -114 0
250 260 160 55 115 0
-250 -260 0
-250 -160 0
-250 -55 0
-250 -115 0
-260 -160 0
-260 -55 0
-260 -115 0
-160 -55 0
-160 -115 0
-55 -115 0
251 261 161 56 116 0
-251 -261 0
-251 -161 0
-251 -56 0
-251 -116 0
-261 -161 0
-261 -56 0
-261 -116 0
-161 -56 0
-161 -116 0
-56 -116 0
252 262 162 57 117 0
-252 -262 0
-252 -162 0
-252 -57 0
-252 -117 0
-262 -162 0
-262 -57 0
-262 -117 0
-162 -57 0
-162 -117 0
-57 -117 0
253 263 163 58 118 0
-253 -263 0
-253 -163 0
-253 -58 0
-253 -118 0
-263 -163 0
-263 -58 0
-263 -118 0
-163 -58 0
-163 -118 0
-58 -118 0
254 259 174 59 119 0
-254 -259 0
-254 -174 0
-254 -59 0
-254 -119 0
-259 -174 0
-259 -59 0
-259 -119 0
-174 -59 0
-174 -119 0
-59 -119 0
255 260 175 60 120 0
-255 -260 0
-255 -175 0
-255 -60 0
-255 -120 0
-260 -175 0
-260 -60 0
-260 -120 0
-175 -60 0
-175 -120 0
-60 -120 0
256 261 176 61 121 0
-256 -261 0
-256 -176 0
-256 -61 0
-256 -121 0
-261 -176 0
-261 -61 0
-261 -121 0
-176 -61 0
-176 -121 0
-61 -121 0
257 262 177 62 122 0
-257 -262 0
-257 -177 0
-257 -62 0
-257 -122 0
-262 -177 0
-262 -62 0
-262 -122 0
-177 -62 0
-177 -122 0
-62 -122 0
258 263 178 63 123 0
-258 -263 0
-258 -178 0
-258 -63 0
-258 -123 0
-263 -178 0
-263 -63 0
-263 -123 0
-178 -63 0
-178 -123 0
-63 -123 0
249 264 189 64 124 0
-249 -264 0
-249 -189 0
-249 -64 0
-249 -124 0
-264 -189 0
-264 -64 0
-264 -124 0
-189 -64 0
-189 -124 0
-64 -124 0
250 265 190 65 125 0
-250 -265 0
-250 -190 0
-250 -65 0
-250 -125 0
-265 -190 0
-265 -65 0
-265 -125 0
-190 -65 0
-190 -125 0
-65 -125 0
251 266 191 66 126 0
-251 -266 0
-251 -191 0
-251 -66 0
-251 -126 0
-266 -191 0
-266 -66 0
-266 -126 0
-191 -66 0
-191 -126 0
-66 -126 0
252 267 192 67 127 0
-252 -267 0
-252 -192 0
-252 -67 0
-252 -127 0
-267 -192 0
-267 -67 0
-267 -127 0
-192 -67 0
-192 -127 0
-67 -127 0
253 268 193 68 128 0
-253 -268 0
-253 -193 0
-253 -68 0
-253 -128 0
-268 -193 0
-268 -68 0
-268 -128 0
-193 -68 0
-193 -128 0
-68 -128 0
254 264 204 69 129 0
-254 -264 0
-254 -204 0
-254 -69 0
-254 -129 0
-264 -204 0
-264 -69 0
-264 -129 0
-204 -69 0
-204 -129 0
-69 -129 0
255 265 205 70 130 0
-255 -265 0
-255 -205 0
-255 -70 0
-255 -130 0
-265 -205 0
-265 -70 0
-265 -130 0
-205 -70 0
-205 -130 0
-70 -130 0
256 266 206 71 131 0
-256 -266 0
-256 -206 0
-256 -71 0
-256 -131 0
-266 -206 0
-266 -71 0
-266 -131 0
-206 -71 0
-206 -131 0
-71 -131 0
257 267 207 72 132 0
-257 -267 0
-257 -207 0
-257 -72 0
-257 -132 0
-267 -207 0
-267 -72 0
-267 -132 0
-207 -72 0
-207 -132 0
-72 -132 0
258 268 208 73 133 0
-258 -268 0
-258 -208 0
-258 -73 0
-258 -133 0
-268 -208 0
-268 -73 0
-268 -133 0
-208 -73 0
-208 -133 0
-73 -133 0
259 264 219 74 134 0
-259 -264 0
-259 -219 0
-259 -74 0
-259 -134 0
-264 -219 0
-264 -74 0
-264 -134 0
-219 -74 0
-219 -134 0
-74 -134 0
260 265 220 75 135 0
-260 -265 0
-260 -220 0
-260 -75 0
-260 -135 0
-265 -220 0
-265 -75 0
-265 -135 0
-220 -75 0
-220 -135 0
-75 -135 0
261 266 221 76 136 0
-261 -266 0
-261 -221 0
-261 -76 0
-261 -136 0
-266 -221 0
-266 -76 0
-266 -136 0
-221 -76 0
-221 -136 0
-76 -136 0
262 267 222 77 137 0
-262 -267 0
-262 -222 0
-262 -77 0
-262 -137 0
-267 -222 0
-267 -77 0
-267 -137 0
-222 -77 0
-222 -137 0
-77 -137 0
263 268 223 78 138 0
-263 -268 0
-263 -223 0
-263 -78 0
-263 -138 0
-268 -223 0
-268 -78 0
-268 -138 0
-223 -78 0
-223 -138 0
-78 -138 0
269 274 149 79 109 0
-269 -274 0
-269 -149 0
-269 -79 0
-269 -109 0
-274 -149 0
-274 -79 0
-274 -109 0
-149 -79 0
-149 -109 0
-79 -109 0
270 275 150 80 110 0
-270 -275 0
-270 -150 0
-270 -80 0
-270 -110 0
-275 -150 0
-275 -80 0
-275 -110 0
-150 -80 0
-150 -110 0
-80 -110 0
271 276 151 81 111 0
-271 -276 0
-271 -151 0
-271 -81 0
-271 -111 0
-276 -151 0
-276 -81 0
-276 -111 0
-151 -81 0
-151 -111 0
-81 -111 0
272 277 152 82 112 0
-272 -277 0
-272 -152 0
-272 -82 0
-272 -112 0
-277 -152 0
-277 -82 0
-277 -112 0
-152 -82 0
-152 -112 0
-82 -112 0
273 278 153 83 113 0
-273 -278 0
-273 -153 0
-273 -83 0
-273 -113 0
-278 -153 0
-278 -83 0
-278 -113 0
-153 -83 0
-153 -113 0
-83 -113 0
269 279 164 84 114 0
-269 -279 0
-269 -164 0
-269 -84 0
-269 -114 0
-279 -164 0
-279 -84 0
-279 -114 0
-164 -84 0
-164 -114 0
-84 -114 0
270 280 165 85 115 0
-270 -280 0
-270 -165 0
-270 -85 0
-270 -115 0
-280 -165 0
-280 -85 0
-280 -115 0
-165 -85 0
-165 -115 0
-85 -115 0
271 281 166 86 116 0
-271 -281 0
-271 -166 0
-271 -86 0
-271 -116 0
-281 -166 0
-281 -86 0
-281 -116 0
-166 -86 0
-166 -116 0
-86 -116 0
272 282 167 87 117 0
-272 -282 0
-272 -167 0
-272 -87 0
-272 -117 0
-282 -167 0
-282 -87 0
-282 -117 0
-167 -87 0
-167 -117 0
-87 -117 0
273 283 168 88 118 0
-273 -283 0
-273 -168 0
-273 -88 0
-273 -118 0
-283 -168 0
-283 -88 0
-283 -118 0
-168 -88 0
-168 -118 0
-88 -118 0
274 279 179 89 119 0
-274 -279 0
-274 -179 0
-274 -89 0
-274 -119 0
-279 -179 0
-279 -89 0
-279 -119 0
-179 -89 0
-179 -119 0
-89 -119 0
275 280 180 90 120 0
-275 -280 0
-275 -180 0
-275 -90 0
-275 -120 0
-280 -180 0
-280 -90 0
-280 -120 0
-180 -90 0
-180 -120 0
-90 -120 0
276 281 181 91 121 0
-276 -281 0
-276 -181 0
-276 -91 0
-276 -121 0
-281 -181 0
-281 -91 0
-281 -121 0
-181 -91 0
-181 -121 0
-91 -121 0
277 282 182 92 122 0
-277 -282 0
-277 -182 0
-277 -92 0
-277 -122 0
-282 -182 0
-282 -92 0
-282 -122 0
-182 -92 0
-182 -122 0
-92 -122 0
278 283 183 93 123 0
-278 -283 0
-278 -183 0
-278 -93 0
-278 -123 0
-283 -183 0
-283 -93 0
-283 -123 0
-183 -93 0
-183 -123 0
-93 -123 0
269 284 194 94 124 0
-269 -284 0
-269 -194 0
-269 -94 0
-269 -124 0
-284 -194 0
-284 -94 0
-284 -124 0
-194 -94 0
-194 -124 0
-94 -124 0
270 285 195 95 125 0
-270 -285 0
-270 -195 0
-270 -95 0
-270 -125 0
-285 -195 0
-285 -95 0
-285 -125 0
-195 -95 0
-195 -125 0
-95 -125 0
271 286 196 96 126 0
-271 -286 0
-271 -196 0
-271 -96 0
-271 -126 0
-286 -196 0
-286 -96 0
-286 -126 0
-196 -96 0
-196 -126 0
-96 -126 0
272 287 197 97 127 0
-272 -287 0
-272 -197 0
-272 -97 0
-272 -127 0
-287 -197 0
-287 -97 0
-287 -127 0
-197 -97 0
-197 -127 0
-97 -127 0
273 288 198 98 128 0
-273 -288 0
-273 -198 0
-273 -98 0
-273 -128 0
-288 -198 0
-288 -98 0
-288 -128 0
-198 -98 0
-198 -128 0
-98 -128 0
274 284 209 99 129 0
-274 -284 0
-274 -209 0
-274 -99 0
-274 -129 0
-284 -209 0
-284 -99 0
-284 -129 0
-209 -99 0
-209 -129 0
-99 -129 0
275 285 210 100 130 0
-275 -285 0
-275 -210 0
-275 -100 0
-275 -130 0
-285 -210 0
-285 -100 0
-285 -130 0
-210 -100 0
-210 -130 0
-100 -130 0
276 286 211 101 131 0
-276 -286 0
-276 -211 0
-276 -101 0
-276 -131 0
-286 -211 0
-286 -101 0
-286 -131 0
-211 -101 0
-211 -131 0
-101 -131 0
277 287 212 102 132 0
-277 -287 0
-277 -212 0
-277 -102 0
-277 -132 0
-287 -212 0
-287 -102 0
-287 -132 0
-212 -102 0
-212 -132 0
-102 -132 0
278 288 213 103 133 0
-278 -288 0
-278 -213 0
-278 -103 0
-278 -133 0
-288 -213 0
-288 -103 0
-288 -133 0
-213 -103 0
-213 -133 0
-103 -133 0
279 284 224 104 134 0
-279 -284 0
-279 -224 0
-279 -104 0
-279 -134 0
-284 -224 0
-284 -104 0
-284 -134 0
-224 -104 0
-224 -134 0
-104 -134 0
280 285 225 105 135 0
-280 -285 0
-280 -225 0
-280 -105 0
-280 -135 0
-285 -225 0
-285 -105 0
-285 -135 0
-225 -105 0
-225 -135 0
-105 -135 0
281 286 226 106 136 0
-281 -286 0
-281 -226 0
-281 -106 0
-281 -136 0
-286 -226 0
-286 -106 0
-286 -136 0
-226 -106 0
-226 -136 0
-106 -136 0
282 287 227 107 137 0
-282 -287 0
-282 -227 0
-282 -107 0
-282 -137 0
-287 -227 0
-287 -107 0
-287 -137 0
-227 -107 0
-227 -137 0
-107 -137 0
283 288 228 108 138 0
-283 -288 0
-283 -228 0
-283 -108 0
-283 -138 0
-288 -228 0
-288 -108 0
-288 -138 0
-228 -108 0
-228 -138 0
-108 -138 0
