p cnf 3155 48200
1 2 3 4 5 6 0
-1 -2 0
-1 -3 0
-1 -4 0
-1 -5 0
-1 -6 0
-2 -3 0
-2 -4 0
-2 -5 0
-2 -6 0
-3 -4 0
-3 -5 0
-3 -6 0
-4 -5 0
-4 -6 0
-5 -6 0
-1 0
7 8 9 10 11 12 0
-7 -8 0
-7 -9 0
-7 -10 0
-7 -11 0
-7 -12 0
-8 -9 0
-8 -10 0
-8 -11 0
-8 -12 0
-9 -10 0
-9 -11 0
-9 -12 0
-10 -11 0
-10 -12 0
-11 -12 0
-8 0
13 14 15 16 17 18 0
-13 -14 0
-13 -15 0
-13 -16 0
-13 -17 0
-13 -18 0
-14 -15 0
-14 -16 0
-14 -17 0
-14 -18 0
-15 -16 0
-15 -17 0
-15 -18 0
-16 -17 0
-16 -18 0
-17 -18 0
-15 0
19 20 21 22 23 24 0
-19 -20 0
-19 -21 0
-19 -22 0
-19 -23 0
-19 -24 0
-20 -21 0
-20 -22 0
-20 -23 0
-20 -24 0
-21 -22 0
-21 -23 0
-21 -24 0
-22 -23 0
-22 -24 0
-23 -24 0
-22 0
25 26 27 28 29 30 0
-25 -26 0
-25 -27 0
-25 -28 0
-25 -29 0
-25 -30 0
-26 -27 0
-26 -28 0
-26 -29 0
-26 -30 0
-27 -28 0
-27 -29 0
-27 -30 0
-28 -29 0
-28 -30 0
-29 -30 0
-29 0
31 32 33 34 35 36 0
-31 -32 0
-31 -33 0
-31 -34 0
-31 -35 0
-31 -36 0
-32 -33 0
-32 -34 0
-32 -35 0
-32 -36 0
-33 -34 0
-33 -35 0
-33 -36 0
-34 -35 0
-34 -36 0
-35 -36 0
-36 0
37 38 39 40 41 42 0
-37 -38 0
-37 -39 0
-37 -40 0
-37 -41 0
-37 -42 0
-38 -39 0
-38 -40 0
-38 -41 0
-38 -42 0
-39 -40 0
-39 -41 0
-39 -42 0
-40 -41 0
-40 -42 0
-41 -42 0
-37 0
43 44 45 46 47 48 0
-43 -44 0
-43 -45 0
-43 -46 0
-43 -47 0
-43 -48 0
-44 -45 0
-44 -46 0
-44 -47 0
-44 -48 0
-45 -46 0
-45 -47 0
-45 -48 0
-46 -47 0
-46 -48 0
-47 -48 0
-44 0
49 50 51 52 53 54 0
-49 -50 0
-49 -51 0
-49 -52 0
-49 -53 0
-49 -54 0
-50 -51 0
-50 -52 0
-50 -53 0
-50 -54 0
-51 -52 0
-51 -53 0
-51 -54 0
-52 -53 0
-52 -54 0
-53 -54 0
-51 0
55 56 57 58 59 60 0
-55 -56 0
-55 -57 0
-55 -58 0
-55 -59 0
-55 -60 0
-56 -57 0
-56 -58 0
-56 -59 0
-56 -60 0
-57 -58 0
-57 -59 0
-57 -60 0
-58 -59 0
-58 -60 0
-59 -60 0
-58 0
61 62 63 64 65 66 0
-61 -62 0
-61 -63 0
-61 -64 0
-61 -65 0
-61 -66 0
-62 -63 0
-62 -64 0
-62 -65 0
-62 -66 0
-63 -64 0
-63 -65 0
-63 -66 0
-64 -65 0
-64 -66 0
-65 -66 0
-65 0
67 68 69 70 71 72 0
-67 -68 0
-67 -69 0
-67 -70 0
-67 -71 0
-67 -72 0
-68 -69 0
-68 -70 0
-68 -71 0
-68 -72 0
-69 -70 0
-69 -71 0
-69 -72 0
-70 -71 0
-70 -72 0
-71 -72 0
-72 0
73 74 75 76 77 78 0
-73 -74 0
-73 -75 0
-73 -76 0
-73 -77 0
-73 -78 0
-74 -75 0
-74 -76 0
-74 -77 0
-74 -78 0
-75 -76 0
-75 -77 0
-75 -78 0
-76 -77 0
-76 -78 0
-77 -78 0
-73 0
79 80 81 82 83 84 0
-79 -80 0
-79 -81 0
-79 -82 0
-79 -83 0
-79 -84 0
-80 -81 0
-80 -82 0
-80 -83 0
-80 -84 0
-81 -82 0
-81 -83 0
-81 -84 0
-82 -83 0
-82 -84 0
-83 -84 0
-80 0
85 86 87 88 89 90 0
-85 -86 0
-85 -87 0
-85 -88 0
-85 -89 0
-85 -90 0
-86 -87 0
-86 -88 0
-86 -89 0
-86 -90 0
-87 -88 0
-87 -89 0
-87 -90 0
-88 -89 0
-88 -90 0
-89 -90 0
-87 0
91 92 93 94 95 96 0
-91 -92 0
-91 -93 0
-91 -94 0
-91 -95 0
-91 -96 0
-92 -93 0
-92 -94 0
-92 -95 0
-92 -96 0
-93 -94 0
-93 -95 0
-93 -96 0
-94 -95 0
-94 -96 0
-95 -96 0
-94 0
97 98 99 100 101 102 0
-97 -98 0
-97 -99 0
-97 -100 0
-97 -101 0
-97 -102 0
-98 -99 0
-98 -100 0
-98 -101 0
-98 -102 0
-99 -100 0
-99 -101 0
-99 -102 0
-100 -101 0
-100 -102 0
-101 -102 0
-101 0
103 104 105 106 107 108 0
-103 -104 0
-103 -105 0
-103 -106 0
-103 -107 0
-103 -108 0
-104 -105 0
-104 -106 0
-104 -107 0
-104 -108 0
-105 -106 0
-105 -107 0
-105 -108 0
-106 -107 0
-106 -108 0
-107 -108 0
-108 0
109 110 111 112 113 114 0
-109 -110 0
-109 -111 0
-109 -112 0
-109 -113 0
-109 -114 0
-110 -111 0
-110 -112 0
-110 -113 0
-110 -114 0
-111 -112 0
-111 -113 0
-111 -114 0
-112 -113 0
-112 -114 0
-113 -114 0
-109 0
115 116 117 118 119 120 0
-115 -116 0
-115 -117 0
-115 -118 0
-115 -119 0
-115 -120 0
-116 -117 0
-116 -118 0
-116 -119 0
-116 -120 0
-117 -118 0
-117 -119 0
-117 -120 0
-118 -119 0
-118 -120 0
-119 -120 0
-116 0
121 122 123 124 125 126 0
-121 -122 0
-121 -123 0
-121 -124 0
-121 -125 0
-121 -126 0
-122 -123 0
-122 -124 0
-122 -125 0
-122 -126 0
-123 -124 0
-123 -125 0
-123 -126 0
-124 -125 0
-124 -126 0
-125 -126 0
-123 0
127 128 129 130 131 132 0
-127 -128 0
-127 -129 0
-127 -130 0
-127 -131 0
-127 -132 0
-128 -129 0
-128 -130 0
-128 -131 0
-128 -132 0
-129 -130 0
-129 -131 0
-129 -132 0
-130 -131 0
-130 -132 0
-131 -132 0
-130 0
133 134 135 136 137 138 0
-133 -134 0
-133 -135 0
-133 -136 0
-133 -137 0
-133 -138 0
-134 -135 0
-134 -136 0
-134 -137 0
-134 -138 0
-135 -136 0
-135 -137 0
-135 -138 0
-136 -137 0
-136 -138 0
-137 -138 0
-137 0
139 140 141 142 143 144 0
-139 -140 0
-139 -141 0
-139 -142 0
-139 -143 0
-139 -144 0
-140 -141 0
-140 -142 0
-140 -143 0
-140 -144 0
-141 -142 0
-141 -143 0
-141 -144 0
-142 -143 0
-142 -144 0
-143 -144 0
-144 0
145 146 147 148 149 150 0
-145 -146 0
-145 -147 0
-145 -148 0
-145 -149 0
-145 -150 0
-146 -147 0
-146 -148 0
-146 -149 0
-146 -150 0
-147 -148 0
-147 -149 0
-147 -150 0
-148 -149 0
-148 -150 0
-149 -150 0
-145 0
151 152 153 154 155 156 0
-151 -152 0
-151 -153 0
-151 -154 0
-151 -155 0
-151 -156 0
-152 -153 0
-152 -154 0
-152 -155 0
-152 -156 0
-153 -154 0
-153 -155 0
-153 -156 0
-154 -155 0
-154 -156 0
-155 -156 0
-152 0
157 158 159 160 161 162 0
-157 -158 0
-157 -159 0
-157 -160 0
-157 -161 0
-157 -162 0
-158 -159 0
-158 -160 0
-158 -161 0
-158 -162 0
-159 -160 0
-159 -161 0
-159 -162 0
-160 -161 0
-160 -162 0
-161 -162 0
-159 0
163 164 165 166 167 168 0
-163 -164 0
-163 -165 0
-163 -166 0
-163 -167 0
-163 -168 0
-164 -165 0
-164 -166 0
-164 -167 0
-164 -168 0
-165 -166 0
-165 -167 0
-165 -168 0
-166 -167 0
-166 -168 0
-167 -168 0
-166 0
169 170 171 172 173 174 0
-169 -170 0
-169 -171 0
-169 -172 0
-169 -173 0
-169 -174 0
-170 -171 0
-170 -172 0
-170 -173 0
-170 -174 0
-171 -172 0
-171 -173 0
-171 -174 0
-172 -173 0
-172 -174 0
-173 -174 0
-173 0
175 176 177 178 179 180 0
-175 -176 0
-175 -177 0
-175 -178 0
-175 -179 0
-175 -180 0
-176 -177 0
-176 -178 0
-176 -179 0
-176 -180 0
-177 -178 0
-177 -179 0
-177 -180 0
-178 -179 0
-178 -180 0
-179 -180 0
-180 0
1 7 13 19 25 31 0
-1 -7 0
-1 -13 0
-1 -19 0
-1 -25 0
-1 -31 0
-7 -13 0
-7 -19 0
-7 -25 0
-7 -31 0
-13 -19 0
-13 -25 0
-13 -31 0
-19 -25 0
-19 -31 0
-25 -31 0
2 8 14 20 26 32 0
-2 -8 0
-2 -14 0
-2 -20 0
-2 -26 0
-2 -32 0
-8 -14 0
-8 -20 0
-8 -26 0
-8 -32 0
-14 -20 0
-14 -26 0
-14 -32 0
-20 -26 0
-20 -32 0
-26 -32 0
3 9 15 21 27 33 0
-3 -9 0
-3 -15 0
-3 -21 0
-3 -27 0
-3 -33 0
-9 -15 0
-9 -21 0
-9 -27 0
-9 -33 0
-15 -21 0
-15 -27 0
-15 -33 0
-21 -27 0
-21 -33 0
-27 -33 0
4 10 16 22 28 34 0
-4 -10 0
-4 -16 0
-4 -22 0
-4 -28 0
-4 -34 0
-10 -16 0
-10 -22 0
-10 -28 0
-10 -34 0
-16 -22 0
-16 -28 0
-16 -34 0
-22 -28 0
-22 -34 0
-28 -34 0
5 11 17 23 29 35 0
-5 -11 0
-5 -17 0
-5 -23 0
-5 -29 0
-5 -35 0
-11 -17 0
-11 -23 0
-11 -29 0
-11 -35 0
-17 -23 0
-17 -29 0
-17 -35 0
-23 -29 0
-23 -35 0
-29 -35 0
6 12 18 24 30 36 0
-6 -12 0
-6 -18 0
-6 -24 0
-6 -30 0
-6 -36 0
-12 -18 0
-12 -24 0
-12 -30 0
-12 -36 0
-18 -24 0
-18 -30 0
-18 -36 0
-24 -30 0
-24 -36 0
-30 -36 0
37 43 49 55 61 67 0
-37 -43 0
-37 -49 0
-37 -55 0
-37 -61 0
-37 -67 0
-43 -49 0
-43 -55 0
-43 -61 0
-43 -67 0
-49 -55 0
-49 -61 0
-49 -67 0
-55 -61 0
-55 -67 0
-61 -67 0
38 44 50 56 62 68 0
-38 -44 0
-38 -50 0
-38 -56 0
-38 -62 0
-38 -68 0
-44 -50 0
-44 -56 0
-44 -62 0
-44 -68 0
-50 -56 0
-50 -62 0
-50 -68 0
-56 -62 0
-56 -68 0
-62 -68 0
39 45 51 57 63 69 0
-39 -45 0
-39 -51 0
-39 -57 0
-39 -63 0
-39 -69 0
-45 -51 0
-45 -57 0
-45 -63 0
-45 -69 0
-51 -57 0
-51 -63 0
-51 -69 0
-57 -63 0
-57 -69 0
-63 -69 0
40 46 52 58 64 70 0
-40 -46 0
-40 -52 0
-40 -58 0
-40 -64 0
-40 -70 0
-46 -52 0
-46 -58 0
-46 -64 0
-46 -70 0
-52 -58 0
-52 -64 0
-52 -70 0
-58 -64 0
-58 -70 0
-64 -70 0
41 47 53 59 65 71 0
-41 -47 0
-41 -53 0
-41 -59 0
-41 -65 0
-41 -71 0
-47 -53 0
-47 -59 0
-47 -65 0
-47 -71 0
-53 -59 0
-53 -65 0
-53 -71 0
-59 -65 0
-59 -71 0
-65 -71 0
42 48 54 60 66 72 0
-42 -48 0
-42 -54 0
-42 -60 0
-42 -66 0
-42 -72 0
-48 -54 0
-48 -60 0
-48 -66 0
-48 -72 0
-54 -60 0
-54 -66 0
-54 -72 0
-60 -66 0
-60 -72 0
-66 -72 0
73 79 85 91 97 103 0
-73 -79 0
-73 -85 0
-73 -91 0
-73 -97 0
-73 -103 0
-79 -85 0
-79 -91 0
-79 -97 0
-79 -103 0
-85 -91 0
-85 -97 0
-85 -103 0
-91 -97 0
-91 -103 0
-97 -103 0
74 80 86 92 98 104 0
-74 -80 0
-74 -86 0
-74 -92 0
-74 -98 0
-74 -104 0
-80 -86 0
-80 -92 0
-80 -98 0
-80 -104 0
-86 -92 0
-86 -98 0
-86 -104 0
-92 -98 0
-92 -104 0
-98 -104 0
75 81 87 93 99 105 0
-75 -81 0
-75 -87 0
-75 -93 0
-75 -99 0
-75 -105 0
-81 -87 0
-81 -93 0
-81 -99 0
-81 -105 0
-87 -93 0
-87 -99 0
-87 -105 0
-93 -99 0
-93 -105 0
-99 -105 0
76 82 88 94 100 106 0
-76 -82 0
-76 -88 0
-76 -94 0
-76 -100 0
-76 -106 0
-82 -88 0
-82 -94 0
-82 -100 0
-82 -106 0
-88 -94 0
-88 -100 0
-88 -106 0
-94 -100 0
-94 -106 0
-100 -106 0
77 83 89 95 101 107 0
-77 -83 0
-77 -89 0
-77 -95 0
-77 -101 0
-77 -107 0
-83 -89 0
-83 -95 0
-83 -101 0
-83 -107 0
-89 -95 0
-89 -101 0
-89 -107 0
-95 -101 0
-95 -107 0
-101 -107 0
78 84 90 96 102 108 0
-78 -84 0
-78 -90 0
-78 -96 0
-78 -102 0
-78 -108 0
-84 -90 0
-84 -96 0
-84 -102 0
-84 -108 0
-90 -96 0
-90 -102 0
-90 -108 0
-96 -102 0
-96 -108 0
-102 -108 0
109 115 121 127 133 139 0
-109 -115 0
-109 -121 0
-109 -127 0
-109 -133 0
-109 -139 0
-115 -121 0
-115 -127 0
-115 -133 0
-115 -139 0
-121 -127 0
-121 -133 0
-121 -139 0
-127 -133 0
-127 -139 0
-133 -139 0
110 116 122 128 134 140 0
-110 -116 0
-110 -122 0
-110 -128 0
-110 -134 0
-110 -140 0
-116 -122 0
-116 -128 0
-116 -134 0
-116 -140 0
-122 -128 0
-122 -134 0
-122 -140 0
-128 -134 0
-128 -140 0
-134 -140 0
111 117 123 129 135 141 0
-111 -117 0
-111 -123 0
-111 -129 0
-111 -135 0
-111 -141 0
-117 -123 0
-117 -129 0
-117 -135 0
-117 -141 0
-123 -129 0
-123 -135 0
-123 -141 0
-129 -135 0
-129 -141 0
-135 -141 0
112 118 124 130 136 142 0
-112 -118 0
-112 -124 0
-112 -130 0
-112 -136 0
-112 -142 0
-118 -124 0
-118 -130 0
-118 -136 0
-118 -142 0
-124 -130 0
-124 -136 0
-124 -142 0
-130 -136 0
-130 -142 0
-136 -142 0
113 119 125 131 137 143 0
-113 -119 0
-113 -125 0
-113 -131 0
-113 -137 0
-113 -143 0
-119 -125 0
-119 -131 0
-119 -137 0
-119 -143 0
-125 -131 0
-125 -137 0
-125 -143 0
-131 -137 0
-131 -143 0
-137 -143 0
114 120 126 132 138 144 0
-114 -120 0
-114 -126 0
-114 -132 0
-114 -138 0
-114 -144 0
-120 -126 0
-120 -132 0
-120 -138 0
-120 -144 0
-126 -132 0
-126 -138 0
-126 -144 0
-132 -138 0
-132 -144 0
-138 -144 0
145 151 157 163 169 175 0
-145 -151 0
-145 -157 0
-145 -163 0
-145 -169 0
-145 -175 0
-151 -157 0
-151 -163 0
-151 -169 0
-151 -175 0
-157 -163 0
-157 -169 0
-157 -175 0
-163 -169 0
-163 -175 0
-169 -175 0
146 152 158 164 170 176 0
-146 -152 0
-146 -158 0
-146 -164 0
-146 -170 0
-146 -176 0
-152 -158 0
-152 -164 0
-152 -170 0
-152 -176 0
-158 -164 0
-158 -170 0
-158 -176 0
-164 -170 0
-164 -176 0
-170 -176 0
147 153 159 165 171 177 0
-147 -153 0
-147 -159 0
-147 -165 0
-147 -171 0
-147 -177 0
-153 -159 0
-153 -165 0
-153 -171 0
-153 -177 0
-159 -165 0
-159 -171 0
-159 -177 0
-165 -171 0
-165 -177 0
-171 -177 0
148 154 160 166 172 178 0
-148 -154 0
-148 -160 0
-148 -166 0
-148 -172 0
-148 -178 0
-154 -160 0
-154 -166 0
-154 -172 0
-154 -178 0
-160 -166 0
-160 -172 0
-160 -178 0
-166 -172 0
-166 -178 0
-172 -178 0
149 155 161 167 173 179 0
-149 -155 0
-149 -161 0
-149 -167 0
-149 -173 0
-149 -179 0
-155 -161 0
-155 -167 0
-155 -173 0
-155 -179 0
-161 -167 0
-161 -173 0
-161 -179 0
-167 -173 0
-167 -179 0
-173 -179 0
150 156 162 168 174 180 0
-150 -156 0
-150 -162 0
-150 -168 0
-150 -174 0
-150 -180 0
-156 -162 0
-156 -168 0
-156 -174 0
-156 -180 0
-162 -168 0
-162 -174 0
-162 -180 0
-168 -174 0
-168 -180 0
-174 -180 0
2 38 74 110 146 0
-2 -38 0
-2 -74 0
-2 -110 0
-2 -146 0
-38 -74 0
-38 -110 0
-38 -146 0
-74 -110 0
-74 -146 0
-110 -146 0
3 39 75 111 147 0
-3 -39 0
-3 -75 0
-3 -111 0
-3 -147 0
-39 -75 0
-39 -111 0
-39 -147 0
-75 -111 0
-75 -147 0
-111 -147 0
4 40 76 112 148 0
-4 -40 0
-4 -76 0
-4 -112 0
-4 -148 0
-40 -76 0
-40 -112 0
-40 -148 0
-76 -112 0
-76 -148 0
-112 -148 0
5 41 77 113 149 0
-5 -41 0
-5 -77 0
-5 -113 0
-5 -149 0
-41 -77 0
-41 -113 0
-41 -149 0
-77 -113 0
-77 -149 0
-113 -149 0
6 42 78 114 150 0
-6 -42 0
-6 -78 0
-6 -114 0
-6 -150 0
-42 -78 0
-42 -114 0
-42 -150 0
-78 -114 0
-78 -150 0
-114 -150 0
7 43 79 115 151 0
-7 -43 0
-7 -79 0
-7 -115 0
-7 -151 0
-43 -79 0
-43 -115 0
-43 -151 0
-79 -115 0
-79 -151 0
-115 -151 0
9 45 81 117 153 0
-9 -45 0
-9 -81 0
-9 -117 0
-9 -153 0
-45 -81 0
-45 -117 0
-45 -153 0
-81 -117 0
-81 -153 0
-117 -153 0
10 46 82 118 154 0
-10 -46 0
-10 -82 0
-10 -118 0
-10 -154 0
-46 -82 0
-46 -118 0
-46 -154 0
-82 -118 0
-82 -154 0
-118 -154 0
11 47 83 119 155 0
-11 -47 0
-11 -83 0
-11 -119 0
-11 -155 0
-47 -83 0
-47 -119 0
-47 -155 0
-83 -119 0
-83 -155 0
-119 -155 0
12 48 84 120 156 0
-12 -48 0
-12 -84 0
-12 -120 0
-12 -156 0
-48 -84 0
-48 -120 0
-48 -156 0
-84 -120 0
-84 -156 0
-120 -156 0
13 49 85 121 157 0
-13 -49 0
-13 -85 0
-13 -121 0
-13 -157 0
-49 -85 0
-49 -121 0
-49 -157 0
-85 -121 0
-85 -157 0
-121 -157 0
14 50 86 122 158 0
-14 -50 0
-14 -86 0
-14 -122 0
-14 -158 0
-50 -86 0
-50 -122 0
-50 -158 0
-86 -122 0
-86 -158 0
-122 -158 0
16 52 88 124 160 0
-16 -52 0
-16 -88 0
-16 -124 0
-16 -160 0
-52 -88 0
-52 -124 0
-52 -160 0
-88 -124 0
-88 -160 0
-124 -160 0
17 53 89 125 161 0
-17 -53 0
-17 -89 0
-17 -125 0
-17 -161 0
-53 -89 0
-53 -125 0
-53 -161 0
-89 -125 0
-89 -161 0
-125 -161 0
18 54 90 126 162 0
-18 -54 0
-18 -90 0
-18 -126 0
-18 -162 0
-54 -90 0
-54 -126 0
-54 -162 0
-90 -126 0
-90 -162 0
-126 -162 0
19 55 91 127 163 0
-19 -55 0
-19 -91 0
-19 -127 0
-19 -163 0
-55 -91 0
-55 -127 0
-55 -163 0
-91 -127 0
-91 -163 0
-127 -163 0
20 56 92 128 164 0
-20 -56 0
-20 -92 0
-20 -128 0
-20 -164 0
-56 -92 0
-56 -128 0
-56 -164 0
-92 -128 0
-92 -164 0
-128 -164 0
21 57 93 129 165 0
-21 -57 0
-21 -93 0
-21 -129 0
-21 -165 0
-57 -93 0
-57 -129 0
-57 -165 0
-93 -129 0
-93 -165 0
-129 -165 0
23 59 95 131 167 0
-23 -59 0
-23 -95 0
-23 -131 0
-23 -167 0
-59 -95 0
-59 -131 0
-59 -167 0
-95 -131 0
-95 -167 0
-131 -167 0
24 60 96 132 168 0
-24 -60 0
-24 -96 0
-24 -132 0
-24 -168 0
-60 -96 0
-60 -132 0
-60 -168 0
-96 -132 0
-96 -168 0
-132 -168 0
25 61 97 133 169 0
-25 -61 0
-25 -97 0
-25 -133 0
-25 -169 0
-61 -97 0
-61 -133 0
-61 -169 0
-97 -133 0
-97 -169 0
-133 -169 0
26 62 98 134 170 0
-26 -62 0
-26 -98 0
-26 -134 0
-26 -170 0
-62 -98 0
-62 -134 0
-62 -170 0
-98 -134 0
-98 -170 0
-134 -170 0
27 63 99 135 171 0
-27 -63 0
-27 -99 0
-27 -135 0
-27 -171 0
-63 -99 0
-63 -135 0
-63 -171 0
-99 -135 0
-99 -171 0
-135 -171 0
28 64 100 136 172 0
-28 -64 0
-28 -100 0
-28 -136 0
-28 -172 0
-64 -100 0
-64 -136 0
-64 -172 0
-100 -136 0
-100 -172 0
-136 -172 0
30 66 102 138 174 0
-30 -66 0
-30 -102 0
-30 -138 0
-30 -174 0
-66 -102 0
-66 -138 0
-66 -174 0
-102 -138 0
-102 -174 0
-138 -174 0
31 67 103 139 175 0
-31 -67 0
-31 -103 0
-31 -139 0
-31 -175 0
-67 -103 0
-67 -139 0
-67 -175 0
-103 -139 0
-103 -175 0
-139 -175 0
32 68 104 140 176 0
-32 -68 0
-32 -104 0
-32 -140 0
-32 -176 0
-68 -104 0
-68 -140 0
-68 -176 0
-104 -140 0
-104 -176 0
-140 -176 0
33 69 105 141 177 0
-33 -69 0
-33 -105 0
-33 -141 0
-33 -177 0
-69 -105 0
-69 -141 0
-69 -177 0
-105 -141 0
-105 -177 0
-141 -177 0
34 70 106 142 178 0
-34 -70 0
-34 -106 0
-34 -142 0
-34 -178 0
-70 -106 0
-70 -142 0
-70 -178 0
-106 -142 0
-106 -178 0
-142 -178 0
35 71 107 143 179 0
-35 -71 0
-35 -107 0
-35 -143 0
-35 -179 0
-71 -107 0
-71 -143 0
-71 -179 0
-107 -143 0
-107 -179 0
-143 -179 0
181 182 183 184 185 186 187 0
-181 -182 0
-181 -183 0
-181 -184 0
-181 -185 0
-181 -186 0
-181 -187 0
-182 -183 0
-182 -184 0
-182 -185 0
-182 -186 0
-182 -187 0
-183 -184 0
-183 -185 0
-183 -186 0
-183 -187 0
-184 -185 0
-184 -186 0
-184 -187 0
-185 -186 0
-185 -187 0
-186 -187 0
-181 0
-182 0
188 189 190 191 192 193 194 0
-188 -189 0
-188 -190 0
-188 -191 0
-188 -192 0
-188 -193 0
-188 -194 0
-189 -190 0
-189 -191 0
-189 -192 0
-189 -193 0
-189 -194 0
-190 -191 0
-190 -192 0
-190 -193 0
-190 -194 0
-191 -192 0
-191 -193 0
-191 -194 0
-192 -193 0
-192 -194 0
-193 -194 0
-188 0
-190 0
195 196 197 198 199 200 201 0
-195 -196 0
-195 -197 0
-195 -198 0
-195 -199 0
-195 -200 0
-195 -201 0
-196 -197 0
-196 -198 0
-196 -199 0
-196 -200 0
-196 -201 0
-197 -198 0
-197 -199 0
-197 -200 0
-197 -201 0
-198 -199 0
-198 -200 0
-198 -201 0
-199 -200 0
-199 -201 0
-200 -201 0
-195 0
-198 0
202 203 204 205 206 207 208 0
-202 -203 0
-202 -204 0
-202 -205 0
-202 -206 0
-202 -207 0
-202 -208 0
-203 -204 0
-203 -205 0
-203 -206 0
-203 -207 0
-203 -208 0
-204 -205 0
-204 -206 0
-204 -207 0
-204 -208 0
-205 -206 0
-205 -207 0
-205 -208 0
-206 -207 0
-206 -208 0
-207 -208 0
-202 0
-206 0
209 210 211 212 213 214 215 0
-209 -210 0
-209 -211 0
-209 -212 0
-209 -213 0
-209 -214 0
-209 -215 0
-210 -211 0
-210 -212 0
-210 -213 0
-210 -214 0
-210 -215 0
-211 -212 0
-211 -213 0
-211 -214 0
-211 -215 0
-212 -213 0
-212 -214 0
-212 -215 0
-213 -214 0
-213 -215 0
-214 -215 0
-209 0
-214 0
216 217 218 219 220 221 222 0
-216 -217 0
-216 -218 0
-216 -219 0
-216 -220 0
-216 -221 0
-216 -222 0
-217 -218 0
-217 -219 0
-217 -220 0
-217 -221 0
-217 -222 0
-218 -219 0
-218 -220 0
-218 -221 0
-218 -222 0
-219 -220 0
-219 -221 0
-219 -222 0
-220 -221 0
-220 -222 0
-221 -222 0
-217 0
-218 0
223 224 225 226 227 228 229 0
-223 -224 0
-223 -225 0
-223 -226 0
-223 -227 0
-223 -228 0
-223 -229 0
-224 -225 0
-224 -226 0
-224 -227 0
-224 -228 0
-224 -229 0
-225 -226 0
-225 -227 0
-225 -228 0
-225 -229 0
-226 -227 0
-226 -228 0
-226 -229 0
-227 -228 0
-227 -229 0
-228 -229 0
-224 0
-226 0
230 231 232 233 234 235 236 0
-230 -231 0
-230 -232 0
-230 -233 0
-230 -234 0
-230 -235 0
-230 -236 0
-231 -232 0
-231 -233 0
-231 -234 0
-231 -235 0
-231 -236 0
-232 -233 0
-232 -234 0
-232 -235 0
-232 -236 0
-233 -234 0
-233 -235 0
-233 -236 0
-234 -235 0
-234 -236 0
-235 -236 0
-231 0
-234 0
237 238 239 240 241 242 243 0
-237 -238 0
-237 -239 0
-237 -240 0
-237 -241 0
-237 -242 0
-237 -243 0
-238 -239 0
-238 -240 0
-238 -241 0
-238 -242 0
-238 -243 0
-239 -240 0
-239 -241 0
-239 -242 0
-239 -243 0
-240 -241 0
-240 -242 0
-240 -243 0
-241 -242 0
-241 -243 0
-242 -243 0
-238 0
-242 0
244 245 246 247 248 249 250 0
-244 -245 0
-244 -246 0
-244 -247 0
-244 -248 0
-244 -249 0
-244 -250 0
-245 -246 0
-245 -247 0
-245 -248 0
-245 -249 0
-245 -250 0
-246 -247 0
-246 -248 0
-246 -249 0
-246 -250 0
-247 -248 0
-247 -249 0
-247 -250 0
-248 -249 0
-248 -250 0
-249 -250 0
-246 0
-247 0
251 252 253 254 255 256 257 0
-251 -252 0
-251 -253 0
-251 -254 0
-251 -255 0
-251 -256 0
-251 -257 0
-252 -253 0
-252 -254 0
-252 -255 0
-252 -256 0
-252 -257 0
-253 -254 0
-253 -255 0
-253 -256 0
-253 -257 0
-254 -255 0
-254 -256 0
-254 -257 0
-255 -256 0
-255 -257 0
-256 -257 0
-253 0
-255 0
258 259 260 261 262 263 264 0
-258 -259 0
-258 -260 0
-258 -261 0
-258 -262 0
-258 -263 0
-258 -264 0
-259 -260 0
-259 -261 0
-259 -262 0
-259 -263 0
-259 -264 0
-260 -261 0
-260 -262 0
-260 -263 0
-260 -264 0
-261 -262 0
-261 -263 0
-261 -264 0
-262 -263 0
-262 -264 0
-263 -264 0
-260 0
-263 0
265 266 267 268 269 270 271 0
-265 -266 0
-265 -267 0
-265 -268 0
-265 -269 0
-265 -270 0
-265 -271 0
-266 -267 0
-266 -268 0
-266 -269 0
-266 -270 0
-266 -271 0
-267 -268 0
-267 -269 0
-267 -270 0
-267 -271 0
-268 -269 0
-268 -270 0
-268 -271 0
-269 -270 0
-269 -271 0
-270 -271 0
-268 0
-269 0
272 273 274 275 276 277 278 0
-272 -273 0
-272 -274 0
-272 -275 0
-272 -276 0
-272 -277 0
-272 -278 0
-273 -274 0
-273 -275 0
-273 -276 0
-273 -277 0
-273 -278 0
-274 -275 0
-274 -276 0
-274 -277 0
-274 -278 0
-275 -276 0
-275 -277 0
-275 -278 0
-276 -277 0
-276 -278 0
-277 -278 0
-275 0
-277 0
279 280 281 282 283 284 285 0
-279 -280 0
-279 -281 0
-279 -282 0
-279 -283 0
-279 -284 0
-279 -285 0
-280 -281 0
-280 -282 0
-280 -283 0
-280 -284 0
-280 -285 0
-281 -282 0
-281 -283 0
-281 -284 0
-281 -285 0
-282 -283 0
-282 -284 0
-282 -285 0
-283 -284 0
-283 -285 0
-284 -285 0
-283 0
-284 0
286 287 288 289 290 291 292 0
-286 -287 0
-286 -288 0
-286 -289 0
-286 -290 0
-286 -291 0
-286 -292 0
-287 -288 0
-287 -289 0
-287 -290 0
-287 -291 0
-287 -292 0
-288 -289 0
-288 -290 0
-288 -291 0
-288 -292 0
-289 -290 0
-289 -291 0
-289 -292 0
-290 -291 0
-290 -292 0
-291 -292 0
-286 0
-287 0
293 294 295 296 297 298 299 0
-293 -294 0
-293 -295 0
-293 -296 0
-293 -297 0
-293 -298 0
-293 -299 0
-294 -295 0
-294 -296 0
-294 -297 0
-294 -298 0
-294 -299 0
-295 -296 0
-295 -297 0
-295 -298 0
-295 -299 0
-296 -297 0
-296 -298 0
-296 -299 0
-297 -298 0
-297 -299 0
-298 -299 0
-293 0
-295 0
300 301 302 303 304 305 306 0
-300 -301 0
-300 -302 0
-300 -303 0
-300 -304 0
-300 -305 0
-300 -306 0
-301 -302 0
-301 -303 0
-301 -304 0
-301 -305 0
-301 -306 0
-302 -303 0
-302 -304 0
-302 -305 0
-302 -306 0
-303 -304 0
-303 -305 0
-303 -306 0
-304 -305 0
-304 -306 0
-305 -306 0
-300 0
-303 0
307 308 309 310 311 312 313 0
-307 -308 0
-307 -309 0
-307 -310 0
-307 -311 0
-307 -312 0
-307 -313 0
-308 -309 0
-308 -310 0
-308 -311 0
-308 -312 0
-308 -313 0
-309 -310 0
-309 -311 0
-309 -312 0
-309 -313 0
-310 -311 0
-310 -312 0
-310 -313 0
-311 -312 0
-311 -313 0
-312 -313 0
-307 0
-311 0
314 315 316 317 318 319 320 0
-314 -315 0
-314 -316 0
-314 -317 0
-314 -318 0
-314 -319 0
-314 -320 0
-315 -316 0
-315 -317 0
-315 -318 0
-315 -319 0
-315 -320 0
-316 -317 0
-316 -318 0
-316 -319 0
-316 -320 0
-317 -318 0
-317 -319 0
-317 -320 0
-318 -319 0
-318 -320 0
-319 -320 0
-314 0
-319 0
321 322 323 324 325 326 327 0
-321 -322 0
-321 -323 0
-321 -324 0
-321 -325 0
-321 -326 0
-321 -327 0
-322 -323 0
-322 -324 0
-322 -325 0
-322 -326 0
-322 -327 0
-323 -324 0
-323 -325 0
-323 -326 0
-323 -327 0
-324 -325 0
-324 -326 0
-324 -327 0
-325 -326 0
-325 -327 0
-326 -327 0
-322 0
-323 0
328 329 330 331 332 333 334 0
-328 -329 0
-328 -330 0
-328 -331 0
-328 -332 0
-328 -333 0
-328 -334 0
-329 -330 0
-329 -331 0
-329 -332 0
-329 -333 0
-329 -334 0
-330 -331 0
-330 -332 0
-330 -333 0
-330 -334 0
-331 -332 0
-331 -333 0
-331 -334 0
-332 -333 0
-332 -334 0
-333 -334 0
-329 0
-331 0
335 336 337 338 339 340 341 0
-335 -336 0
-335 -337 0
-335 -338 0
-335 -339 0
-335 -340 0
-335 -341 0
-336 -337 0
-336 -338 0
-336 -339 0
-336 -340 0
-336 -341 0
-337 -338 0
-337 -339 0
-337 -340 0
-337 -341 0
-338 -339 0
-338 -340 0
-338 -341 0
-339 -340 0
-339 -341 0
-340 -341 0
-336 0
-339 0
342 343 344 345 346 347 348 0
-342 -343 0
-342 -344 0
-342 -345 0
-342 -346 0
-342 -347 0
-342 -348 0
-343 -344 0
-343 -345 0
-343 -346 0
-343 -347 0
-343 -348 0
-344 -345 0
-344 -346 0
-344 -347 0
-344 -348 0
-345 -346 0
-345 -347 0
-345 -348 0
-346 -347 0
-346 -348 0
-347 -348 0
-343 0
-347 0
349 350 351 352 353 354 355 0
-349 -350 0
-349 -351 0
-349 -352 0
-349 -353 0
-349 -354 0
-349 -355 0
-350 -351 0
-350 -352 0
-350 -353 0
-350 -354 0
-350 -355 0
-351 -352 0
-351 -353 0
-351 -354 0
-351 -355 0
-352 -353 0
-352 -354 0
-352 -355 0
-353 -354 0
-353 -355 0
-354 -355 0
-351 0
-352 0
356 357 358 359 360 361 362 0
-356 -357 0
-356 -358 0
-356 -359 0
-356 -360 0
-356 -361 0
-356 -362 0
-357 -358 0
-357 -359 0
-357 -360 0
-357 -361 0
-357 -362 0
-358 -359 0
-358 -360 0
-358 -361 0
-358 -362 0
-359 -360 0
-359 -361 0
-359 -362 0
-360 -361 0
-360 -362 0
-361 -362 0
-358 0
-360 0
363 364 365 366 367 368 369 0
-363 -364 0
-363 -365 0
-363 -366 0
-363 -367 0
-363 -368 0
-363 -369 0
-364 -365 0
-364 -366 0
-364 -367 0
-364 -368 0
-364 -369 0
-365 -366 0
-365 -367 0
-365 -368 0
-365 -369 0
-366 -367 0
-366 -368 0
-366 -369 0
-367 -368 0
-367 -369 0
-368 -369 0
-365 0
-368 0
370 371 372 373 374 375 376 0
-370 -371 0
-370 -372 0
-370 -373 0
-370 -374 0
-370 -375 0
-370 -376 0
-371 -372 0
-371 -373 0
-371 -374 0
-371 -375 0
-371 -376 0
-372 -373 0
-372 -374 0
-372 -375 0
-372 -376 0
-373 -374 0
-373 -375 0
-373 -376 0
-374 -375 0
-374 -376 0
-375 -376 0
-373 0
-374 0
377 378 379 380 381 382 383 0
-377 -378 0
-377 -379 0
-377 -380 0
-377 -381 0
-377 -382 0
-377 -383 0
-378 -379 0
-378 -380 0
-378 -381 0
-378 -382 0
-378 -383 0
-379 -380 0
-379 -381 0
-379 -382 0
-379 -383 0
-380 -381 0
-380 -382 0
-380 -383 0
-381 -382 0
-381 -383 0
-382 -383 0
-380 0
-382 0
384 385 386 387 388 389 390 0
-384 -385 0
-384 -386 0
-384 -387 0
-384 -388 0
-384 -389 0
-384 -390 0
-385 -386 0
-385 -387 0
-385 -388 0
-385 -389 0
-385 -390 0
-386 -387 0
-386 -388 0
-386 -389 0
-386 -390 0
-387 -388 0
-387 -389 0
-387 -390 0
-388 -389 0
-388 -390 0
-389 -390 0
-388 0
-389 0
391 392 393 394 395 396 397 0
-391 -392 0
-391 -393 0
-391 -394 0
-391 -395 0
-391 -396 0
-391 -397 0
-392 -393 0
-392 -394 0
-392 -395 0
-392 -396 0
-392 -397 0
-393 -394 0
-393 -395 0
-393 -396 0
-393 -397 0
-394 -395 0
-394 -396 0
-394 -397 0
-395 -396 0
-395 -397 0
-396 -397 0
-391 0
-392 0
398 399 400 401 402 403 404 0
-398 -399 0
-398 -400 0
-398 -401 0
-398 -402 0
-398 -403 0
-398 -404 0
-399 -400 0
-399 -401 0
-399 -402 0
-399 -403 0
-399 -404 0
-400 -401 0
-400 -402 0
-400 -403 0
-400 -404 0
-401 -402 0
-401 -403 0
-401 -404 0
-402 -403 0
-402 -404 0
-403 -404 0
-398 0
-400 0
405 406 407 408 409 410 411 0
-405 -406 0
-405 -407 0
-405 -408 0
-405 -409 0
-405 -410 0
-405 -411 0
-406 -407 0
-406 -408 0
-406 -409 0
-406 -410 0
-406 -411 0
-407 -408 0
-407 -409 0
-407 -410 0
-407 -411 0
-408 -409 0
-408 -410 0
-408 -411 0
-409 -410 0
-409 -411 0
-410 -411 0
-405 0
-408 0
412 413 414 415 416 417 418 0
-412 -413 0
-412 -414 0
-412 -415 0
-412 -416 0
-412 -417 0
-412 -418 0
-413 -414 0
-413 -415 0
-413 -416 0
-413 -417 0
-413 -418 0
-414 -415 0
-414 -416 0
-414 -417 0
-414 -418 0
-415 -416 0
-415 -417 0
-415 -418 0
-416 -417 0
-416 -418 0
-417 -418 0
-412 0
-416 0
419 420 421 422 423 424 425 0
-419 -420 0
-419 -421 0
-419 -422 0
-419 -423 0
-419 -424 0
-419 -425 0
-420 -421 0
-420 -422 0
-420 -423 0
-420 -424 0
-420 -425 0
-421 -422 0
-421 -423 0
-421 -424 0
-421 -425 0
-422 -423 0
-422 -424 0
-422 -425 0
-423 -424 0
-423 -425 0
-424 -425 0
-419 0
-424 0
426 427 428 429 430 431 432 0
-426 -427 0
-426 -428 0
-426 -429 0
-426 -430 0
-426 -431 0
-426 -432 0
-427 -428 0
-427 -429 0
-427 -430 0
-427 -431 0
-427 -432 0
-428 -429 0
-428 -430 0
-428 -431 0
-428 -432 0
-429 -430 0
-429 -431 0
-429 -432 0
-430 -431 0
-430 -432 0
-431 -432 0
-427 0
-428 0
433 434 435 436 437 438 439 0
-433 -434 0
-433 -435 0
-433 -436 0
-433 -437 0
-433 -438 0
-433 -439 0
-434 -435 0
-434 -436 0
-434 -437 0
-434 -438 0
-434 -439 0
-435 -436 0
-435 -437 0
-435 -438 0
-435 -439 0
-436 -437 0
-436 -438 0
-436 -439 0
-437 -438 0
-437 -439 0
-438 -439 0
-434 0
-436 0
440 441 442 443 444 445 446 0
-440 -441 0
-440 -442 0
-440 -443 0
-440 -444 0
-440 -445 0
-440 -446 0
-441 -442 0
-441 -443 0
-441 -444 0
-441 -445 0
-441 -446 0
-442 -443 0
-442 -444 0
-442 -445 0
-442 -446 0
-443 -444 0
-443 -445 0
-443 -446 0
-444 -445 0
-444 -446 0
-445 -446 0
-441 0
-444 0
447 448 449 450 451 452 453 0
-447 -448 0
-447 -449 0
-447 -450 0
-447 -451 0
-447 -452 0
-447 -453 0
-448 -449 0
-448 -450 0
-448 -451 0
-448 -452 0
-448 -453 0
-449 -450 0
-449 -451 0
-449 -452 0
-449 -453 0
-450 -451 0
-450 -452 0
-450 -453 0
-451 -452 0
-451 -453 0
-452 -453 0
-448 0
-452 0
454 455 456 457 458 459 460 0
-454 -455 0
-454 -456 0
-454 -457 0
-454 -458 0
-454 -459 0
-454 -460 0
-455 -456 0
-455 -457 0
-455 -458 0
-455 -459 0
-455 -460 0
-456 -457 0
-456 -458 0
-456 -459 0
-456 -460 0
-457 -458 0
-457 -459 0
-457 -460 0
-458 -459 0
-458 -460 0
-459 -460 0
-456 0
-457 0
461 462 463 464 465 466 467 0
-461 -462 0
-461 -463 0
-461 -464 0
-461 -465 0
-461 -466 0
-461 -467 0
-462 -463 0
-462 -464 0
-462 -465 0
-462 -466 0
-462 -467 0
-463 -464 0
-463 -465 0
-463 -466 0
-463 -467 0
-464 -465 0
-464 -466 0
-464 -467 0
-465 -466 0
-465 -467 0
-466 -467 0
-463 0
-465 0
468 469 470 471 472 473 474 0
-468 -469 0
-468 -470 0
-468 -471 0
-468 -472 0
-468 -473 0
-468 -474 0
-469 -470 0
-469 -471 0
-469 -472 0
-469 -473 0
-469 -474 0
-470 -471 0
-470 -472 0
-470 -473 0
-470 -474 0
-471 -472 0
-471 -473 0
-471 -474 0
-472 -473 0
-472 -474 0
-473 -474 0
-470 0
-473 0
475 476 477 478 479 480 481 0
-475 -476 0
-475 -477 0
-475 -478 0
-475 -479 0
-475 -480 0
-475 -481 0
-476 -477 0
-476 -478 0
-476 -479 0
-476 -480 0
-476 -481 0
-477 -478 0
-477 -479 0
-477 -480 0
-477 -481 0
-478 -479 0
-478 -480 0
-478 -481 0
-479 -480 0
-479 -481 0
-480 -481 0
-478 0
-479 0
482 483 484 485 486 487 488 0
-482 -483 0
-482 -484 0
-482 -485 0
-482 -486 0
-482 -487 0
-482 -488 0
-483 -484 0
-483 -485 0
-483 -486 0
-483 -487 0
-483 -488 0
-484 -485 0
-484 -486 0
-484 -487 0
-484 -488 0
-485 -486 0
-485 -487 0
-485 -488 0
-486 -487 0
-486 -488 0
-487 -488 0
-485 0
-487 0
489 490 491 492 493 494 495 0
-489 -490 0
-489 -491 0
-489 -492 0
-489 -493 0
-489 -494 0
-489 -495 0
-490 -491 0
-490 -492 0
-490 -493 0
-490 -494 0
-490 -495 0
-491 -492 0
-491 -493 0
-491 -494 0
-491 -495 0
-492 -493 0
-492 -494 0
-492 -495 0
-493 -494 0
-493 -495 0
-494 -495 0
-493 0
-494 0
496 497 498 499 500 501 502 0
-496 -497 0
-496 -498 0
-496 -499 0
-496 -500 0
-496 -501 0
-496 -502 0
-497 -498 0
-497 -499 0
-497 -500 0
-497 -501 0
-497 -502 0
-498 -499 0
-498 -500 0
-498 -501 0
-498 -502 0
-499 -500 0
-499 -501 0
-499 -502 0
-500 -501 0
-500 -502 0
-501 -502 0
-496 0
-497 0
503 504 505 506 507 508 509 0
-503 -504 0
-503 -505 0
-503 -506 0
-503 -507 0
-503 -508 0
-503 -509 0
-504 -505 0
-504 -506 0
-504 -507 0
-504 -508 0
-504 -509 0
-505 -506 0
-505 -507 0
-505 -508 0
-505 -509 0
-506 -507 0
-506 -508 0
-506 -509 0
-507 -508 0
-507 -509 0
-508 -509 0
-503 0
-505 0
510 511 512 513 514 515 516 0
-510 -511 0
-510 -512 0
-510 -513 0
-510 -514 0
-510 -515 0
-510 -516 0
-511 -512 0
-511 -513 0
-511 -514 0
-511 -515 0
-511 -516 0
-512 -513 0
-512 -514 0
-512 -515 0
-512 -516 0
-513 -514 0
-513 -515 0
-513 -516 0
-514 -515 0
-514 -516 0
-515 -516 0
-510 0
-513 0
517 518 519 520 521 522 523 0
-517 -518 0
-517 -519 0
-517 -520 0
-517 -521 0
-517 -522 0
-517 -523 0
-518 -519 0
-518 -520 0
-518 -521 0
-518 -522 0
-518 -523 0
-519 -520 0
-519 -521 0
-519 -522 0
-519 -523 0
-520 -521 0
-520 -522 0
-520 -523 0
-521 -522 0
-521 -523 0
-522 -523 0
-517 0
-521 0
524 525 526 527 528 529 530 0
-524 -525 0
-524 -526 0
-524 -527 0
-524 -528 0
-524 -529 0
-524 -530 0
-525 -526 0
-525 -527 0
-525 -528 0
-525 -529 0
-525 -530 0
-526 -527 0
-526 -528 0
-526 -529 0
-526 -530 0
-527 -528 0
-527 -529 0
-527 -530 0
-528 -529 0
-528 -530 0
-529 -530 0
-524 0
-529 0
531 532 533 534 535 536 537 0
-531 -532 0
-531 -533 0
-531 -534 0
-531 -535 0
-531 -536 0
-531 -537 0
-532 -533 0
-532 -534 0
-532 -535 0
-532 -536 0
-532 -537 0
-533 -534 0
-533 -535 0
-533 -536 0
-533 -537 0
-534 -535 0
-534 -536 0
-534 -537 0
-535 -536 0
-535 -537 0
-536 -537 0
-532 0
-533 0
538 539 540 541 542 543 544 0
-538 -539 0
-538 -540 0
-538 -541 0
-538 -542 0
-538 -543 0
-538 -544 0
-539 -540 0
-539 -541 0
-539 -542 0
-539 -543 0
-539 -544 0
-540 -541 0
-540 -542 0
-540 -543 0
-540 -544 0
-541 -542 0
-541 -543 0
-541 -544 0
-542 -543 0
-542 -544 0
-543 -544 0
-539 0
-541 0
545 546 547 548 549 550 551 0
-545 -546 0
-545 -547 0
-545 -548 0
-545 -549 0
-545 -550 0
-545 -551 0
-546 -547 0
-546 -548 0
-546 -549 0
-546 -550 0
-546 -551 0
-547 -548 0
-547 -549 0
-547 -550 0
-547 -551 0
-548 -549 0
-548 -550 0
-548 -551 0
-549 -550 0
-549 -551 0
-550 -551 0
-546 0
-549 0
552 553 554 555 556 557 558 0
-552 -553 0
-552 -554 0
-552 -555 0
-552 -556 0
-552 -557 0
-552 -558 0
-553 -554 0
-553 -555 0
-553 -556 0
-553 -557 0
-553 -558 0
-554 -555 0
-554 -556 0
-554 -557 0
-554 -558 0
-555 -556 0
-555 -557 0
-555 -558 0
-556 -557 0
-556 -558 0
-557 -558 0
-553 0
-557 0
559 560 561 562 563 564 565 0
-559 -560 0
-559 -561 0
-559 -562 0
-559 -563 0
-559 -564 0
-559 -565 0
-560 -561 0
-560 -562 0
-560 -563 0
-560 -564 0
-560 -565 0
-561 -562 0
-561 -563 0
-561 -564 0
-561 -565 0
-562 -563 0
-562 -564 0
-562 -565 0
-563 -564 0
-563 -565 0
-564 -565 0
-561 0
-562 0
566 567 568 569 570 571 572 0
-566 -567 0
-566 -568 0
-566 -569 0
-566 -570 0
-566 -571 0
-566 -572 0
-567 -568 0
-567 -569 0
-567 -570 0
-567 -571 0
-567 -572 0
-568 -569 0
-568 -570 0
-568 -571 0
-568 -572 0
-569 -570 0
-569 -571 0
-569 -572 0
-570 -571 0
-570 -572 0
-571 -572 0
-568 0
-570 0
573 574 575 576 577 578 579 0
-573 -574 0
-573 -575 0
-573 -576 0
-573 -577 0
-573 -578 0
-573 -579 0
-574 -575 0
-574 -576 0
-574 -577 0
-574 -578 0
-574 -579 0
-575 -576 0
-575 -577 0
-575 -578 0
-575 -579 0
-576 -577 0
-576 -578 0
-576 -579 0
-577 -578 0
-577 -579 0
-578 -579 0
-575 0
-578 0
580 581 582 583 584 585 586 0
-580 -581 0
-580 -582 0
-580 -583 0
-580 -584 0
-580 -585 0
-580 -586 0
-581 -582 0
-581 -583 0
-581 -584 0
-581 -585 0
-581 -586 0
-582 -583 0
-582 -584 0
-582 -585 0
-582 -586 0
-583 -584 0
-583 -585 0
-583 -586 0
-584 -585 0
-584 -586 0
-585 -586 0
-583 0
-584 0
587 588 589 590 591 592 593 0
-587 -588 0
-587 -589 0
-587 -590 0
-587 -591 0
-587 -592 0
-587 -593 0
-588 -589 0
-588 -590 0
-588 -591 0
-588 -592 0
-588 -593 0
-589 -590 0
-589 -591 0
-589 -592 0
-589 -593 0
-590 -591 0
-590 -592 0
-590 -593 0
-591 -592 0
-591 -593 0
-592 -593 0
-590 0
-592 0
594 595 596 597 598 599 600 0
-594 -595 0
-594 -596 0
-594 -597 0
-594 -598 0
-594 -599 0
-594 -600 0
-595 -596 0
-595 -597 0
-595 -598 0
-595 -599 0
-595 -600 0
-596 -597 0
-596 -598 0
-596 -599 0
-596 -600 0
-597 -598 0
-597 -599 0
-597 -600 0
-598 -599 0
-598 -600 0
-599 -600 0
-598 0
-599 0
601 602 603 604 605 606 607 0
-601 -602 0
-601 -603 0
-601 -604 0
-601 -605 0
-601 -606 0
-601 -607 0
-602 -603 0
-602 -604 0
-602 -605 0
-602 -606 0
-602 -607 0
-603 -604 0
-603 -605 0
-603 -606 0
-603 -607 0
-604 -605 0
-604 -606 0
-604 -607 0
-605 -606 0
-605 -607 0
-606 -607 0
-601 0
-602 0
608 609 610 611 612 613 614 0
-608 -609 0
-608 -610 0
-608 -611 0
-608 -612 0
-608 -613 0
-608 -614 0
-609 -610 0
-609 -611 0
-609 -612 0
-609 -613 0
-609 -614 0
-610 -611 0
-610 -612 0
-610 -613 0
-610 -614 0
-611 -612 0
-611 -613 0
-611 -614 0
-612 -613 0
-612 -614 0
-613 -614 0
-608 0
-610 0
615 616 617 618 619 620 621 0
-615 -616 0
-615 -617 0
-615 -618 0
-615 -619 0
-615 -620 0
-615 -621 0
-616 -617 0
-616 -618 0
-616 -619 0
-616 -620 0
-616 -621 0
-617 -618 0
-617 -619 0
-617 -620 0
-617 -621 0
-618 -619 0
-618 -620 0
-618 -621 0
-619 -620 0
-619 -621 0
-620 -621 0
-615 0
-618 0
622 623 624 625 626 627 628 0
-622 -623 0
-622 -624 0
-622 -625 0
-622 -626 0
-622 -627 0
-622 -628 0
-623 -624 0
-623 -625 0
-623 -626 0
-623 -627 0
-623 -628 0
-624 -625 0
-624 -626 0
-624 -627 0
-624 -628 0
-625 -626 0
-625 -627 0
-625 -628 0
-626 -627 0
-626 -628 0
-627 -628 0
-622 0
-626 0
629 630 631 632 633 634 635 0
-629 -630 0
-629 -631 0
-629 -632 0
-629 -633 0
-629 -634 0
-629 -635 0
-630 -631 0
-630 -632 0
-630 -633 0
-630 -634 0
-630 -635 0
-631 -632 0
-631 -633 0
-631 -634 0
-631 -635 0
-632 -633 0
-632 -634 0
-632 -635 0
-633 -634 0
-633 -635 0
-634 -635 0
-629 0
-634 0
636 637 638 639 640 641 642 0
-636 -637 0
-636 -638 0
-636 -639 0
-636 -640 0
-636 -641 0
-636 -642 0
-637 -638 0
-637 -639 0
-637 -640 0
-637 -641 0
-637 -642 0
-638 -639 0
-638 -640 0
-638 -641 0
-638 -642 0
-639 -640 0
-639 -641 0
-639 -642 0
-640 -641 0
-640 -642 0
-641 -642 0
-637 0
-638 0
643 644 645 646 647 648 649 0
-643 -644 0
-643 -645 0
-643 -646 0
-643 -647 0
-643 -648 0
-643 -649 0
-644 -645 0
-644 -646 0
-644 -647 0
-644 -648 0
-644 -649 0
-645 -646 0
-645 -647 0
-645 -648 0
-645 -649 0
-646 -647 0
-646 -648 0
-646 -649 0
-647 -648 0
-647 -649 0
-648 -649 0
-644 0
-646 0
650 651 652 653 654 655 656 0
-650 -651 0
-650 -652 0
-650 -653 0
-650 -654 0
-650 -655 0
-650 -656 0
-651 -652 0
-651 -653 0
-651 -654 0
-651 -655 0
-651 -656 0
-652 -653 0
-652 -654 0
-652 -655 0
-652 -656 0
-653 -654 0
-653 -655 0
-653 -656 0
-654 -655 0
-654 -656 0
-655 -656 0
-651 0
-654 0
657 658 659 660 661 662 663 0
-657 -658 0
-657 -659 0
-657 -660 0
-657 -661 0
-657 -662 0
-657 -663 0
-658 -659 0
-658 -660 0
-658 -661 0
-658 -662 0
-658 -663 0
-659 -660 0
-659 -661 0
-659 -662 0
-659 -663 0
-660 -661 0
-660 -662 0
-660 -663 0
-661 -662 0
-661 -663 0
-662 -663 0
-658 0
-662 0
664 665 666 667 668 669 670 0
-664 -665 0
-664 -666 0
-664 -667 0
-664 -668 0
-664 -669 0
-664 -670 0
-665 -666 0
-665 -667 0
-665 -668 0
-665 -669 0
-665 -670 0
-666 -667 0
-666 -668 0
-666 -669 0
-666 -670 0
-667 -668 0
-667 -669 0
-667 -670 0
-668 -669 0
-668 -670 0
-669 -670 0
-666 0
-667 0
671 672 673 674 675 676 677 0
-671 -672 0
-671 -673 0
-671 -674 0
-671 -675 0
-671 -676 0
-671 -677 0
-672 -673 0
-672 -674 0
-672 -675 0
-672 -676 0
-672 -677 0
-673 -674 0
-673 -675 0
-673 -676 0
-673 -677 0
-674 -675 0
-674 -676 0
-674 -677 0
-675 -676 0
-675 -677 0
-676 -677 0
-673 0
-675 0
678 679 680 681 682 683 684 0
-678 -679 0
-678 -680 0
-678 -681 0
-678 -682 0
-678 -683 0
-678 -684 0
-679 -680 0
-679 -681 0
-679 -682 0
-679 -683 0
-679 -684 0
-680 -681 0
-680 -682 0
-680 -683 0
-680 -684 0
-681 -682 0
-681 -683 0
-681 -684 0
-682 -683 0
-682 -684 0
-683 -684 0
-680 0
-683 0
685 686 687 688 689 690 691 0
-685 -686 0
-685 -687 0
-685 -688 0
-685 -689 0
-685 -690 0
-685 -691 0
-686 -687 0
-686 -688 0
-686 -689 0
-686 -690 0
-686 -691 0
-687 -688 0
-687 -689 0
-687 -690 0
-687 -691 0
-688 -689 0
-688 -690 0
-688 -691 0
-689 -690 0
-689 -691 0
-690 -691 0
-688 0
-689 0
692 693 694 695 696 697 698 0
-692 -693 0
-692 -694 0
-692 -695 0
-692 -696 0
-692 -697 0
-692 -698 0
-693 -694 0
-693 -695 0
-693 -696 0
-693 -697 0
-693 -698 0
-694 -695 0
-694 -696 0
-694 -697 0
-694 -698 0
-695 -696 0
-695 -697 0
-695 -698 0
-696 -697 0
-696 -698 0
-697 -698 0
-695 0
-697 0
699 700 701 702 703 704 705 0
-699 -700 0
-699 -701 0
-699 -702 0
-699 -703 0
-699 -704 0
-699 -705 0
-700 -701 0
-700 -702 0
-700 -703 0
-700 -704 0
-700 -705 0
-701 -702 0
-701 -703 0
-701 -704 0
-701 -705 0
-702 -703 0
-702 -704 0
-702 -705 0
-703 -704 0
-703 -705 0
-704 -705 0
-703 0
-704 0
182 189 196 203 210 2 0
-182 -189 0
-182 -196 0
-182 -203 0
-182 -210 0
-182 -2 0
-189 -196 0
-189 -203 0
-189 -210 0
-189 -2 0
-196 -203 0
-196 -210 0
-196 -2 0
-203 -210 0
-203 -2 0
-210 -2 0
183 190 197 204 211 3 0
-183 -190 0
-183 -197 0
-183 -204 0
-183 -211 0
-183 -3 0
-190 -197 0
-190 -204 0
-190 -211 0
-190 -3 0
-197 -204 0
-197 -211 0
-197 -3 0
-204 -211 0
-204 -3 0
-211 -3 0
184 191 198 205 212 4 0
-184 -191 0
-184 -198 0
-184 -205 0
-184 -212 0
-184 -4 0
-191 -198 0
-191 -205 0
-191 -212 0
-191 -4 0
-198 -205 0
-198 -212 0
-198 -4 0
-205 -212 0
-205 -4 0
-212 -4 0
185 192 199 206 213 5 0
-185 -192 0
-185 -199 0
-185 -206 0
-185 -213 0
-185 -5 0
-192 -199 0
-192 -206 0
-192 -213 0
-192 -5 0
-199 -206 0
-199 -213 0
-199 -5 0
-206 -213 0
-206 -5 0
-213 -5 0
186 193 200 207 214 6 0
-186 -193 0
-186 -200 0
-186 -207 0
-186 -214 0
-186 -6 0
-193 -200 0
-193 -207 0
-193 -214 0
-193 -6 0
-200 -207 0
-200 -214 0
-200 -6 0
-207 -214 0
-207 -6 0
-214 -6 0
187 194 201 208 215 0
-187 -194 0
-187 -201 0
-187 -208 0
-187 -215 0
-194 -201 0
-194 -208 0
-194 -215 0
-201 -208 0
-201 -215 0
-208 -215 0
181 216 223 230 237 7 0
-181 -216 0
-181 -223 0
-181 -230 0
-181 -237 0
-181 -7 0
-216 -223 0
-216 -230 0
-216 -237 0
-216 -7 0
-223 -230 0
-223 -237 0
-223 -7 0
-230 -237 0
-230 -7 0
-237 -7 0
183 218 225 232 239 9 0
-183 -218 0
-183 -225 0
-183 -232 0
-183 -239 0
-183 -9 0
-218 -225 0
-218 -232 0
-218 -239 0
-218 -9 0
-225 -232 0
-225 -239 0
-225 -9 0
-232 -239 0
-232 -9 0
-239 -9 0
184 219 226 233 240 10 0
-184 -219 0
-184 -226 0
-184 -233 0
-184 -240 0
-184 -10 0
-219 -226 0
-219 -233 0
-219 -240 0
-219 -10 0
-226 -233 0
-226 -240 0
-226 -10 0
-233 -240 0
-233 -10 0
-240 -10 0
185 220 227 234 241 11 0
-185 -220 0
-185 -227 0
-185 -234 0
-185 -241 0
-185 -11 0
-220 -227 0
-220 -234 0
-220 -241 0
-220 -11 0
-227 -234 0
-227 -241 0
-227 -11 0
-234 -241 0
-234 -11 0
-241 -11 0
186 221 228 235 242 12 0
-186 -221 0
-186 -228 0
-186 -235 0
-186 -242 0
-186 -12 0
-221 -228 0
-221 -235 0
-221 -242 0
-221 -12 0
-228 -235 0
-228 -242 0
-228 -12 0
-235 -242 0
-235 -12 0
-242 -12 0
187 222 229 236 243 0
-187 -222 0
-187 -229 0
-187 -236 0
-187 -243 0
-222 -229 0
-222 -236 0
-222 -243 0
-229 -236 0
-229 -243 0
-236 -243 0
188 216 244 251 258 13 0
-188 -216 0
-188 -244 0
-188 -251 0
-188 -258 0
-188 -13 0
-216 -244 0
-216 -251 0
-216 -258 0
-216 -13 0
-244 -251 0
-244 -258 0
-244 -13 0
-251 -258 0
-251 -13 0
-258 -13 0
189 217 245 252 259 14 0
-189 -217 0
-189 -245 0
-189 -252 0
-189 -259 0
-189 -14 0
-217 -245 0
-217 -252 0
-217 -259 0
-217 -14 0
-245 -252 0
-245 -259 0
-245 -14 0
-252 -259 0
-252 -14 0
-259 -14 0
191 219 247 254 261 16 0
-191 -219 0
-191 -247 0
-191 -254 0
-191 -261 0
-191 -16 0
-219 -247 0
-219 -254 0
-219 -261 0
-219 -16 0
-247 -254 0
-247 -261 0
-247 -16 0
-254 -261 0
-254 -16 0
-261 -16 0
192 220 248 255 262 17 0
-192 -220 0
-192 -248 0
-192 -255 0
-192 -262 0
-192 -17 0
-220 -248 0
-220 -255 0
-220 -262 0
-220 -17 0
-248 -255 0
-248 -262 0
-248 -17 0
-255 -262 0
-255 -17 0
-262 -17 0
193 221 249 256 263 18 0
-193 -221 0
-193 -249 0
-193 -256 0
-193 -263 0
-193 -18 0
-221 -249 0
-221 -256 0
-221 -263 0
-221 -18 0
-249 -256 0
-249 -263 0
-249 -18 0
-256 -263 0
-256 -18 0
-263 -18 0
194 222 250 257 264 0
-194 -222 0
-194 -250 0
-194 -257 0
-194 -264 0
-222 -250 0
-222 -257 0
-222 -264 0
-250 -257 0
-250 -264 0
-257 -264 0
195 223 244 265 272 19 0
-195 -223 0
-195 -244 0
-195 -265 0
-195 -272 0
-195 -19 0
-223 -244 0
-223 -265 0
-223 -272 0
-223 -19 0
-244 -265 0
-244 -272 0
-244 -19 0
-265 -272 0
-265 -19 0
-272 -19 0
196 224 245 266 273 20 0
-196 -224 0
-196 -245 0
-196 -266 0
-196 -273 0
-196 -20 0
-224 -245 0
-224 -266 0
-224 -273 0
-224 -20 0
-245 -266 0
-245 -273 0
-245 -20 0
-266 -273 0
-266 -20 0
-273 -20 0
197 225 246 267 274 21 0
-197 -225 0
-197 -246 0
-197 -267 0
-197 -274 0
-197 -21 0
-225 -246 0
-225 -267 0
-225 -274 0
-225 -21 0
-246 -267 0
-246 -274 0
-246 -21 0
-267 -274 0
-267 -21 0
-274 -21 0
199 227 248 269 276 23 0
-199 -227 0
-199 -248 0
-199 -269 0
-199 -276 0
-199 -23 0
-227 -248 0
-227 -269 0
-227 -276 0
-227 -23 0
-248 -269 0
-248 -276 0
-248 -23 0
-269 -276 0
-269 -23 0
-276 -23 0
200 228 249 270 277 24 0
-200 -228 0
-200 -249 0
-200 -270 0
-200 -277 0
-200 -24 0
-228 -249 0
-228 -270 0
-228 -277 0
-228 -24 0
-249 -270 0
-249 -277 0
-249 -24 0
-270 -277 0
-270 -24 0
-277 -24 0
201 229 250 271 278 0
-201 -229 0
-201 -250 0
-201 -271 0
-201 -278 0
-229 -250 0
-229 -271 0
-229 -278 0
-250 -271 0
-250 -278 0
-271 -278 0
202 230 251 265 279 25 0
-202 -230 0
-202 -251 0
-202 -265 0
-202 -279 0
-202 -25 0
-230 -251 0
-230 -265 0
-230 -279 0
-230 -25 0
-251 -265 0
-251 -279 0
-251 -25 0
-265 -279 0
-265 -25 0
-279 -25 0
203 231 252 266 280 26 0
-203 -231 0
-203 -252 0
-203 -266 0
-203 -280 0
-203 -26 0
-231 -252 0
-231 -266 0
-231 -280 0
-231 -26 0
-252 -266 0
-252 -280 0
-252 -26 0
-266 -280 0
-266 -26 0
-280 -26 0
204 232 253 267 281 27 0
-204 -232 0
-204 -253 0
-204 -267 0
-204 -281 0
-204 -27 0
-232 -253 0
-232 -267 0
-232 -281 0
-232 -27 0
-253 -267 0
-253 -281 0
-253 -27 0
-267 -281 0
-267 -27 0
-281 -27 0
205 233 254 268 282 28 0
-205 -233 0
-205 -254 0
-205 -268 0
-205 -282 0
-205 -28 0
-233 -254 0
-233 -268 0
-233 -282 0
-233 -28 0
-254 -268 0
-254 -282 0
-254 -28 0
-268 -282 0
-268 -28 0
-282 -28 0
207 235 256 270 284 30 0
-207 -235 0
-207 -256 0
-207 -270 0
-207 -284 0
-207 -30 0
-235 -256 0
-235 -270 0
-235 -284 0
-235 -30 0
-256 -270 0
-256 -284 0
-256 -30 0
-270 -284 0
-270 -30 0
-284 -30 0
208 236 257 271 285 0
-208 -236 0
-208 -257 0
-208 -271 0
-208 -285 0
-236 -257 0
-236 -271 0
-236 -285 0
-257 -271 0
-257 -285 0
-271 -285 0
209 237 258 272 279 31 0
-209 -237 0
-209 -258 0
-209 -272 0
-209 -279 0
-209 -31 0
-237 -258 0
-237 -272 0
-237 -279 0
-237 -31 0
-258 -272 0
-258 -279 0
-258 -31 0
-272 -279 0
-272 -31 0
-279 -31 0
210 238 259 273 280 32 0
-210 -238 0
-210 -259 0
-210 -273 0
-210 -280 0
-210 -32 0
-238 -259 0
-238 -273 0
-238 -280 0
-238 -32 0
-259 -273 0
-259 -280 0
-259 -32 0
-273 -280 0
-273 -32 0
-280 -32 0
211 239 260 274 281 33 0
-211 -239 0
-211 -260 0
-211 -274 0
-211 -281 0
-211 -33 0
-239 -260 0
-239 -274 0
-239 -281 0
-239 -33 0
-260 -274 0
-260 -281 0
-260 -33 0
-274 -281 0
-274 -33 0
-281 -33 0
212 240 261 275 282 34 0
-212 -240 0
-212 -261 0
-212 -275 0
-212 -282 0
-212 -34 0
-240 -261 0
-240 -275 0
-240 -282 0
-240 -34 0
-261 -275 0
-261 -282 0
-261 -34 0
-275 -282 0
-275 -34 0
-282 -34 0
213 241 262 276 283 35 0
-213 -241 0
-213 -262 0
-213 -276 0
-213 -283 0
-213 -35 0
-241 -262 0
-241 -276 0
-241 -283 0
-241 -35 0
-262 -276 0
-262 -283 0
-262 -35 0
-276 -283 0
-276 -35 0
-283 -35 0
215 243 264 278 285 0
-215 -243 0
-215 -264 0
-215 -278 0
-215 -285 0
-243 -264 0
-243 -278 0
-243 -285 0
-264 -278 0
-264 -285 0
-278 -285 0
287 294 301 308 315 38 0
-287 -294 0
-287 -301 0
-287 -308 0
-287 -315 0
-287 -38 0
-294 -301 0
-294 -308 0
-294 -315 0
-294 -38 0
-301 -308 0
-301 -315 0
-301 -38 0
-308 -315 0
-308 -38 0
-315 -38 0
288 295 302 309 316 39 0
-288 -295 0
-288 -302 0
-288 -309 0
-288 -316 0
-288 -39 0
-295 -302 0
-295 -309 0
-295 -316 0
-295 -39 0
-302 -309 0
-302 -316 0
-302 -39 0
-309 -316 0
-309 -39 0
-316 -39 0
289 296 303 310 317 40 0
-289 -296 0
-289 -303 0
-289 -310 0
-289 -317 0
-289 -40 0
-296 -303 0
-296 -310 0
-296 -317 0
-296 -40 0
-303 -310 0
-303 -317 0
-303 -40 0
-310 -317 0
-310 -40 0
-317 -40 0
290 297 304 311 318 41 0
-290 -297 0
-290 -304 0
-290 -311 0
-290 -318 0
-290 -41 0
-297 -304 0
-297 -311 0
-297 -318 0
-297 -41 0
-304 -311 0
-304 -318 0
-304 -41 0
-311 -318 0
-311 -41 0
-318 -41 0
291 298 305 312 319 42 0
-291 -298 0
-291 -305 0
-291 -312 0
-291 -319 0
-291 -42 0
-298 -305 0
-298 -312 0
-298 -319 0
-298 -42 0
-305 -312 0
-305 -319 0
-305 -42 0
-312 -319 0
-312 -42 0
-319 -42 0
292 299 306 313 320 0
-292 -299 0
-292 -306 0
-292 -313 0
-292 -320 0
-299 -306 0
-299 -313 0
-299 -320 0
-306 -313 0
-306 -320 0
-313 -320 0
286 321 328 335 342 43 0
-286 -321 0
-286 -328 0
-286 -335 0
-286 -342 0
-286 -43 0
-321 -328 0
-321 -335 0
-321 -342 0
-321 -43 0
-328 -335 0
-328 -342 0
-328 -43 0
-335 -342 0
-335 -43 0
-342 -43 0
288 323 330 337 344 45 0
-288 -323 0
-288 -330 0
-288 -337 0
-288 -344 0
-288 -45 0
-323 -330 0
-323 -337 0
-323 -344 0
-323 -45 0
-330 -337 0
-330 -344 0
-330 -45 0
-337 -344 0
-337 -45 0
-344 -45 0
289 324 331 338 345 46 0
-289 -324 0
-289 -331 0
-289 -338 0
-289 -345 0
-289 -46 0
-324 -331 0
-324 -338 0
-324 -345 0
-324 -46 0
-331 -338 0
-331 -345 0
-331 -46 0
-338 -345 0
-338 -46 0
-345 -46 0
290 325 332 339 346 47 0
-290 -325 0
-290 -332 0
-290 -339 0
-290 -346 0
-290 -47 0
-325 -332 0
-325 -339 0
-325 -346 0
-325 -47 0
-332 -339 0
-332 -346 0
-332 -47 0
-339 -346 0
-339 -47 0
-346 -47 0
291 326 333 340 347 48 0
-291 -326 0
-291 -333 0
-291 -340 0
-291 -347 0
-291 -48 0
-326 -333 0
-326 -340 0
-326 -347 0
-326 -48 0
-333 -340 0
-333 -347 0
-333 -48 0
-340 -347 0
-340 -48 0
-347 -48 0
292 327 334 341 348 0
-292 -327 0
-292 -334 0
-292 -341 0
-292 -348 0
-327 -334 0
-327 -341 0
-327 -348 0
-334 -341 0
-334 -348 0
-341 -348 0
293 321 349 356 363 49 0
-293 -321 0
-293 -349 0
-293 -356 0
-293 -363 0
-293 -49 0
-321 -349 0
-321 -356 0
-321 -363 0
-321 -49 0
-349 -356 0
-349 -363 0
-349 -49 0
-356 -363 0
-356 -49 0
-363 -49 0
294 322 350 357 364 50 0
-294 -322 0
-294 -350 0
-294 -357 0
-294 -364 0
-294 -50 0
-322 -350 0
-322 -357 0
-322 -364 0
-322 -50 0
-350 -357 0
-350 -364 0
-350 -50 0
-357 -364 0
-357 -50 0
-364 -50 0
296 324 352 359 366 52 0
-296 -324 0
-296 -352 0
-296 -359 0
-296 -366 0
-296 -52 0
-324 -352 0
-324 -359 0
-324 -366 0
-324 -52 0
-352 -359 0
-352 -366 0
-352 -52 0
-359 -366 0
-359 -52 0
-366 -52 0
297 325 353 360 367 53 0
-297 -325 0
-297 -353 0
-297 -360 0
-297 -367 0
-297 -53 0
-325 -353 0
-325 -360 0
-325 -367 0
-325 -53 0
-353 -360 0
-353 -367 0
-353 -53 0
-360 -367 0
-360 -53 0
-367 -53 0
298 326 354 361 368 54 0
-298 -326 0
-298 -354 0
-298 -361 0
-298 -368 0
-298 -54 0
-326 -354 0
-326 -361 0
-326 -368 0
-326 -54 0
-354 -361 0
-354 -368 0
-354 -54 0
-361 -368 0
-361 -54 0
-368 -54 0
299 327 355 362 369 0
-299 -327 0
-299 -355 0
-299 -362 0
-299 -369 0
-327 -355 0
-327 -362 0
-327 -369 0
-355 -362 0
-355 -369 0
-362 -369 0
300 328 349 370 377 55 0
-300 -328 0
-300 -349 0
-300 -370 0
-300 -377 0
-300 -55 0
-328 -349 0
-328 -370 0
-328 -377 0
-328 -55 0
-349 -370 0
-349 -377 0
-349 -55 0
-370 -377 0
-370 -55 0
-377 -55 0
301 329 350 371 378 56 0
-301 -329 0
-301 -350 0
-301 -371 0
-301 -378 0
-301 -56 0
-329 -350 0
-329 -371 0
-329 -378 0
-329 -56 0
-350 -371 0
-350 -378 0
-350 -56 0
-371 -378 0
-371 -56 0
-378 -56 0
302 330 351 372 379 57 0
-302 -330 0
-302 -351 0
-302 -372 0
-302 -379 0
-302 -57 0
-330 -351 0
-330 -372 0
-330 -379 0
-330 -57 0
-351 -372 0
-351 -379 0
-351 -57 0
-372 -379 0
-372 -57 0
-379 -57 0
304 332 353 374 381 59 0
-304 -332 0
-304 -353 0
-304 -374 0
-304 -381 0
-304 -59 0
-332 -353 0
-332 -374 0
-332 -381 0
-332 -59 0
-353 -374 0
-353 -381 0
-353 -59 0
-374 -381 0
-374 -59 0
-381 -59 0
305 333 354 375 382 60 0
-305 -333 0
-305 -354 0
-305 -375 0
-305 -382 0
-305 -60 0
-333 -354 0
-333 -375 0
-333 -382 0
-333 -60 0
-354 -375 0
-354 -382 0
-354 -60 0
-375 -382 0
-375 -60 0
-382 -60 0
306 334 355 376 383 0
-306 -334 0
-306 -355 0
-306 -376 0
-306 -383 0
-334 -355 0
-334 -376 0
-334 -383 0
-355 -376 0
-355 -383 0
-376 -383 0
307 335 356 370 384 61 0
-307 -335 0
-307 -356 0
-307 -370 0
-307 -384 0
-307 -61 0
-335 -356 0
-335 -370 0
-335 -384 0
-335 -61 0
-356 -370 0
-356 -384 0
-356 -61 0
-370 -384 0
-370 -61 0
-384 -61 0
308 336 357 371 385 62 0
-308 -336 0
-308 -357 0
-308 -371 0
-308 -385 0
-308 -62 0
-336 -357 0
-336 -371 0
-336 -385 0
-336 -62 0
-357 -371 0
-357 -385 0
-357 -62 0
-371 -385 0
-371 -62 0
-385 -62 0
309 337 358 372 386 63 0
-309 -337 0
-309 -358 0
-309 -372 0
-309 -386 0
-309 -63 0
-337 -358 0
-337 -372 0
-337 -386 0
-337 -63 0
-358 -372 0
-358 -386 0
-358 -63 0
-372 -386 0
-372 -63 0
-386 -63 0
310 338 359 373 387 64 0
-310 -338 0
-310 -359 0
-310 -373 0
-310 -387 0
-310 -64 0
-338 -359 0
-338 -373 0
-338 -387 0
-338 -64 0
-359 -373 0
-359 -387 0
-359 -64 0
-373 -387 0
-373 -64 0
-387 -64 0
312 340 361 375 389 66 0
-312 -340 0
-312 -361 0
-312 -375 0
-312 -389 0
-312 -66 0
-340 -361 0
-340 -375 0
-340 -389 0
-340 -66 0
-361 -375 0
-361 -389 0
-361 -66 0
-375 -389 0
-375 -66 0
-389 -66 0
313 341 362 376 390 0
-313 -341 0
-313 -362 0
-313 -376 0
-313 -390 0
-341 -362 0
-341 -376 0
-341 -390 0
-362 -376 0
-362 -390 0
-376 -390 0
314 342 363 377 384 67 0
-314 -342 0
-314 -363 0
-314 -377 0
-314 -384 0
-314 -67 0
-342 -363 0
-342 -377 0
-342 -384 0
-342 -67 0
-363 -377 0
-363 -384 0
-363 -67 0
-377 -384 0
-377 -67 0
-384 -67 0
315 343 364 378 385 68 0
-315 -343 0
-315 -364 0
-315 -378 0
-315 -385 0
-315 -68 0
-343 -364 0
-343 -378 0
-343 -385 0
-343 -68 0
-364 -378 0
-364 -385 0
-364 -68 0
-378 -385 0
-378 -68 0
-385 -68 0
316 344 365 379 386 69 0
-316 -344 0
-316 -365 0
-316 -379 0
-316 -386 0
-316 -69 0
-344 -365 0
-344 -379 0
-344 -386 0
-344 -69 0
-365 -379 0
-365 -386 0
-365 -69 0
-379 -386 0
-379 -69 0
-386 -69 0
317 345 366 380 387 70 0
-317 -345 0
-317 -366 0
-317 -380 0
-317 -387 0
-317 -70 0
-345 -366 0
-345 -380 0
-345 -387 0
-345 -70 0
-366 -380 0
-366 -387 0
-366 -70 0
-380 -387 0
-380 -70 0
-387 -70 0
318 346 367 381 388 71 0
-318 -346 0
-318 -367 0
-318 -381 0
-318 -388 0
-318 -71 0
-346 -367 0
-346 -381 0
-346 -388 0
-346 -71 0
-367 -381 0
-367 -388 0
-367 -71 0
-381 -388 0
-381 -71 0
-388 -71 0
320 348 369 383 390 0
-320 -348 0
-320 -369 0
-320 -383 0
-320 -390 0
-348 -369 0
-348 -383 0
-348 -390 0
-369 -383 0
-369 -390 0
-383 -390 0
392 399 406 413 420 74 0
-392 -399 0
-392 -406 0
-392 -413 0
-392 -420 0
-392 -74 0
-399 -406 0
-399 -413 0
-399 -420 0
-399 -74 0
-406 -413 0
-406 -420 0
-406 -74 0
-413 -420 0
-413 -74 0
-420 -74 0
393 400 407 414 421 75 0
-393 -400 0
-393 -407 0
-393 -414 0
-393 -421 0
-393 -75 0
-400 -407 0
-400 -414 0
-400 -421 0
-400 -75 0
-407 -414 0
-407 -421 0
-407 -75 0
-414 -421 0
-414 -75 0
-421 -75 0
394 401 408 415 422 76 0
-394 -401 0
-394 -408 0
-394 -415 0
-394 -422 0
-394 -76 0
-401 -408 0
-401 -415 0
-401 -422 0
-401 -76 0
-408 -415 0
-408 -422 0
-408 -76 0
-415 -422 0
-415 -76 0
-422 -76 0
395 402 409 416 423 77 0
-395 -402 0
-395 -409 0
-395 -416 0
-395 -423 0
-395 -77 0
-402 -409 0
-402 -416 0
-402 -423 0
-402 -77 0
-409 -416 0
-409 -423 0
-409 -77 0
-416 -423 0
-416 -77 0
-423 -77 0
396 403 410 417 424 78 0
-396 -403 0
-396 -410 0
-396 -417 0
-396 -424 0
-396 -78 0
-403 -410 0
-403 -417 0
-403 -424 0
-403 -78 0
-410 -417 0
-410 -424 0
-410 -78 0
-417 -424 0
-417 -78 0
-424 -78 0
397 404 411 418 425 0
-397 -404 0
-397 -411 0
-397 -418 0
-397 -425 0
-404 -411 0
-404 -418 0
-404 -425 0
-411 -418 0
-411 -425 0
-418 -425 0
391 426 433 440 447 79 0
-391 -426 0
-391 -433 0
-391 -440 0
-391 -447 0
-391 -79 0
-426 -433 0
-426 -440 0
-426 -447 0
-426 -79 0
-433 -440 0
-433 -447 0
-433 -79 0
-440 -447 0
-440 -79 0
-447 -79 0
393 428 435 442 449 81 0
-393 -428 0
-393 -435 0
-393 -442 0
-393 -449 0
-393 -81 0
-428 -435 0
-428 -442 0
-428 -449 0
-428 -81 0
-435 -442 0
-435 -449 0
-435 -81 0
-442 -449 0
-442 -81 0
-449 -81 0
394 429 436 443 450 82 0
-394 -429 0
-394 -436 0
-394 -443 0
-394 -450 0
-394 -82 0
-429 -436 0
-429 -443 0
-429 -450 0
-429 -82 0
-436 -443 0
-436 -450 0
-436 -82 0
-443 -450 0
-443 -82 0
-450 -82 0
395 430 437 444 451 83 0
-395 -430 0
-395 -437 0
-395 -444 0
-395 -451 0
-395 -83 0
-430 -437 0
-430 -444 0
-430 -451 0
-430 -83 0
-437 -444 0
-437 -451 0
-437 -83 0
-444 -451 0
-444 -83 0
-451 -83 0
396 431 438 445 452 84 0
-396 -431 0
-396 -438 0
-396 -445 0
-396 -452 0
-396 -84 0
-431 -438 0
-431 -445 0
-431 -452 0
-431 -84 0
-438 -445 0
-438 -452 0
-438 -84 0
-445 -452 0
-445 -84 0
-452 -84 0
397 432 439 446 453 0
-397 -432 0
-397 -439 0
-397 -446 0
-397 -453 0
-432 -439 0
-432 -446 0
-432 -453 0
-439 -446 0
-439 -453 0
-446 -453 0
398 426 454 461 468 85 0
-398 -426 0
-398 -454 0
-398 -461 0
-398 -468 0
-398 -85 0
-426 -454 0
-426 -461 0
-426 -468 0
-426 -85 0
-454 -461 0
-454 -468 0
-454 -85 0
-461 -468 0
-461 -85 0
-468 -85 0
399 427 455 462 469 86 0
-399 -427 0
-399 -455 0
-399 -462 0
-399 -469 0
-399 -86 0
-427 -455 0
-427 -462 0
-427 -469 0
-427 -86 0
-455 -462 0
-455 -469 0
-455 -86 0
-462 -469 0
-462 -86 0
-469 -86 0
401 429 457 464 471 88 0
-401 -429 0
-401 -457 0
-401 -464 0
-401 -471 0
-401 -88 0
-429 -457 0
-429 -464 0
-429 -471 0
-429 -88 0
-457 -464 0
-457 -471 0
-457 -88 0
-464 -471 0
-464 -88 0
-471 -88 0
402 430 458 465 472 89 0
-402 -430 0
-402 -458 0
-402 -465 0
-402 -472 0
-402 -89 0
-430 -458 0
-430 -465 0
-430 -472 0
-430 -89 0
-458 -465 0
-458 -472 0
-458 -89 0
-465 -472 0
-465 -89 0
-472 -89 0
403 431 459 466 473 90 0
-403 -431 0
-403 -459 0
-403 -466 0
-403 -473 0
-403 -90 0
-431 -459 0
-431 -466 0
-431 -473 0
-431 -90 0
-459 -466 0
-459 -473 0
-459 -90 0
-466 -473 0
-466 -90 0
-473 -90 0
404 432 460 467 474 0
-404 -432 0
-404 -460 0
-404 -467 0
-404 -474 0
-432 -460 0
-432 -467 0
-432 -474 0
-460 -467 0
-460 -474 0
-467 -474 0
405 433 454 475 482 91 0
-405 -433 0
-405 -454 0
-405 -475 0
-405 -482 0
-405 -91 0
-433 -454 0
-433 -475 0
-433 -482 0
-433 -91 0
-454 -475 0
-454 -482 0
-454 -91 0
-475 -482 0
-475 -91 0
-482 -91 0
406 434 455 476 483 92 0
-406 -434 0
-406 -455 0
-406 -476 0
-406 -483 0
-406 -92 0
-434 -455 0
-434 -476 0
-434 -483 0
-434 -92 0
-455 -476 0
-455 -483 0
-455 -92 0
-476 -483 0
-476 -92 0
-483 -92 0
407 435 456 477 484 93 0
-407 -435 0
-407 -456 0
-407 -477 0
-407 -484 0
-407 -93 0
-435 -456 0
-435 -477 0
-435 -484 0
-435 -93 0
-456 -477 0
-456 -484 0
-456 -93 0
-477 -484 0
-477 -93 0
-484 -93 0
409 437 458 479 486 95 0
-409 -437 0
-409 -458 0
-409 -479 0
-409 -486 0
-409 -95 0
-437 -458 0
-437 -479 0
-437 -486 0
-437 -95 0
-458 -479 0
-458 -486 0
-458 -95 0
-479 -486 0
-479 -95 0
-486 -95 0
410 438 459 480 487 96 0
-410 -438 0
-410 -459 0
-410 -480 0
-410 -487 0
-410 -96 0
-438 -459 0
-438 -480 0
-438 -487 0
-438 -96 0
-459 -480 0
-459 -487 0
-459 -96 0
-480 -487 0
-480 -96 0
-487 -96 0
411 439 460 481 488 0
-411 -439 0
-411 -460 0
-411 -481 0
-411 -488 0
-439 -460 0
-439 -481 0
-439 -488 0
-460 -481 0
-460 -488 0
-481 -488 0
412 440 461 475 489 97 0
-412 -440 0
-412 -461 0
-412 -475 0
-412 -489 0
-412 -97 0
-440 -461 0
-440 -475 0
-440 -489 0
-440 -97 0
-461 -475 0
-461 -489 0
-461 -97 0
-475 -489 0
-475 -97 0
-489 -97 0
413 441 462 476 490 98 0
-413 -441 0
-413 -462 0
-413 -476 0
-413 -490 0
-413 -98 0
-441 -462 0
-441 -476 0
-441 -490 0
-441 -98 0
-462 -476 0
-462 -490 0
-462 -98 0
-476 -490 0
-476 -98 0
-490 -98 0
414 442 463 477 491 99 0
-414 -442 0
-414 -463 0
-414 -477 0
-414 -491 0
-414 -99 0
-442 -463 0
-442 -477 0
-442 -491 0
-442 -99 0
-463 -477 0
-463 -491 0
-463 -99 0
-477 -491 0
-477 -99 0
-491 -99 0
415 443 464 478 492 100 0
-415 -443 0
-415 -464 0
-415 -478 0
-415 -492 0
-415 -100 0
-443 -464 0
-443 -478 0
-443 -492 0
-443 -100 0
-464 -478 0
-464 -492 0
-464 -100 0
-478 -492 0
-478 -100 0
-492 -100 0
417 445 466 480 494 102 0
-417 -445 0
-417 -466 0
-417 -480 0
-417 -494 0
-417 -102 0
-445 -466 0
-445 -480 0
-445 -494 0
-445 -102 0
-466 -480 0
-466 -494 0
-466 -102 0
-480 -494 0
-480 -102 0
-494 -102 0
418 446 467 481 495 0
-418 -446 0
-418 -467 0
-418 -481 0
-418 -495 0
-446 -467 0
-446 -481 0
-446 -495 0
-467 -481 0
-467 -495 0
-481 -495 0
419 447 468 482 489 103 0
-419 -447 0
-419 -468 0
-419 -482 0
-419 -489 0
-419 -103 0
-447 -468 0
-447 -482 0
-447 -489 0
-447 -103 0
-468 -482 0
-468 -489 0
-468 -103 0
-482 -489 0
-482 -103 0
-489 -103 0
420 448 469 483 490 104 0
-420 -448 0
-420 -469 0
-420 -483 0
-420 -490 0
-420 -104 0
-448 -469 0
-448 -483 0
-448 -490 0
-448 -104 0
-469 -483 0
-469 -490 0
-469 -104 0
-483 -490 0
-483 -104 0
-490 -104 0
421 449 470 484 491 105 0
-421 -449 0
-421 -470 0
-421 -484 0
-421 -491 0
-421 -105 0
-449 -470 0
-449 -484 0
-449 -491 0
-449 -105 0
-470 -484 0
-470 -491 0
-470 -105 0
-484 -491 0
-484 -105 0
-491 -105 0
422 450 471 485 492 106 0
-422 -450 0
-422 -471 0
-422 -485 0
-422 -492 0
-422 -106 0
-450 -471 0
-450 -485 0
-450 -492 0
-450 -106 0
-471 -485 0
-471 -492 0
-471 -106 0
-485 -492 0
-485 -106 0
-492 -106 0
423 451 472 486 493 107 0
-423 -451 0
-423 -472 0
-423 -486 0
-423 -493 0
-423 -107 0
-451 -472 0
-451 -486 0
-451 -493 0
-451 -107 0
-472 -486 0
-472 -493 0
-472 -107 0
-486 -493 0
-486 -107 0
-493 -107 0
425 453 474 488 495 0
-425 -453 0
-425 -474 0
-425 -488 0
-425 -495 0
-453 -474 0
-453 -488 0
-453 -495 0
-474 -488 0
-474 -495 0
-488 -495 0
497 504 511 518 525 110 0
-497 -504 0
-497 -511 0
-497 -518 0
-497 -525 0
-497 -110 0
-504 -511 0
-504 -518 0
-504 -525 0
-504 -110 0
-511 -518 0
-511 -525 0
-511 -110 0
-518 -525 0
-518 -110 0
-525 -110 0
498 505 512 519 526 111 0
-498 -505 0
-498 -512 0
-498 -519 0
-498 -526 0
-498 -111 0
-505 -512 0
-505 -519 0
-505 -526 0
-505 -111 0
-512 -519 0
-512 -526 0
-512 -111 0
-519 -526 0
-519 -111 0
-526 -111 0
499 506 513 520 527 112 0
-499 -506 0
-499 -513 0
-499 -520 0
-499 -527 0
-499 -112 0
-506 -513 0
-506 -520 0
-506 -527 0
-506 -112 0
-513 -520 0
-513 -527 0
-513 -112 0
-520 -527 0
-520 -112 0
-527 -112 0
500 507 514 521 528 113 0
-500 -507 0
-500 -514 0
-500 -521 0
-500 -528 0
-500 -113 0
-507 -514 0
-507 -521 0
-507 -528 0
-507 -113 0
-514 -521 0
-514 -528 0
-514 -113 0
-521 -528 0
-521 -113 0
-528 -113 0
501 508 515 522 529 114 0
-501 -508 0
-501 -515 0
-501 -522 0
-501 -529 0
-501 -114 0
-508 -515 0
-508 -522 0
-508 -529 0
-508 -114 0
-515 -522 0
-515 -529 0
-515 -114 0
-522 -529 0
-522 -114 0
-529 -114 0
502 509 516 523 530 0
-502 -509 0
-502 -516 0
-502 -523 0
-502 -530 0
-509 -516 0
-509 -523 0
-509 -530 0
-516 -523 0
-516 -530 0
-523 -530 0
496 531 538 545 552 115 0
-496 -531 0
-496 -538 0
-496 -545 0
-496 -552 0
-496 -115 0
-531 -538 0
-531 -545 0
-531 -552 0
-531 -115 0
-538 -545 0
-538 -552 0
-538 -115 0
-545 -552 0
-545 -115 0
-552 -115 0
498 533 540 547 554 117 0
-498 -533 0
-498 -540 0
-498 -547 0
-498 -554 0
-498 -117 0
-533 -540 0
-533 -547 0
-533 -554 0
-533 -117 0
-540 -547 0
-540 -554 0
-540 -117 0
-547 -554 0
-547 -117 0
-554 -117 0
499 534 541 548 555 118 0
-499 -534 0
-499 -541 0
-499 -548 0
-499 -555 0
-499 -118 0
-534 -541 0
-534 -548 0
-534 -555 0
-534 -118 0
-541 -548 0
-541 -555 0
-541 -118 0
-548 -555 0
-548 -118 0
-555 -118 0
500 535 542 549 556 119 0
-500 -535 0
-500 -542 0
-500 -549 0
-500 -556 0
-500 -119 0
-535 -542 0
-535 -549 0
-535 -556 0
-535 -119 0
-542 -549 0
-542 -556 0
-542 -119 0
-549 -556 0
-549 -119 0
-556 -119 0
501 536 543 550 557 120 0
-501 -536 0
-501 -543 0
-501 -550 0
-501 -557 0
-501 -120 0
-536 -543 0
-536 -550 0
-536 -557 0
-536 -120 0
-543 -550 0
-543 -557 0
-543 -120 0
-550 -557 0
-550 -120 0
-557 -120 0
502 537 544 551 558 0
-502 -537 0
-502 -544 0
-502 -551 0
-502 -558 0
-537 -544 0
-537 -551 0
-537 -558 0
-544 -551 0
-544 -558 0
-551 -558 0
503 531 559 566 573 121 0
-503 -531 0
-503 -559 0
-503 -566 0
-503 -573 0
-503 -121 0
-531 -559 0
-531 -566 0
-531 -573 0
-531 -121 0
-559 -566 0
-559 -573 0
-559 -121 0
-566 -573 0
-566 -121 0
-573 -121 0
504 532 560 567 574 122 0
-504 -532 0
-504 -560 0
-504 -567 0
-504 -574 0
-504 -122 0
-532 -560 0
-532 -567 0
-532 -574 0
-532 -122 0
-560 -567 0
-560 -574 0
-560 -122 0
-567 -574 0
-567 -122 0
-574 -122 0
506 534 562 569 576 124 0
-506 -534 0
-506 -562 0
-506 -569 0
-506 -576 0
-506 -124 0
-534 -562 0
-534 -569 0
-534 -576 0
-534 -124 0
-562 -569 0
-562 -576 0
-562 -124 0
-569 -576 0
-569 -124 0
-576 -124 0
507 535 563 570 577 125 0
-507 -535 0
-507 -563 0
-507 -570 0
-507 -577 0
-507 -125 0
-535 -563 0
-535 -570 0
-535 -577 0
-535 -125 0
-563 -570 0
-563 -577 0
-563 -125 0
-570 -577 0
-570 -125 0
-577 -125 0
508 536 564 571 578 126 0
-508 -536 0
-508 -564 0
-508 -571 0
-508 -578 0
-508 -126 0
-536 -564 0
-536 -571 0
-536 -578 0
-536 -126 0
-564 -571 0
-564 -578 0
-564 -126 0
-571 -578 0
-571 -126 0
-578 -126 0
509 537 565 572 579 0
-509 -537 0
-509 -565 0
-509 -572 0
-509 -579 0
-537 -565 0
-537 -572 0
-537 -579 0
-565 -572 0
-565 -579 0
-572 -579 0
510 538 559 580 587 127 0
-510 -538 0
-510 -559 0
-510 -580 0
-510 -587 0
-510 -127 0
-538 -559 0
-538 -580 0
-538 -587 0
-538 -127 0
-559 -580 0
-559 -587 0
-559 -127 0
-580 -587 0
-580 -127 0
-587 -127 0
511 539 560 581 588 128 0
-511 -539 0
-511 -560 0
-511 -581 0
-511 -588 0
-511 -128 0
-539 -560 0
-539 -581 0
-539 -588 0
-539 -128 0
-560 -581 0
-560 -588 0
-560 -128 0
-581 -588 0
-581 -128 0
-588 -128 0
512 540 561 582 589 129 0
-512 -540 0
-512 -561 0
-512 -582 0
-512 -589 0
-512 -129 0
-540 -561 0
-540 -582 0
-540 -589 0
-540 -129 0
-561 -582 0
-561 -589 0
-561 -129 0
-582 -589 0
-582 -129 0
-589 -129 0
514 542 563 584 591 131 0
-514 -542 0
-514 -563 0
-514 -584 0
-514 -591 0
-514 -131 0
-542 -563 0
-542 -584 0
-542 -591 0
-542 -131 0
-563 -584 0
-563 -591 0
-563 -131 0
-584 -591 0
-584 -131 0
-591 -131 0
515 543 564 585 592 132 0
-515 -543 0
-515 -564 0
-515 -585 0
-515 -592 0
-515 -132 0
-543 -564 0
-543 -585 0
-543 -592 0
-543 -132 0
-564 -585 0
-564 -592 0
-564 -132 0
-585 -592 0
-585 -132 0
-592 -132 0
516 544 565 586 593 0
-516 -544 0
-516 -565 0
-516 -586 0
-516 -593 0
-544 -565 0
-544 -586 0
-544 -593 0
-565 -586 0
-565 -593 0
-586 -593 0
517 545 566 580 594 133 0
-517 -545 0
-517 -566 0
-517 -580 0
-517 -594 0
-517 -133 0
-545 -566 0
-545 -580 0
-545 -594 0
-545 -133 0
-566 -580 0
-566 -594 0
-566 -133 0
-580 -594 0
-580 -133 0
-594 -133 0
518 546 567 581 595 134 0
-518 -546 0
-518 -567 0
-518 -581 0
-518 -595 0
-518 -134 0
-546 -567 0
-546 -581 0
-546 -595 0
-546 -134 0
-567 -581 0
-567 -595 0
-567 -134 0
-581 -595 0
-581 -134 0
-595 -134 0
519 547 568 582 596 135 0
-519 -547 0
-519 -568 0
-519 -582 0
-519 -596 0
-519 -135 0
-547 -568 0
-547 -582 0
-547 -596 0
-547 -135 0
-568 -582 0
-568 -596 0
-568 -135 0
-582 -596 0
-582 -135 0
-596 -135 0
520 548 569 583 597 136 0
-520 -548 0
-520 -569 0
-520 -583 0
-520 -597 0
-520 -136 0
-548 -569 0
-548 -583 0
-548 -597 0
-548 -136 0
-569 -583 0
-569 -597 0
-569 -136 0
-583 -597 0
-583 -136 0
-597 -136 0
522 550 571 585 599 138 0
-522 -550 0
-522 -571 0
-522 -585 0
-522 -599 0
-522 -138 0
-550 -571 0
-550 -585 0
-550 -599 0
-550 -138 0
-571 -585 0
-571 -599 0
-571 -138 0
-585 -599 0
-585 -138 0
-599 -138 0
523 551 572 586 600 0
-523 -551 0
-523 -572 0
-523 -586 0
-523 -600 0
-551 -572 0
-551 -586 0
-551 -600 0
-572 -586 0
-572 -600 0
-586 -600 0
524 552 573 587 594 139 0
-524 -552 0
-524 -573 0
-524 -587 0
-524 -594 0
-524 -139 0
-552 -573 0
-552 -587 0
-552 -594 0
-552 -139 0
-573 -587 0
-573 -594 0
-573 -139 0
-587 -594 0
-587 -139 0
-594 -139 0
525 553 574 588 595 140 0
-525 -553 0
-525 -574 0
-525 -588 0
-525 -595 0
-525 -140 0
-553 -574 0
-553 -588 0
-553 -595 0
-553 -140 0
-574 -588 0
-574 -595 0
-574 -140 0
-588 -595 0
-588 -140 0
-595 -140 0
526 554 575 589 596 141 0
-526 -554 0
-526 -575 0
-526 -589 0
-526 -596 0
-526 -141 0
-554 -575 0
-554 -589 0
-554 -596 0
-554 -141 0
-575 -589 0
-575 -596 0
-575 -141 0
-589 -596 0
-589 -141 0
-596 -141 0
527 555 576 590 597 142 0
-527 -555 0
-527 -576 0
-527 -590 0
-527 -597 0
-527 -142 0
-555 -576 0
-555 -590 0
-555 -597 0
-555 -142 0
-576 -590 0
-576 -597 0
-576 -142 0
-590 -597 0
-590 -142 0
-597 -142 0
528 556 577 591 598 143 0
-528 -556 0
-528 -577 0
-528 -591 0
-528 -598 0
-528 -143 0
-556 -577 0
-556 -591 0
-556 -598 0
-556 -143 0
-577 -591 0
-577 -598 0
-577 -143 0
-591 -598 0
-591 -143 0
-598 -143 0
530 558 579 593 600 0
-530 -558 0
-530 -579 0
-530 -593 0
-530 -600 0
-558 -579 0
-558 -593 0
-558 -600 0
-579 -593 0
-579 -600 0
-593 -600 0
602 609 616 623 630 146 0
-602 -609 0
-602 -616 0
-602 -623 0
-602 -630 0
-602 -146 0
-609 -616 0
-609 -623 0
-609 -630 0
-609 -146 0
-616 -623 0
-616 -630 0
-616 -146 0
-623 -630 0
-623 -146 0
-630 -146 0
603 610 617 624 631 147 0
-603 -610 0
-603 -617 0
-603 -624 0
-603 -631 0
-603 -147 0
-610 -617 0
-610 -624 0
-610 -631 0
-610 -147 0
-617 -624 0
-617 -631 0
-617 -147 0
-624 -631 0
-624 -147 0
-631 -147 0
604 611 618 625 632 148 0
-604 -611 0
-604 -618 0
-604 -625 0
-604 -632 0
-604 -148 0
-611 -618 0
-611 -625 0
-611 -632 0
-611 -148 0
-618 -625 0
-618 -632 0
-618 -148 0
-625 -632 0
-625 -148 0
-632 -148 0
605 612 619 626 633 149 0
-605 -612 0
-605 -619 0
-605 -626 0
-605 -633 0
-605 -149 0
-612 -619 0
-612 -626 0
-612 -633 0
-612 -149 0
-619 -626 0
-619 -633 0
-619 -149 0
-626 -633 0
-626 -149 0
-633 -149 0
606 613 620 627 634 150 0
-606 -613 0
-606 -620 0
-606 -627 0
-606 -634 0
-606 -150 0
-613 -620 0
-613 -627 0
-613 -634 0
-613 -150 0
-620 -627 0
-620 -634 0
-620 -150 0
-627 -634 0
-627 -150 0
-634 -150 0
607 614 621 628 635 0
-607 -614 0
-607 -621 0
-607 -628 0
-607 -635 0
-614 -621 0
-614 -628 0
-614 -635 0
-621 -628 0
-621 -635 0
-628 -635 0
601 636 643 650 657 151 0
-601 -636 0
-601 -643 0
-601 -650 0
-601 -657 0
-601 -151 0
-636 -643 0
-636 -650 0
-636 -657 0
-636 -151 0
-643 -650 0
-643 -657 0
-643 -151 0
-650 -657 0
-650 -151 0
-657 -151 0
603 638 645 652 659 153 0
-603 -638 0
-603 -645 0
-603 -652 0
-603 -659 0
-603 -153 0
-638 -645 0
-638 -652 0
-638 -659 0
-638 -153 0
-645 -652 0
-645 -659 0
-645 -153 0
-652 -659 0
-652 -153 0
-659 -153 0
604 639 646 653 660 154 0
-604 -639 0
-604 -646 0
-604 -653 0
-604 -660 0
-604 -154 0
-639 -646 0
-639 -653 0
-639 -660 0
-639 -154 0
-646 -653 0
-646 -660 0
-646 -154 0
-653 -660 0
-653 -154 0
-660 -154 0
605 640 647 654 661 155 0
-605 -640 0
-605 -647 0
-605 -654 0
-605 -661 0
-605 -155 0
-640 -647 0
-640 -654 0
-640 -661 0
-640 -155 0
-647 -654 0
-647 -661 0
-647 -155 0
-654 -661 0
-654 -155 0
-661 -155 0
606 641 648 655 662 156 0
-606 -641 0
-606 -648 0
-606 -655 0
-606 -662 0
-606 -156 0
-641 -648 0
-641 -655 0
-641 -662 0
-641 -156 0
-648 -655 0
-648 -662 0
-648 -156 0
-655 -662 0
-655 -156 0
-662 -156 0
607 642 649 656 663 0
-607 -642 0
-607 -649 0
-607 -656 0
-607 -663 0
-642 -649 0
-642 -656 0
-642 -663 0
-649 -656 0
-649 -663 0
-656 -663 0
608 636 664 671 678 157 0
-608 -636 0
-608 -664 0
-608 -671 0
-608 -678 0
-608 -157 0
-636 -664 0
-636 -671 0
-636 -678 0
-636 -157 0
-664 -671 0
-664 -678 0
-664 -157 0
-671 -678 0
-671 -157 0
-678 -157 0
609 637 665 672 679 158 0
-609 -637 0
-609 -665 0
-609 -672 0
-609 -679 0
-609 -158 0
-637 -665 0
-637 -672 0
-637 -679 0
-637 -158 0
-665 -672 0
-665 -679 0
-665 -158 0
-672 -679 0
-672 -158 0
-679 -158 0
611 639 667 674 681 160 0
-611 -639 0
-611 -667 0
-611 -674 0
-611 -681 0
-611 -160 0
-639 -667 0
-639 -674 0
-639 -681 0
-639 -160 0
-667 -674 0
-667 -681 0
-667 -160 0
-674 -681 0
-674 -160 0
-681 -160 0
612 640 668 675 682 161 0
-612 -640 0
-612 -668 0
-612 -675 0
-612 -682 0
-612 -161 0
-640 -668 0
-640 -675 0
-640 -682 0
-640 -161 0
-668 -675 0
-668 -682 0
-668 -161 0
-675 -682 0
-675 -161 0
-682 -161 0
613 641 669 676 683 162 0
-613 -641 0
-613 -669 0
-613 -676 0
-613 -683 0
-613 -162 0
-641 -669 0
-641 -676 0
-641 -683 0
-641 -162 0
-669 -676 0
-669 -683 0
-669 -162 0
-676 -683 0
-676 -162 0
-683 -162 0
614 642 670 677 684 0
-614 -642 0
-614 -670 0
-614 -677 0
-614 -684 0
-642 -670 0
-642 -677 0
-642 -684 0
-670 -677 0
-670 -684 0
-677 -684 0
615 643 664 685 692 163 0
-615 -643 0
-615 -664 0
-615 -685 0
-615 -692 0
-615 -163 0
-643 -664 0
-643 -685 0
-643 -692 0
-643 -163 0
-664 -685 0
-664 -692 0
-664 -163 0
-685 -692 0
-685 -163 0
-692 -163 0
616 644 665 686 693 164 0
-616 -644 0
-616 -665 0
-616 -686 0
-616 -693 0
-616 -164 0
-644 -665 0
-644 -686 0
-644 -693 0
-644 -164 0
-665 -686 0
-665 -693 0
-665 -164 0
-686 -693 0
-686 -164 0
-693 -164 0
617 645 666 687 694 165 0
-617 -645 0
-617 -666 0
-617 -687 0
-617 -694 0
-617 -165 0
-645 -666 0
-645 -687 0
-645 -694 0
-645 -165 0
-666 -687 0
-666 -694 0
-666 -165 0
-687 -694 0
-687 -165 0
-694 -165 0
619 647 668 689 696 167 0
-619 -647 0
-619 -668 0
-619 -689 0
-619 -696 0
-619 -167 0
-647 -668 0
-647 -689 0
-647 -696 0
-647 -167 0
-668 -689 0
-668 -696 0
-668 -167 0
-689 -696 0
-689 -167 0
-696 -167 0
620 648 669 690 697 168 0
-620 -648 0
-620 -669 0
-620 -690 0
-620 -697 0
-620 -168 0
-648 -669 0
-648 -690 0
-648 -697 0
-648 -168 0
-669 -690 0
-669 -697 0
-669 -168 0
-690 -697 0
-690 -168 0
-697 -168 0
621 649 670 691 698 0
-621 -649 0
-621 -670 0
-621 -691 0
-621 -698 0
-649 -670 0
-649 -691 0
-649 -698 0
-670 -691 0
-670 -698 0
-691 -698 0
622 650 671 685 699 169 0
-622 -650 0
-622 -671 0
-622 -685 0
-622 -699 0
-622 -169 0
-650 -671 0
-650 -685 0
-650 -699 0
-650 -169 0
-671 -685 0
-671 -699 0
-671 -169 0
-685 -699 0
-685 -169 0
-699 -169 0
623 651 672 686 700 170 0
-623 -651 0
-623 -672 0
-623 -686 0
-623 -700 0
-623 -170 0
-651 -672 0
-651 -686 0
-651 -700 0
-651 -170 0
-672 -686 0
-672 -700 0
-672 -170 0
-686 -700 0
-686 -170 0
-700 -170 0
624 652 673 687 701 171 0
-624 -652 0
-624 -673 0
-624 -687 0
-624 -701 0
-624 -171 0
-652 -673 0
-652 -687 0
-652 -701 0
-652 -171 0
-673 -687 0
-673 -701 0
-673 -171 0
-687 -701 0
-687 -171 0
-701 -171 0
625 653 674 688 702 172 0
-625 -653 0
-625 -674 0
-625 -688 0
-625 -702 0
-625 -172 0
-653 -674 0
-653 -688 0
-653 -702 0
-653 -172 0
-674 -688 0
-674 -702 0
-674 -172 0
-688 -702 0
-688 -172 0
-702 -172 0
627 655 676 690 704 174 0
-627 -655 0
-627 -676 0
-627 -690 0
-627 -704 0
-627 -174 0
-655 -676 0
-655 -690 0
-655 -704 0
-655 -174 0
-676 -690 0
-676 -704 0
-676 -174 0
-690 -704 0
-690 -174 0
-704 -174 0
628 656 677 691 705 0
-628 -656 0
-628 -677 0
-628 -691 0
-628 -705 0
-656 -677 0
-656 -691 0
-656 -705 0
-677 -691 0
-677 -705 0
-691 -705 0
629 657 678 692 699 175 0
-629 -657 0
-629 -678 0
-629 -692 0
-629 -699 0
-629 -175 0
-657 -678 0
-657 -692 0
-657 -699 0
-657 -175 0
-678 -692 0
-678 -699 0
-678 -175 0
-692 -699 0
-692 -175 0
-699 -175 0
630 658 679 693 700 176 0
-630 -658 0
-630 -679 0
-630 -693 0
-630 -700 0
-630 -176 0
-658 -679 0
-658 -693 0
-658 -700 0
-658 -176 0
-679 -693 0
-679 -700 0
-679 -176 0
-693 -700 0
-693 -176 0
-700 -176 0
631 659 680 694 701 177 0
-631 -659 0
-631 -680 0
-631 -694 0
-631 -701 0
-631 -177 0
-659 -680 0
-659 -694 0
-659 -701 0
-659 -177 0
-680 -694 0
-680 -701 0
-680 -177 0
-694 -701 0
-694 -177 0
-701 -177 0
632 660 681 695 702 178 0
-632 -660 0
-632 -681 0
-632 -695 0
-632 -702 0
-632 -178 0
-660 -681 0
-660 -695 0
-660 -702 0
-660 -178 0
-681 -695 0
-681 -702 0
-681 -178 0
-695 -702 0
-695 -178 0
-702 -178 0
633 661 682 696 703 179 0
-633 -661 0
-633 -682 0
-633 -696 0
-633 -703 0
-633 -179 0
-661 -682 0
-661 -696 0
-661 -703 0
-661 -179 0
-682 -696 0
-682 -703 0
-682 -179 0
-696 -703 0
-696 -179 0
-703 -179 0
635 663 684 698 705 0
-635 -663 0
-635 -684 0
-635 -698 0
-635 -705 0
-663 -684 0
-663 -698 0
-663 -705 0
-684 -698 0
-684 -705 0
-698 -705 0
183 288 393 498 603 0
-183 -288 0
-183 -393 0
-183 -498 0
-183 -603 0
-288 -393 0
-288 -498 0
-288 -603 0
-393 -498 0
-393 -603 0
-498 -603 0
184 289 394 499 604 0
-184 -289 0
-184 -394 0
-184 -499 0
-184 -604 0
-289 -394 0
-289 -499 0
-289 -604 0
-394 -499 0
-394 -604 0
-499 -604 0
185 290 395 500 605 0
-185 -290 0
-185 -395 0
-185 -500 0
-185 -605 0
-290 -395 0
-290 -500 0
-290 -605 0
-395 -500 0
-395 -605 0
-500 -605 0
186 291 396 501 606 0
-186 -291 0
-186 -396 0
-186 -501 0
-186 -606 0
-291 -396 0
-291 -501 0
-291 -606 0
-396 -501 0
-396 -606 0
-501 -606 0
187 292 397 502 607 0
-187 -292 0
-187 -397 0
-187 -502 0
-187 -607 0
-292 -397 0
-292 -502 0
-292 -607 0
-397 -502 0
-397 -607 0
-502 -607 0
189 294 399 504 609 0
-189 -294 0
-189 -399 0
-189 -504 0
-189 -609 0
-294 -399 0
-294 -504 0
-294 -609 0
-399 -504 0
-399 -609 0
-504 -609 0
191 296 401 506 611 0
-191 -296 0
-191 -401 0
-191 -506 0
-191 -611 0
-296 -401 0
-296 -506 0
-296 -611 0
-401 -506 0
-401 -611 0
-506 -611 0
192 297 402 507 612 0
-192 -297 0
-192 -402 0
-192 -507 0
-192 -612 0
-297 -402 0
-297 -507 0
-297 -612 0
-402 -507 0
-402 -612 0
-507 -612 0
193 298 403 508 613 0
-193 -298 0
-193 -403 0
-193 -508 0
-193 -613 0
-298 -403 0
-298 -508 0
-298 -613 0
-403 -508 0
-403 -613 0
-508 -613 0
194 299 404 509 614 0
-194 -299 0
-194 -404 0
-194 -509 0
-194 -614 0
-299 -404 0
-299 -509 0
-299 -614 0
-404 -509 0
-404 -614 0
-509 -614 0
196 301 406 511 616 0
-196 -301 0
-196 -406 0
-196 -511 0
-196 -616 0
-301 -406 0
-301 -511 0
-301 -616 0
-406 -511 0
-406 -616 0
-511 -616 0
197 302 407 512 617 0
-197 -302 0
-197 -407 0
-197 -512 0
-197 -617 0
-302 -407 0
-302 -512 0
-302 -617 0
-407 -512 0
-407 -617 0
-512 -617 0
199 304 409 514 619 0
-199 -304 0
-199 -409 0
-199 -514 0
-199 -619 0
-304 -409 0
-304 -514 0
-304 -619 0
-409 -514 0
-409 -619 0
-514 -619 0
200 305 410 515 620 0
-200 -305 0
-200 -410 0
-200 -515 0
-200 -620 0
-305 -410 0
-305 -515 0
-305 -620 0
-410 -515 0
-410 -620 0
-515 -620 0
201 306 411 516 621 0
-201 -306 0
-201 -411 0
-201 -516 0
-201 -621 0
-306 -411 0
-306 -516 0
-306 -621 0
-411 -516 0
-411 -621 0
-516 -621 0
203 308 413 518 623 0
-203 -308 0
-203 -413 0
-203 -518 0
-203 -623 0
-308 -413 0
-308 -518 0
-308 -623 0
-413 -518 0
-413 -623 0
-518 -623 0
204 309 414 519 624 0
-204 -309 0
-204 -414 0
-204 -519 0
-204 -624 0
-309 -414 0
-309 -519 0
-309 -624 0
-414 -519 0
-414 -624 0
-519 -624 0
205 310 415 520 625 0
-205 -310 0
-205 -415 0
-205 -520 0
-205 -625 0
-310 -415 0
-310 -520 0
-310 -625 0
-415 -520 0
-415 -625 0
-520 -625 0
207 312 417 522 627 0
-207 -312 0
-207 -417 0
-207 -522 0
-207 -627 0
-312 -417 0
-312 -522 0
-312 -627 0
-417 -522 0
-417 -627 0
-522 -627 0
208 313 418 523 628 0
-208 -313 0
-208 -418 0
-208 -523 0
-208 -628 0
-313 -418 0
-313 -523 0
-313 -628 0
-418 -523 0
-418 -628 0
-523 -628 0
210 315 420 525 630 0
-210 -315 0
-210 -420 0
-210 -525 0
-210 -630 0
-315 -420 0
-315 -525 0
-315 -630 0
-420 -525 0
-420 -630 0
-525 -630 0
211 316 421 526 631 0
-211 -316 0
-211 -421 0
-211 -526 0
-211 -631 0
-316 -421 0
-316 -526 0
-316 -631 0
-421 -526 0
-421 -631 0
-526 -631 0
212 317 422 527 632 0
-212 -317 0
-212 -422 0
-212 -527 0
-212 -632 0
-317 -422 0
-317 -527 0
-317 -632 0
-422 -527 0
-422 -632 0
-527 -632 0
213 318 423 528 633 0
-213 -318 0
-213 -423 0
-213 -528 0
-213 -633 0
-318 -423 0
-318 -528 0
-318 -633 0
-423 -528 0
-423 -633 0
-528 -633 0
215 320 425 530 635 0
-215 -320 0
-215 -425 0
-215 -530 0
-215 -635 0
-320 -425 0
-320 -530 0
-320 -635 0
-425 -530 0
-425 -635 0
-530 -635 0
216 321 426 531 636 0
-216 -321 0
-216 -426 0
-216 -531 0
-216 -636 0
-321 -426 0
-321 -531 0
-321 -636 0
-426 -531 0
-426 -636 0
-531 -636 0
219 324 429 534 639 0
-219 -324 0
-219 -429 0
-219 -534 0
-219 -639 0
-324 -429 0
-324 -534 0
-324 -639 0
-429 -534 0
-429 -639 0
-534 -639 0
220 325 430 535 640 0
-220 -325 0
-220 -430 0
-220 -535 0
-220 -640 0
-325 -430 0
-325 -535 0
-325 -640 0
-430 -535 0
-430 -640 0
-535 -640 0
221 326 431 536 641 0
-221 -326 0
-221 -431 0
-221 -536 0
-221 -641 0
-326 -431 0
-326 -536 0
-326 -641 0
-431 -536 0
-431 -641 0
-536 -641 0
222 327 432 537 642 0
-222 -327 0
-222 -432 0
-222 -537 0
-222 -642 0
-327 -432 0
-327 -537 0
-327 -642 0
-432 -537 0
-432 -642 0
-537 -642 0
223 328 433 538 643 0
-223 -328 0
-223 -433 0
-223 -538 0
-223 -643 0
-328 -433 0
-328 -538 0
-328 -643 0
-433 -538 0
-433 -643 0
-538 -643 0
225 330 435 540 645 0
-225 -330 0
-225 -435 0
-225 -540 0
-225 -645 0
-330 -435 0
-330 -540 0
-330 -645 0
-435 -540 0
-435 -645 0
-540 -645 0
227 332 437 542 647 0
-227 -332 0
-227 -437 0
-227 -542 0
-227 -647 0
-332 -437 0
-332 -542 0
-332 -647 0
-437 -542 0
-437 -647 0
-542 -647 0
228 333 438 543 648 0
-228 -333 0
-228 -438 0
-228 -543 0
-228 -648 0
-333 -438 0
-333 -543 0
-333 -648 0
-438 -543 0
-438 -648 0
-543 -648 0
229 334 439 544 649 0
-229 -334 0
-229 -439 0
-229 -544 0
-229 -649 0
-334 -439 0
-334 -544 0
-334 -649 0
-439 -544 0
-439 -649 0
-544 -649 0
230 335 440 545 650 0
-230 -335 0
-230 -440 0
-230 -545 0
-230 -650 0
-335 -440 0
-335 -545 0
-335 -650 0
-440 -545 0
-440 -650 0
-545 -650 0
232 337 442 547 652 0
-232 -337 0
-232 -442 0
-232 -547 0
-232 -652 0
-337 -442 0
-337 -547 0
-337 -652 0
-442 -547 0
-442 -652 0
-547 -652 0
233 338 443 548 653 0
-233 -338 0
-233 -443 0
-233 -548 0
-233 -653 0
-338 -443 0
-338 -548 0
-338 -653 0
-443 -548 0
-443 -653 0
-548 -653 0
235 340 445 550 655 0
-235 -340 0
-235 -445 0
-235 -550 0
-235 -655 0
-340 -445 0
-340 -550 0
-340 -655 0
-445 -550 0
-445 -655 0
-550 -655 0
236 341 446 551 656 0
-236 -341 0
-236 -446 0
-236 -551 0
-236 -656 0
-341 -446 0
-341 -551 0
-341 -656 0
-446 -551 0
-446 -656 0
-551 -656 0
237 342 447 552 657 0
-237 -342 0
-237 -447 0
-237 -552 0
-237 -657 0
-342 -447 0
-342 -552 0
-342 -657 0
-447 -552 0
-447 -657 0
-552 -657 0
239 344 449 554 659 0
-239 -344 0
-239 -449 0
-239 -554 0
-239 -659 0
-344 -449 0
-344 -554 0
-344 -659 0
-449 -554 0
-449 -659 0
-554 -659 0
240 345 450 555 660 0
-240 -345 0
-240 -450 0
-240 -555 0
-240 -660 0
-345 -450 0
-345 -555 0
-345 -660 0
-450 -555 0
-450 -660 0
-555 -660 0
241 346 451 556 661 0
-241 -346 0
-241 -451 0
-241 -556 0
-241 -661 0
-346 -451 0
-346 -556 0
-346 -661 0
-451 -556 0
-451 -661 0
-556 -661 0
243 348 453 558 663 0
-243 -348 0
-243 -453 0
-243 -558 0
-243 -663 0
-348 -453 0
-348 -558 0
-348 -663 0
-453 -558 0
-453 -663 0
-558 -663 0
244 349 454 559 664 0
-244 -349 0
-244 -454 0
-244 -559 0
-244 -664 0
-349 -454 0
-349 -559 0
-349 -664 0
-454 -559 0
-454 -664 0
-559 -664 0
245 350 455 560 665 0
-245 -350 0
-245 -455 0
-245 -560 0
-245 -665 0
-350 -455 0
-350 -560 0
-350 -665 0
-455 -560 0
-455 -665 0
-560 -665 0
248 353 458 563 668 0
-248 -353 0
-248 -458 0
-248 -563 0
-248 -668 0
-353 -458 0
-353 -563 0
-353 -668 0
-458 -563 0
-458 -668 0
-563 -668 0
249 354 459 564 669 0
-249 -354 0
-249 -459 0
-249 -564 0
-249 -669 0
-354 -459 0
-354 -564 0
-354 -669 0
-459 -564 0
-459 -669 0
-564 -669 0
250 355 460 565 670 0
-250 -355 0
-250 -460 0
-250 -565 0
-250 -670 0
-355 -460 0
-355 -565 0
-355 -670 0
-460 -565 0
-460 -670 0
-565 -670 0
251 356 461 566 671 0
-251 -356 0
-251 -461 0
-251 -566 0
-251 -671 0
-356 -461 0
-356 -566 0
-356 -671 0
-461 -566 0
-461 -671 0
-566 -671 0
252 357 462 567 672 0
-252 -357 0
-252 -462 0
-252 -567 0
-252 -672 0
-357 -462 0
-357 -567 0
-357 -672 0
-462 -567 0
-462 -672 0
-567 -672 0
254 359 464 569 674 0
-254 -359 0
-254 -464 0
-254 -569 0
-254 -674 0
-359 -464 0
-359 -569 0
-359 -674 0
-464 -569 0
-464 -674 0
-569 -674 0
256 361 466 571 676 0
-256 -361 0
-256 -466 0
-256 -571 0
-256 -676 0
-361 -466 0
-361 -571 0
-361 -676 0
-466 -571 0
-466 -676 0
-571 -676 0
257 362 467 572 677 0
-257 -362 0
-257 -467 0
-257 -572 0
-257 -677 0
-362 -467 0
-362 -572 0
-362 -677 0
-467 -572 0
-467 -677 0
-572 -677 0
258 363 468 573 678 0
-258 -363 0
-258 -468 0
-258 -573 0
-258 -678 0
-363 -468 0
-363 -573 0
-363 -678 0
-468 -573 0
-468 -678 0
-573 -678 0
259 364 469 574 679 0
-259 -364 0
-259 -469 0
-259 -574 0
-259 -679 0
-364 -469 0
-364 -574 0
-364 -679 0
-469 -574 0
-469 -679 0
-574 -679 0
261 366 471 576 681 0
-261 -366 0
-261 -471 0
-261 -576 0
-261 -681 0
-366 -471 0
-366 -576 0
-366 -681 0
-471 -576 0
-471 -681 0
-576 -681 0
262 367 472 577 682 0
-262 -367 0
-262 -472 0
-262 -577 0
-262 -682 0
-367 -472 0
-367 -577 0
-367 -682 0
-472 -577 0
-472 -682 0
-577 -682 0
264 369 474 579 684 0
-264 -369 0
-264 -474 0
-264 -579 0
-264 -684 0
-369 -474 0
-369 -579 0
-369 -684 0
-474 -579 0
-474 -684 0
-579 -684 0
265 370 475 580 685 0
-265 -370 0
-265 -475 0
-265 -580 0
-265 -685 0
-370 -475 0
-370 -580 0
-370 -685 0
-475 -580 0
-475 -685 0
-580 -685 0
266 371 476 581 686 0
-266 -371 0
-266 -476 0
-266 -581 0
-266 -686 0
-371 -476 0
-371 -581 0
-371 -686 0
-476 -581 0
-476 -686 0
-581 -686 0
267 372 477 582 687 0
-267 -372 0
-267 -477 0
-267 -582 0
-267 -687 0
-372 -477 0
-372 -582 0
-372 -687 0
-477 -582 0
-477 -687 0
-582 -687 0
270 375 480 585 690 0
-270 -375 0
-270 -480 0
-270 -585 0
-270 -690 0
-375 -480 0
-375 -585 0
-375 -690 0
-480 -585 0
-480 -690 0
-585 -690 0
271 376 481 586 691 0
-271 -376 0
-271 -481 0
-271 -586 0
-271 -691 0
-376 -481 0
-376 -586 0
-376 -691 0
-481 -586 0
-481 -691 0
-586 -691 0
272 377 482 587 692 0
-272 -377 0
-272 -482 0
-272 -587 0
-272 -692 0
-377 -482 0
-377 -587 0
-377 -692 0
-482 -587 0
-482 -692 0
-587 -692 0
273 378 483 588 693 0
-273 -378 0
-273 -483 0
-273 -588 0
-273 -693 0
-378 -483 0
-378 -588 0
-378 -693 0
-483 -588 0
-483 -693 0
-588 -693 0
274 379 484 589 694 0
-274 -379 0
-274 -484 0
-274 -589 0
-274 -694 0
-379 -484 0
-379 -589 0
-379 -694 0
-484 -589 0
-484 -694 0
-589 -694 0
276 381 486 591 696 0
-276 -381 0
-276 -486 0
-276 -591 0
-276 -696 0
-381 -486 0
-381 -591 0
-381 -696 0
-486 -591 0
-486 -696 0
-591 -696 0
278 383 488 593 698 0
-278 -383 0
-278 -488 0
-278 -593 0
-278 -698 0
-383 -488 0
-383 -593 0
-383 -698 0
-488 -593 0
-488 -698 0
-593 -698 0
279 384 489 594 699 0
-279 -384 0
-279 -489 0
-279 -594 0
-279 -699 0
-384 -489 0
-384 -594 0
-384 -699 0
-489 -594 0
-489 -699 0
-594 -699 0
280 385 490 595 700 0
-280 -385 0
-280 -490 0
-280 -595 0
-280 -700 0
-385 -490 0
-385 -595 0
-385 -700 0
-490 -595 0
-490 -700 0
-595 -700 0
281 386 491 596 701 0
-281 -386 0
-281 -491 0
-281 -596 0
-281 -701 0
-386 -491 0
-386 -596 0
-386 -701 0
-491 -596 0
-491 -701 0
-596 -701 0
282 387 492 597 702 0
-282 -387 0
-282 -492 0
-282 -597 0
-282 -702 0
-387 -492 0
-387 -597 0
-387 -702 0
-492 -597 0
-492 -702 0
-597 -702 0
285 390 495 600 705 0
-285 -390 0
-285 -495 0
-285 -600 0
-285 -705 0
-390 -495 0
-390 -600 0
-390 -705 0
-495 -600 0
-495 -705 0
-600 -705 0
706 707 708 709 710 711 712 0
-706 -707 0
-706 -708 0
-706 -709 0
-706 -710 0
-706 -711 0
-706 -712 0
-707 -708 0
-707 -709 0
-707 -710 0
-707 -711 0
-707 -712 0
-708 -709 0
-708 -710 0
-708 -711 0
-708 -712 0
-709 -710 0
-709 -711 0
-709 -712 0
-710 -711 0
-710 -712 0
-711 -712 0
713 714 715 716 717 718 719 0
-713 -714 0
-713 -715 0
-713 -716 0
-713 -717 0
-713 -718 0
-713 -719 0
-714 -715 0
-714 -716 0
-714 -717 0
-714 -718 0
-714 -719 0
-715 -716 0
-715 -717 0
-715 -718 0
-715 -719 0
-716 -717 0
-716 -718 0
-716 -719 0
-717 -718 0
-717 -719 0
-718 -719 0
720 721 722 723 724 725 726 0
-720 -721 0
-720 -722 0
-720 -723 0
-720 -724 0
-720 -725 0
-720 -726 0
-721 -722 0
-721 -723 0
-721 -724 0
-721 -725 0
-721 -726 0
-722 -723 0
-722 -724 0
-722 -725 0
-722 -726 0
-723 -724 0
-723 -725 0
-723 -726 0
-724 -725 0
-724 -726 0
-725 -726 0
727 728 729 730 731 732 733 0
-727 -728 0
-727 -729 0
-727 -730 0
-727 -731 0
-727 -732 0
-727 -733 0
-728 -729 0
-728 -730 0
-728 -731 0
-728 -732 0
-728 -733 0
-729 -730 0
-729 -731 0
-729 -732 0
-729 -733 0
-730 -731 0
-730 -732 0
-730 -733 0
-731 -732 0
-731 -733 0
-732 -733 0
734 735 736 737 738 739 740 0
-734 -735 0
-734 -736 0
-734 -737 0
-734 -738 0
-734 -739 0
-734 -740 0
-735 -736 0
-735 -737 0
-735 -738 0
-735 -739 0
-735 -740 0
-736 -737 0
-736 -738 0
-736 -739 0
-736 -740 0
-737 -738 0
-737 -739 0
-737 -740 0
-738 -739 0
-738 -740 0
-739 -740 0
741 742 743 744 745 746 747 0
-741 -742 0
-741 -743 0
-741 -744 0
-741 -745 0
-741 -746 0
-741 -747 0
-742 -743 0
-742 -744 0
-742 -745 0
-742 -746 0
-742 -747 0
-743 -744 0
-743 -745 0
-743 -746 0
-743 -747 0
-744 -745 0
-744 -746 0
-744 -747 0
-745 -746 0
-745 -747 0
-746 -747 0
748 749 750 751 752 753 754 0
-748 -749 0
-748 -750 0
-748 -751 0
-748 -752 0
-748 -753 0
-748 -754 0
-749 -750 0
-749 -751 0
-749 -752 0
-749 -753 0
-749 -754 0
-750 -751 0
-750 -752 0
-750 -753 0
-750 -754 0
-751 -752 0
-751 -753 0
-751 -754 0
-752 -753 0
-752 -754 0
-753 -754 0
755 756 757 758 759 760 761 0
-755 -756 0
-755 -757 0
-755 -758 0
-755 -759 0
-755 -760 0
-755 -761 0
-756 -757 0
-756 -758 0
-756 -759 0
-756 -760 0
-756 -761 0
-757 -758 0
-757 -759 0
-757 -760 0
-757 -761 0
-758 -759 0
-758 -760 0
-758 -761 0
-759 -760 0
-759 -761 0
-760 -761 0
762 763 764 765 766 767 768 0
-762 -763 0
-762 -764 0
-762 -765 0
-762 -766 0
-762 -767 0
-762 -768 0
-763 -764 0
-763 -765 0
-763 -766 0
-763 -767 0
-763 -768 0
-764 -765 0
-764 -766 0
-764 -767 0
-764 -768 0
-765 -766 0
-765 -767 0
-765 -768 0
-766 -767 0
-766 -768 0
-767 -768 0
769 770 771 772 773 774 775 0
-769 -770 0
-769 -771 0
-769 -772 0
-769 -773 0
-769 -774 0
-769 -775 0
-770 -771 0
-770 -772 0
-770 -773 0
-770 -774 0
-770 -775 0
-771 -772 0
-771 -773 0
-771 -774 0
-771 -775 0
-772 -773 0
-772 -774 0
-772 -775 0
-773 -774 0
-773 -775 0
-774 -775 0
776 777 778 779 780 781 782 0
-776 -777 0
-776 -778 0
-776 -779 0
-776 -780 0
-776 -781 0
-776 -782 0
-777 -778 0
-777 -779 0
-777 -780 0
-777 -781 0
-777 -782 0
-778 -779 0
-778 -780 0
-778 -781 0
-778 -782 0
-779 -780 0
-779 -781 0
-779 -782 0
-780 -781 0
-780 -782 0
-781 -782 0
783 784 785 786 787 788 789 0
-783 -784 0
-783 -785 0
-783 -786 0
-783 -787 0
-783 -788 0
-783 -789 0
-784 -785 0
-784 -786 0
-784 -787 0
-784 -788 0
-784 -789 0
-785 -786 0
-785 -787 0
-785 -788 0
-785 -789 0
-786 -787 0
-786 -788 0
-786 -789 0
-787 -788 0
-787 -789 0
-788 -789 0
790 791 792 793 794 795 796 0
-790 -791 0
-790 -792 0
-790 -793 0
-790 -794 0
-790 -795 0
-790 -796 0
-791 -792 0
-791 -793 0
-791 -794 0
-791 -795 0
-791 -796 0
-792 -793 0
-792 -794 0
-792 -795 0
-792 -796 0
-793 -794 0
-793 -795 0
-793 -796 0
-794 -795 0
-794 -796 0
-795 -796 0
797 798 799 800 801 802 803 0
-797 -798 0
-797 -799 0
-797 -800 0
-797 -801 0
-797 -802 0
-797 -803 0
-798 -799 0
-798 -800 0
-798 -801 0
-798 -802 0
-798 -803 0
-799 -800 0
-799 -801 0
-799 -802 0
-799 -803 0
-800 -801 0
-800 -802 0
-800 -803 0
-801 -802 0
-801 -803 0
-802 -803 0
804 805 806 807 808 809 810 0
-804 -805 0
-804 -806 0
-804 -807 0
-804 -808 0
-804 -809 0
-804 -810 0
-805 -806 0
-805 -807 0
-805 -808 0
-805 -809 0
-805 -810 0
-806 -807 0
-806 -808 0
-806 -809 0
-806 -810 0
-807 -808 0
-807 -809 0
-807 -810 0
-808 -809 0
-808 -810 0
-809 -810 0
811 812 813 814 815 816 817 0
-811 -812 0
-811 -813 0
-811 -814 0
-811 -815 0
-811 -816 0
-811 -817 0
-812 -813 0
-812 -814 0
-812 -815 0
-812 -816 0
-812 -817 0
-813 -814 0
-813 -815 0
-813 -816 0
-813 -817 0
-814 -815 0
-814 -816 0
-814 -817 0
-815 -816 0
-815 -817 0
-816 -817 0
818 819 820 821 822 823 824 0
-818 -819 0
-818 -820 0
-818 -821 0
-818 -822 0
-818 -823 0
-818 -824 0
-819 -820 0
-819 -821 0
-819 -822 0
-819 -823 0
-819 -824 0
-820 -821 0
-820 -822 0
-820 -823 0
-820 -824 0
-821 -822 0
-821 -823 0
-821 -824 0
-822 -823 0
-822 -824 0
-823 -824 0
825 826 827 828 829 830 831 0
-825 -826 0
-825 -827 0
-825 -828 0
-825 -829 0
-825 -830 0
-825 -831 0
-826 -827 0
-826 -828 0
-826 -829 0
-826 -830 0
-826 -831 0
-827 -828 0
-827 -829 0
-827 -830 0
-827 -831 0
-828 -829 0
-828 -830 0
-828 -831 0
-829 -830 0
-829 -831 0
-830 -831 0
832 833 834 835 836 837 838 0
-832 -833 0
-832 -834 0
-832 -835 0
-832 -836 0
-832 -837 0
-832 -838 0
-833 -834 0
-833 -835 0
-833 -836 0
-833 -837 0
-833 -838 0
-834 -835 0
-834 -836 0
-834 -837 0
-834 -838 0
-835 -836 0
-835 -837 0
-835 -838 0
-836 -837 0
-836 -838 0
-837 -838 0
839 840 841 842 843 844 845 0
-839 -840 0
-839 -841 0
-839 -842 0
-839 -843 0
-839 -844 0
-839 -845 0
-840 -841 0
-840 -842 0
-840 -843 0
-840 -844 0
-840 -845 0
-841 -842 0
-841 -843 0
-841 -844 0
-841 -845 0
-842 -843 0
-842 -844 0
-842 -845 0
-843 -844 0
-843 -845 0
-844 -845 0
846 847 848 849 850 851 852 0
-846 -847 0
-846 -848 0
-846 -849 0
-846 -850 0
-846 -851 0
-846 -852 0
-847 -848 0
-847 -849 0
-847 -850 0
-847 -851 0
-847 -852 0
-848 -849 0
-848 -850 0
-848 -851 0
-848 -852 0
-849 -850 0
-849 -851 0
-849 -852 0
-850 -851 0
-850 -852 0
-851 -852 0
853 854 855 856 857 858 859 0
-853 -854 0
-853 -855 0
-853 -856 0
-853 -857 0
-853 -858 0
-853 -859 0
-854 -855 0
-854 -856 0
-854 -857 0
-854 -858 0
-854 -859 0
-855 -856 0
-855 -857 0
-855 -858 0
-855 -859 0
-856 -857 0
-856 -858 0
-856 -859 0
-857 -858 0
-857 -859 0
-858 -859 0
860 861 862 863 864 865 866 0
-860 -861 0
-860 -862 0
-860 -863 0
-860 -864 0
-860 -865 0
-860 -866 0
-861 -862 0
-861 -863 0
-861 -864 0
-861 -865 0
-861 -866 0
-862 -863 0
-862 -864 0
-862 -865 0
-862 -866 0
-863 -864 0
-863 -865 0
-863 -866 0
-864 -865 0
-864 -866 0
-865 -866 0
867 868 869 870 871 872 873 0
-867 -868 0
-867 -869 0
-867 -870 0
-867 -871 0
-867 -872 0
-867 -873 0
-868 -869 0
-868 -870 0
-868 -871 0
-868 -872 0
-868 -873 0
-869 -870 0
-869 -871 0
-869 -872 0
-869 -873 0
-870 -871 0
-870 -872 0
-870 -873 0
-871 -872 0
-871 -873 0
-872 -873 0
874 875 876 877 878 879 880 0
-874 -875 0
-874 -876 0
-874 -877 0
-874 -878 0
-874 -879 0
-874 -880 0
-875 -876 0
-875 -877 0
-875 -878 0
-875 -879 0
-875 -880 0
-876 -877 0
-876 -878 0
-876 -879 0
-876 -880 0
-877 -878 0
-877 -879 0
-877 -880 0
-878 -879 0
-878 -880 0
-879 -880 0
881 882 883 884 885 886 887 0
-881 -882 0
-881 -883 0
-881 -884 0
-881 -885 0
-881 -886 0
-881 -887 0
-882 -883 0
-882 -884 0
-882 -885 0
-882 -886 0
-882 -887 0
-883 -884 0
-883 -885 0
-883 -886 0
-883 -887 0
-884 -885 0
-884 -886 0
-884 -887 0
-885 -886 0
-885 -887 0
-886 -887 0
888 889 890 891 892 893 894 0
-888 -889 0
-888 -890 0
-888 -891 0
-888 -892 0
-888 -893 0
-888 -894 0
-889 -890 0
-889 -891 0
-889 -892 0
-889 -893 0
-889 -894 0
-890 -891 0
-890 -892 0
-890 -893 0
-890 -894 0
-891 -892 0
-891 -893 0
-891 -894 0
-892 -893 0
-892 -894 0
-893 -894 0
895 896 897 898 899 900 901 0
-895 -896 0
-895 -897 0
-895 -898 0
-895 -899 0
-895 -900 0
-895 -901 0
-896 -897 0
-896 -898 0
-896 -899 0
-896 -900 0
-896 -901 0
-897 -898 0
-897 -899 0
-897 -900 0
-897 -901 0
-898 -899 0
-898 -900 0
-898 -901 0
-899 -900 0
-899 -901 0
-900 -901 0
902 903 904 905 906 907 908 0
-902 -903 0
-902 -904 0
-902 -905 0
-902 -906 0
-902 -907 0
-902 -908 0
-903 -904 0
-903 -905 0
-903 -906 0
-903 -907 0
-903 -908 0
-904 -905 0
-904 -906 0
-904 -907 0
-904 -908 0
-905 -906 0
-905 -907 0
-905 -908 0
-906 -907 0
-906 -908 0
-907 -908 0
909 910 911 912 913 914 915 0
-909 -910 0
-909 -911 0
-909 -912 0
-909 -913 0
-909 -914 0
-909 -915 0
-910 -911 0
-910 -912 0
-910 -913 0
-910 -914 0
-910 -915 0
-911 -912 0
-911 -913 0
-911 -914 0
-911 -915 0
-912 -913 0
-912 -914 0
-912 -915 0
-913 -914 0
-913 -915 0
-914 -915 0
916 917 918 919 920 921 922 0
-916 -917 0
-916 -918 0
-916 -919 0
-916 -920 0
-916 -921 0
-916 -922 0
-917 -918 0
-917 -919 0
-917 -920 0
-917 -921 0
-917 -922 0
-918 -919 0
-918 -920 0
-918 -921 0
-918 -922 0
-919 -920 0
-919 -921 0
-919 -922 0
-920 -921 0
-920 -922 0
-921 -922 0
923 924 925 926 927 928 929 0
-923 -924 0
-923 -925 0
-923 -926 0
-923 -927 0
-923 -928 0
-923 -929 0
-924 -925 0
-924 -926 0
-924 -927 0
-924 -928 0
-924 -929 0
-925 -926 0
-925 -927 0
-925 -928 0
-925 -929 0
-926 -927 0
-926 -928 0
-926 -929 0
-927 -928 0
-927 -929 0
-928 -929 0
930 931 932 933 934 935 936 0
-930 -931 0
-930 -932 0
-930 -933 0
-930 -934 0
-930 -935 0
-930 -936 0
-931 -932 0
-931 -933 0
-931 -934 0
-931 -935 0
-931 -936 0
-932 -933 0
-932 -934 0
-932 -935 0
-932 -936 0
-933 -934 0
-933 -935 0
-933 -936 0
-934 -935 0
-934 -936 0
-935 -936 0
937 938 939 940 941 942 943 0
-937 -938 0
-937 -939 0
-937 -940 0
-937 -941 0
-937 -942 0
-937 -943 0
-938 -939 0
-938 -940 0
-938 -941 0
-938 -942 0
-938 -943 0
-939 -940 0
-939 -941 0
-939 -942 0
-939 -943 0
-940 -941 0
-940 -942 0
-940 -943 0
-941 -942 0
-941 -943 0
-942 -943 0
944 945 946 947 948 949 950 0
-944 -945 0
-944 -946 0
-944 -947 0
-944 -948 0
-944 -949 0
-944 -950 0
-945 -946 0
-945 -947 0
-945 -948 0
-945 -949 0
-945 -950 0
-946 -947 0
-946 -948 0
-946 -949 0
-946 -950 0
-947 -948 0
-947 -949 0
-947 -950 0
-948 -949 0
-948 -950 0
-949 -950 0
951 952 953 954 955 956 957 0
-951 -952 0
-951 -953 0
-951 -954 0
-951 -955 0
-951 -956 0
-951 -957 0
-952 -953 0
-952 -954 0
-952 -955 0
-952 -956 0
-952 -957 0
-953 -954 0
-953 -955 0
-953 -956 0
-953 -957 0
-954 -955 0
-954 -956 0
-954 -957 0
-955 -956 0
-955 -957 0
-956 -957 0
958 959 960 961 962 963 964 0
-958 -959 0
-958 -960 0
-958 -961 0
-958 -962 0
-958 -963 0
-958 -964 0
-959 -960 0
-959 -961 0
-959 -962 0
-959 -963 0
-959 -964 0
-960 -961 0
-960 -962 0
-960 -963 0
-960 -964 0
-961 -962 0
-961 -963 0
-961 -964 0
-962 -963 0
-962 -964 0
-963 -964 0
965 966 967 968 969 970 971 0
-965 -966 0
-965 -967 0
-965 -968 0
-965 -969 0
-965 -970 0
-965 -971 0
-966 -967 0
-966 -968 0
-966 -969 0
-966 -970 0
-966 -971 0
-967 -968 0
-967 -969 0
-967 -970 0
-967 -971 0
-968 -969 0
-968 -970 0
-968 -971 0
-969 -970 0
-969 -971 0
-970 -971 0
972 973 974 975 976 977 978 0
-972 -973 0
-972 -974 0
-972 -975 0
-972 -976 0
-972 -977 0
-972 -978 0
-973 -974 0
-973 -975 0
-973 -976 0
-973 -977 0
-973 -978 0
-974 -975 0
-974 -976 0
-974 -977 0
-974 -978 0
-975 -976 0
-975 -977 0
-975 -978 0
-976 -977 0
-976 -978 0
-977 -978 0
979 980 981 982 983 984 985 0
-979 -980 0
-979 -981 0
-979 -982 0
-979 -983 0
-979 -984 0
-979 -985 0
-980 -981 0
-980 -982 0
-980 -983 0
-980 -984 0
-980 -985 0
-981 -982 0
-981 -983 0
-981 -984 0
-981 -985 0
-982 -983 0
-982 -984 0
-982 -985 0
-983 -984 0
-983 -985 0
-984 -985 0
986 987 988 989 990 991 992 0
-986 -987 0
-986 -988 0
-986 -989 0
-986 -990 0
-986 -991 0
-986 -992 0
-987 -988 0
-987 -989 0
-987 -990 0
-987 -991 0
-987 -992 0
-988 -989 0
-988 -990 0
-988 -991 0
-988 -992 0
-989 -990 0
-989 -991 0
-989 -992 0
-990 -991 0
-990 -992 0
-991 -992 0
993 994 995 996 997 998 999 0
-993 -994 0
-993 -995 0
-993 -996 0
-993 -997 0
-993 -998 0
-993 -999 0
-994 -995 0
-994 -996 0
-994 -997 0
-994 -998 0
-994 -999 0
-995 -996 0
-995 -997 0
-995 -998 0
-995 -999 0
-996 -997 0
-996 -998 0
-996 -999 0
-997 -998 0
-997 -999 0
-998 -999 0
1000 1001 1002 1003 1004 1005 1006 0
-1000 -1001 0
-1000 -1002 0
-1000 -1003 0
-1000 -1004 0
-1000 -1005 0
-1000 -1006 0
-1001 -1002 0
-1001 -1003 0
-1001 -1004 0
-1001 -1005 0
-1001 -1006 0
-1002 -1003 0
-1002 -1004 0
-1002 -1005 0
-1002 -1006 0
-1003 -1004 0
-1003 -1005 0
-1003 -1006 0
-1004 -1005 0
-1004 -1006 0
-1005 -1006 0
1007 1008 1009 1010 1011 1012 1013 0
-1007 -1008 0
-1007 -1009 0
-1007 -1010 0
-1007 -1011 0
-1007 -1012 0
-1007 -1013 0
-1008 -1009 0
-1008 -1010 0
-1008 -1011 0
-1008 -1012 0
-1008 -1013 0
-1009 -1010 0
-1009 -1011 0
-1009 -1012 0
-1009 -1013 0
-1010 -1011 0
-1010 -1012 0
-1010 -1013 0
-1011 -1012 0
-1011 -1013 0
-1012 -1013 0
1014 1015 1016 1017 1018 1019 1020 0
-1014 -1015 0
-1014 -1016 0
-1014 -1017 0
-1014 -1018 0
-1014 -1019 0
-1014 -1020 0
-1015 -1016 0
-1015 -1017 0
-1015 -1018 0
-1015 -1019 0
-1015 -1020 0
-1016 -1017 0
-1016 -1018 0
-1016 -1019 0
-1016 -1020 0
-1017 -1018 0
-1017 -1019 0
-1017 -1020 0
-1018 -1019 0
-1018 -1020 0
-1019 -1020 0
1021 1022 1023 1024 1025 1026 1027 0
-1021 -1022 0
-1021 -1023 0
-1021 -1024 0
-1021 -1025 0
-1021 -1026 0
-1021 -1027 0
-1022 -1023 0
-1022 -1024 0
-1022 -1025 0
-1022 -1026 0
-1022 -1027 0
-1023 -1024 0
-1023 -1025 0
-1023 -1026 0
-1023 -1027 0
-1024 -1025 0
-1024 -1026 0
-1024 -1027 0
-1025 -1026 0
-1025 -1027 0
-1026 -1027 0
1028 1029 1030 1031 1032 1033 1034 0
-1028 -1029 0
-1028 -1030 0
-1028 -1031 0
-1028 -1032 0
-1028 -1033 0
-1028 -1034 0
-1029 -1030 0
-1029 -1031 0
-1029 -1032 0
-1029 -1033 0
-1029 -1034 0
-1030 -1031 0
-1030 -1032 0
-1030 -1033 0
-1030 -1034 0
-1031 -1032 0
-1031 -1033 0
-1031 -1034 0
-1032 -1033 0
-1032 -1034 0
-1033 -1034 0
1035 1036 1037 1038 1039 1040 1041 0
-1035 -1036 0
-1035 -1037 0
-1035 -1038 0
-1035 -1039 0
-1035 -1040 0
-1035 -1041 0
-1036 -1037 0
-1036 -1038 0
-1036 -1039 0
-1036 -1040 0
-1036 -1041 0
-1037 -1038 0
-1037 -1039 0
-1037 -1040 0
-1037 -1041 0
-1038 -1039 0
-1038 -1040 0
-1038 -1041 0
-1039 -1040 0
-1039 -1041 0
-1040 -1041 0
1042 1043 1044 1045 1046 1047 1048 0
-1042 -1043 0
-1042 -1044 0
-1042 -1045 0
-1042 -1046 0
-1042 -1047 0
-1042 -1048 0
-1043 -1044 0
-1043 -1045 0
-1043 -1046 0
-1043 -1047 0
-1043 -1048 0
-1044 -1045 0
-1044 -1046 0
-1044 -1047 0
-1044 -1048 0
-1045 -1046 0
-1045 -1047 0
-1045 -1048 0
-1046 -1047 0
-1046 -1048 0
-1047 -1048 0
1049 1050 1051 1052 1053 1054 1055 0
-1049 -1050 0
-1049 -1051 0
-1049 -1052 0
-1049 -1053 0
-1049 -1054 0
-1049 -1055 0
-1050 -1051 0
-1050 -1052 0
-1050 -1053 0
-1050 -1054 0
-1050 -1055 0
-1051 -1052 0
-1051 -1053 0
-1051 -1054 0
-1051 -1055 0
-1052 -1053 0
-1052 -1054 0
-1052 -1055 0
-1053 -1054 0
-1053 -1055 0
-1054 -1055 0
1056 1057 1058 1059 1060 1061 1062 0
-1056 -1057 0
-1056 -1058 0
-1056 -1059 0
-1056 -1060 0
-1056 -1061 0
-1056 -1062 0
-1057 -1058 0
-1057 -1059 0
-1057 -1060 0
-1057 -1061 0
-1057 -1062 0
-1058 -1059 0
-1058 -1060 0
-1058 -1061 0
-1058 -1062 0
-1059 -1060 0
-1059 -1061 0
-1059 -1062 0
-1060 -1061 0
-1060 -1062 0
-1061 -1062 0
1063 1064 1065 1066 1067 1068 1069 0
-1063 -1064 0
-1063 -1065 0
-1063 -1066 0
-1063 -1067 0
-1063 -1068 0
-1063 -1069 0
-1064 -1065 0
-1064 -1066 0
-1064 -1067 0
-1064 -1068 0
-1064 -1069 0
-1065 -1066 0
-1065 -1067 0
-1065 -1068 0
-1065 -1069 0
-1066 -1067 0
-1066 -1068 0
-1066 -1069 0
-1067 -1068 0
-1067 -1069 0
-1068 -1069 0
1070 1071 1072 1073 1074 1075 1076 0
-1070 -1071 0
-1070 -1072 0
-1070 -1073 0
-1070 -1074 0
-1070 -1075 0
-1070 -1076 0
-1071 -1072 0
-1071 -1073 0
-1071 -1074 0
-1071 -1075 0
-1071 -1076 0
-1072 -1073 0
-1072 -1074 0
-1072 -1075 0
-1072 -1076 0
-1073 -1074 0
-1073 -1075 0
-1073 -1076 0
-1074 -1075 0
-1074 -1076 0
-1075 -1076 0
1077 1078 1079 1080 1081 1082 1083 0
-1077 -1078 0
-1077 -1079 0
-1077 -1080 0
-1077 -1081 0
-1077 -1082 0
-1077 -1083 0
-1078 -1079 0
-1078 -1080 0
-1078 -1081 0
-1078 -1082 0
-1078 -1083 0
-1079 -1080 0
-1079 -1081 0
-1079 -1082 0
-1079 -1083 0
-1080 -1081 0
-1080 -1082 0
-1080 -1083 0
-1081 -1082 0
-1081 -1083 0
-1082 -1083 0
1084 1085 1086 1087 1088 1089 1090 0
-1084 -1085 0
-1084 -1086 0
-1084 -1087 0
-1084 -1088 0
-1084 -1089 0
-1084 -1090 0
-1085 -1086 0
-1085 -1087 0
-1085 -1088 0
-1085 -1089 0
-1085 -1090 0
-1086 -1087 0
-1086 -1088 0
-1086 -1089 0
-1086 -1090 0
-1087 -1088 0
-1087 -1089 0
-1087 -1090 0
-1088 -1089 0
-1088 -1090 0
-1089 -1090 0
1091 1092 1093 1094 1095 1096 1097 0
-1091 -1092 0
-1091 -1093 0
-1091 -1094 0
-1091 -1095 0
-1091 -1096 0
-1091 -1097 0
-1092 -1093 0
-1092 -1094 0
-1092 -1095 0
-1092 -1096 0
-1092 -1097 0
-1093 -1094 0
-1093 -1095 0
-1093 -1096 0
-1093 -1097 0
-1094 -1095 0
-1094 -1096 0
-1094 -1097 0
-1095 -1096 0
-1095 -1097 0
-1096 -1097 0
1098 1099 1100 1101 1102 1103 1104 0
-1098 -1099 0
-1098 -1100 0
-1098 -1101 0
-1098 -1102 0
-1098 -1103 0
-1098 -1104 0
-1099 -1100 0
-1099 -1101 0
-1099 -1102 0
-1099 -1103 0
-1099 -1104 0
-1100 -1101 0
-1100 -1102 0
-1100 -1103 0
-1100 -1104 0
-1101 -1102 0
-1101 -1103 0
-1101 -1104 0
-1102 -1103 0
-1102 -1104 0
-1103 -1104 0
1105 1106 1107 1108 1109 1110 1111 0
-1105 -1106 0
-1105 -1107 0
-1105 -1108 0
-1105 -1109 0
-1105 -1110 0
-1105 -1111 0
-1106 -1107 0
-1106 -1108 0
-1106 -1109 0
-1106 -1110 0
-1106 -1111 0
-1107 -1108 0
-1107 -1109 0
-1107 -1110 0
-1107 -1111 0
-1108 -1109 0
-1108 -1110 0
-1108 -1111 0
-1109 -1110 0
-1109 -1111 0
-1110 -1111 0
1112 1113 1114 1115 1116 1117 1118 0
-1112 -1113 0
-1112 -1114 0
-1112 -1115 0
-1112 -1116 0
-1112 -1117 0
-1112 -1118 0
-1113 -1114 0
-1113 -1115 0
-1113 -1116 0
-1113 -1117 0
-1113 -1118 0
-1114 -1115 0
-1114 -1116 0
-1114 -1117 0
-1114 -1118 0
-1115 -1116 0
-1115 -1117 0
-1115 -1118 0
-1116 -1117 0
-1116 -1118 0
-1117 -1118 0
1119 1120 1121 1122 1123 1124 1125 0
-1119 -1120 0
-1119 -1121 0
-1119 -1122 0
-1119 -1123 0
-1119 -1124 0
-1119 -1125 0
-1120 -1121 0
-1120 -1122 0
-1120 -1123 0
-1120 -1124 0
-1120 -1125 0
-1121 -1122 0
-1121 -1123 0
-1121 -1124 0
-1121 -1125 0
-1122 -1123 0
-1122 -1124 0
-1122 -1125 0
-1123 -1124 0
-1123 -1125 0
-1124 -1125 0
1126 1127 1128 1129 1130 1131 1132 0
-1126 -1127 0
-1126 -1128 0
-1126 -1129 0
-1126 -1130 0
-1126 -1131 0
-1126 -1132 0
-1127 -1128 0
-1127 -1129 0
-1127 -1130 0
-1127 -1131 0
-1127 -1132 0
-1128 -1129 0
-1128 -1130 0
-1128 -1131 0
-1128 -1132 0
-1129 -1130 0
-1129 -1131 0
-1129 -1132 0
-1130 -1131 0
-1130 -1132 0
-1131 -1132 0
1133 1134 1135 1136 1137 1138 1139 0
-1133 -1134 0
-1133 -1135 0
-1133 -1136 0
-1133 -1137 0
-1133 -1138 0
-1133 -1139 0
-1134 -1135 0
-1134 -1136 0
-1134 -1137 0
-1134 -1138 0
-1134 -1139 0
-1135 -1136 0
-1135 -1137 0
-1135 -1138 0
-1135 -1139 0
-1136 -1137 0
-1136 -1138 0
-1136 -1139 0
-1137 -1138 0
-1137 -1139 0
-1138 -1139 0
1140 1141 1142 1143 1144 1145 1146 0
-1140 -1141 0
-1140 -1142 0
-1140 -1143 0
-1140 -1144 0
-1140 -1145 0
-1140 -1146 0
-1141 -1142 0
-1141 -1143 0
-1141 -1144 0
-1141 -1145 0
-1141 -1146 0
-1142 -1143 0
-1142 -1144 0
-1142 -1145 0
-1142 -1146 0
-1143 -1144 0
-1143 -1145 0
-1143 -1146 0
-1144 -1145 0
-1144 -1146 0
-1145 -1146 0
1147 1148 1149 1150 1151 1152 1153 0
-1147 -1148 0
-1147 -1149 0
-1147 -1150 0
-1147 -1151 0
-1147 -1152 0
-1147 -1153 0
-1148 -1149 0
-1148 -1150 0
-1148 -1151 0
-1148 -1152 0
-1148 -1153 0
-1149 -1150 0
-1149 -1151 0
-1149 -1152 0
-1149 -1153 0
-1150 -1151 0
-1150 -1152 0
-1150 -1153 0
-1151 -1152 0
-1151 -1153 0
-1152 -1153 0
1154 1155 1156 1157 1158 1159 1160 0
-1154 -1155 0
-1154 -1156 0
-1154 -1157 0
-1154 -1158 0
-1154 -1159 0
-1154 -1160 0
-1155 -1156 0
-1155 -1157 0
-1155 -1158 0
-1155 -1159 0
-1155 -1160 0
-1156 -1157 0
-1156 -1158 0
-1156 -1159 0
-1156 -1160 0
-1157 -1158 0
-1157 -1159 0
-1157 -1160 0
-1158 -1159 0
-1158 -1160 0
-1159 -1160 0
1161 1162 1163 1164 1165 1166 1167 0
-1161 -1162 0
-1161 -1163 0
-1161 -1164 0
-1161 -1165 0
-1161 -1166 0
-1161 -1167 0
-1162 -1163 0
-1162 -1164 0
-1162 -1165 0
-1162 -1166 0
-1162 -1167 0
-1163 -1164 0
-1163 -1165 0
-1163 -1166 0
-1163 -1167 0
-1164 -1165 0
-1164 -1166 0
-1164 -1167 0
-1165 -1166 0
-1165 -1167 0
-1166 -1167 0
1168 1169 1170 1171 1172 1173 1174 0
-1168 -1169 0
-1168 -1170 0
-1168 -1171 0
-1168 -1172 0
-1168 -1173 0
-1168 -1174 0
-1169 -1170 0
-1169 -1171 0
-1169 -1172 0
-1169 -1173 0
-1169 -1174 0
-1170 -1171 0
-1170 -1172 0
-1170 -1173 0
-1170 -1174 0
-1171 -1172 0
-1171 -1173 0
-1171 -1174 0
-1172 -1173 0
-1172 -1174 0
-1173 -1174 0
1175 1176 1177 1178 1179 1180 1181 0
-1175 -1176 0
-1175 -1177 0
-1175 -1178 0
-1175 -1179 0
-1175 -1180 0
-1175 -1181 0
-1176 -1177 0
-1176 -1178 0
-1176 -1179 0
-1176 -1180 0
-1176 -1181 0
-1177 -1178 0
-1177 -1179 0
-1177 -1180 0
-1177 -1181 0
-1178 -1179 0
-1178 -1180 0
-1178 -1181 0
-1179 -1180 0
-1179 -1181 0
-1180 -1181 0
1182 1183 1184 1185 1186 1187 1188 0
-1182 -1183 0
-1182 -1184 0
-1182 -1185 0
-1182 -1186 0
-1182 -1187 0
-1182 -1188 0
-1183 -1184 0
-1183 -1185 0
-1183 -1186 0
-1183 -1187 0
-1183 -1188 0
-1184 -1185 0
-1184 -1186 0
-1184 -1187 0
-1184 -1188 0
-1185 -1186 0
-1185 -1187 0
-1185 -1188 0
-1186 -1187 0
-1186 -1188 0
-1187 -1188 0
1189 1190 1191 1192 1193 1194 1195 0
-1189 -1190 0
-1189 -1191 0
-1189 -1192 0
-1189 -1193 0
-1189 -1194 0
-1189 -1195 0
-1190 -1191 0
-1190 -1192 0
-1190 -1193 0
-1190 -1194 0
-1190 -1195 0
-1191 -1192 0
-1191 -1193 0
-1191 -1194 0
-1191 -1195 0
-1192 -1193 0
-1192 -1194 0
-1192 -1195 0
-1193 -1194 0
-1193 -1195 0
-1194 -1195 0
1196 1197 1198 1199 1200 1201 1202 0
-1196 -1197 0
-1196 -1198 0
-1196 -1199 0
-1196 -1200 0
-1196 -1201 0
-1196 -1202 0
-1197 -1198 0
-1197 -1199 0
-1197 -1200 0
-1197 -1201 0
-1197 -1202 0
-1198 -1199 0
-1198 -1200 0
-1198 -1201 0
-1198 -1202 0
-1199 -1200 0
-1199 -1201 0
-1199 -1202 0
-1200 -1201 0
-1200 -1202 0
-1201 -1202 0
1203 1204 1205 1206 1207 1208 1209 0
-1203 -1204 0
-1203 -1205 0
-1203 -1206 0
-1203 -1207 0
-1203 -1208 0
-1203 -1209 0
-1204 -1205 0
-1204 -1206 0
-1204 -1207 0
-1204 -1208 0
-1204 -1209 0
-1205 -1206 0
-1205 -1207 0
-1205 -1208 0
-1205 -1209 0
-1206 -1207 0
-1206 -1208 0
-1206 -1209 0
-1207 -1208 0
-1207 -1209 0
-1208 -1209 0
1210 1211 1212 1213 1214 1215 1216 0
-1210 -1211 0
-1210 -1212 0
-1210 -1213 0
-1210 -1214 0
-1210 -1215 0
-1210 -1216 0
-1211 -1212 0
-1211 -1213 0
-1211 -1214 0
-1211 -1215 0
-1211 -1216 0
-1212 -1213 0
-1212 -1214 0
-1212 -1215 0
-1212 -1216 0
-1213 -1214 0
-1213 -1215 0
-1213 -1216 0
-1214 -1215 0
-1214 -1216 0
-1215 -1216 0
1217 1218 1219 1220 1221 1222 1223 0
-1217 -1218 0
-1217 -1219 0
-1217 -1220 0
-1217 -1221 0
-1217 -1222 0
-1217 -1223 0
-1218 -1219 0
-1218 -1220 0
-1218 -1221 0
-1218 -1222 0
-1218 -1223 0
-1219 -1220 0
-1219 -1221 0
-1219 -1222 0
-1219 -1223 0
-1220 -1221 0
-1220 -1222 0
-1220 -1223 0
-1221 -1222 0
-1221 -1223 0
-1222 -1223 0
1224 1225 1226 1227 1228 1229 1230 0
-1224 -1225 0
-1224 -1226 0
-1224 -1227 0
-1224 -1228 0
-1224 -1229 0
-1224 -1230 0
-1225 -1226 0
-1225 -1227 0
-1225 -1228 0
-1225 -1229 0
-1225 -1230 0
-1226 -1227 0
-1226 -1228 0
-1226 -1229 0
-1226 -1230 0
-1227 -1228 0
-1227 -1229 0
-1227 -1230 0
-1228 -1229 0
-1228 -1230 0
-1229 -1230 0
1231 1232 1233 1234 1235 1236 1237 0
-1231 -1232 0
-1231 -1233 0
-1231 -1234 0
-1231 -1235 0
-1231 -1236 0
-1231 -1237 0
-1232 -1233 0
-1232 -1234 0
-1232 -1235 0
-1232 -1236 0
-1232 -1237 0
-1233 -1234 0
-1233 -1235 0
-1233 -1236 0
-1233 -1237 0
-1234 -1235 0
-1234 -1236 0
-1234 -1237 0
-1235 -1236 0
-1235 -1237 0
-1236 -1237 0
1238 1239 1240 1241 1242 1243 1244 0
-1238 -1239 0
-1238 -1240 0
-1238 -1241 0
-1238 -1242 0
-1238 -1243 0
-1238 -1244 0
-1239 -1240 0
-1239 -1241 0
-1239 -1242 0
-1239 -1243 0
-1239 -1244 0
-1240 -1241 0
-1240 -1242 0
-1240 -1243 0
-1240 -1244 0
-1241 -1242 0
-1241 -1243 0
-1241 -1244 0
-1242 -1243 0
-1242 -1244 0
-1243 -1244 0
1245 1246 1247 1248 1249 1250 1251 0
-1245 -1246 0
-1245 -1247 0
-1245 -1248 0
-1245 -1249 0
-1245 -1250 0
-1245 -1251 0
-1246 -1247 0
-1246 -1248 0
-1246 -1249 0
-1246 -1250 0
-1246 -1251 0
-1247 -1248 0
-1247 -1249 0
-1247 -1250 0
-1247 -1251 0
-1248 -1249 0
-1248 -1250 0
-1248 -1251 0
-1249 -1250 0
-1249 -1251 0
-1250 -1251 0
1252 1253 1254 1255 1256 1257 1258 0
-1252 -1253 0
-1252 -1254 0
-1252 -1255 0
-1252 -1256 0
-1252 -1257 0
-1252 -1258 0
-1253 -1254 0
-1253 -1255 0
-1253 -1256 0
-1253 -1257 0
-1253 -1258 0
-1254 -1255 0
-1254 -1256 0
-1254 -1257 0
-1254 -1258 0
-1255 -1256 0
-1255 -1257 0
-1255 -1258 0
-1256 -1257 0
-1256 -1258 0
-1257 -1258 0
1259 1260 1261 1262 1263 1264 1265 0
-1259 -1260 0
-1259 -1261 0
-1259 -1262 0
-1259 -1263 0
-1259 -1264 0
-1259 -1265 0
-1260 -1261 0
-1260 -1262 0
-1260 -1263 0
-1260 -1264 0
-1260 -1265 0
-1261 -1262 0
-1261 -1263 0
-1261 -1264 0
-1261 -1265 0
-1262 -1263 0
-1262 -1264 0
-1262 -1265 0
-1263 -1264 0
-1263 -1265 0
-1264 -1265 0
1266 1267 1268 1269 1270 1271 1272 0
-1266 -1267 0
-1266 -1268 0
-1266 -1269 0
-1266 -1270 0
-1266 -1271 0
-1266 -1272 0
-1267 -1268 0
-1267 -1269 0
-1267 -1270 0
-1267 -1271 0
-1267 -1272 0
-1268 -1269 0
-1268 -1270 0
-1268 -1271 0
-1268 -1272 0
-1269 -1270 0
-1269 -1271 0
-1269 -1272 0
-1270 -1271 0
-1270 -1272 0
-1271 -1272 0
1273 1274 1275 1276 1277 1278 1279 0
-1273 -1274 0
-1273 -1275 0
-1273 -1276 0
-1273 -1277 0
-1273 -1278 0
-1273 -1279 0
-1274 -1275 0
-1274 -1276 0
-1274 -1277 0
-1274 -1278 0
-1274 -1279 0
-1275 -1276 0
-1275 -1277 0
-1275 -1278 0
-1275 -1279 0
-1276 -1277 0
-1276 -1278 0
-1276 -1279 0
-1277 -1278 0
-1277 -1279 0
-1278 -1279 0
1280 1281 1282 1283 1284 1285 1286 0
-1280 -1281 0
-1280 -1282 0
-1280 -1283 0
-1280 -1284 0
-1280 -1285 0
-1280 -1286 0
-1281 -1282 0
-1281 -1283 0
-1281 -1284 0
-1281 -1285 0
-1281 -1286 0
-1282 -1283 0
-1282 -1284 0
-1282 -1285 0
-1282 -1286 0
-1283 -1284 0
-1283 -1285 0
-1283 -1286 0
-1284 -1285 0
-1284 -1286 0
-1285 -1286 0
1287 1288 1289 1290 1291 1292 1293 0
-1287 -1288 0
-1287 -1289 0
-1287 -1290 0
-1287 -1291 0
-1287 -1292 0
-1287 -1293 0
-1288 -1289 0
-1288 -1290 0
-1288 -1291 0
-1288 -1292 0
-1288 -1293 0
-1289 -1290 0
-1289 -1291 0
-1289 -1292 0
-1289 -1293 0
-1290 -1291 0
-1290 -1292 0
-1290 -1293 0
-1291 -1292 0
-1291 -1293 0
-1292 -1293 0
1294 1295 1296 1297 1298 1299 1300 0
-1294 -1295 0
-1294 -1296 0
-1294 -1297 0
-1294 -1298 0
-1294 -1299 0
-1294 -1300 0
-1295 -1296 0
-1295 -1297 0
-1295 -1298 0
-1295 -1299 0
-1295 -1300 0
-1296 -1297 0
-1296 -1298 0
-1296 -1299 0
-1296 -1300 0
-1297 -1298 0
-1297 -1299 0
-1297 -1300 0
-1298 -1299 0
-1298 -1300 0
-1299 -1300 0
1301 1302 1303 1304 1305 1306 1307 0
-1301 -1302 0
-1301 -1303 0
-1301 -1304 0
-1301 -1305 0
-1301 -1306 0
-1301 -1307 0
-1302 -1303 0
-1302 -1304 0
-1302 -1305 0
-1302 -1306 0
-1302 -1307 0
-1303 -1304 0
-1303 -1305 0
-1303 -1306 0
-1303 -1307 0
-1304 -1305 0
-1304 -1306 0
-1304 -1307 0
-1305 -1306 0
-1305 -1307 0
-1306 -1307 0
1308 1309 1310 1311 1312 1313 1314 0
-1308 -1309 0
-1308 -1310 0
-1308 -1311 0
-1308 -1312 0
-1308 -1313 0
-1308 -1314 0
-1309 -1310 0
-1309 -1311 0
-1309 -1312 0
-1309 -1313 0
-1309 -1314 0
-1310 -1311 0
-1310 -1312 0
-1310 -1313 0
-1310 -1314 0
-1311 -1312 0
-1311 -1313 0
-1311 -1314 0
-1312 -1313 0
-1312 -1314 0
-1313 -1314 0
1315 1316 1317 1318 1319 1320 1321 0
-1315 -1316 0
-1315 -1317 0
-1315 -1318 0
-1315 -1319 0
-1315 -1320 0
-1315 -1321 0
-1316 -1317 0
-1316 -1318 0
-1316 -1319 0
-1316 -1320 0
-1316 -1321 0
-1317 -1318 0
-1317 -1319 0
-1317 -1320 0
-1317 -1321 0
-1318 -1319 0
-1318 -1320 0
-1318 -1321 0
-1319 -1320 0
-1319 -1321 0
-1320 -1321 0
1322 1323 1324 1325 1326 1327 1328 0
-1322 -1323 0
-1322 -1324 0
-1322 -1325 0
-1322 -1326 0
-1322 -1327 0
-1322 -1328 0
-1323 -1324 0
-1323 -1325 0
-1323 -1326 0
-1323 -1327 0
-1323 -1328 0
-1324 -1325 0
-1324 -1326 0
-1324 -1327 0
-1324 -1328 0
-1325 -1326 0
-1325 -1327 0
-1325 -1328 0
-1326 -1327 0
-1326 -1328 0
-1327 -1328 0
1329 1330 1331 1332 1333 1334 1335 0
-1329 -1330 0
-1329 -1331 0
-1329 -1332 0
-1329 -1333 0
-1329 -1334 0
-1329 -1335 0
-1330 -1331 0
-1330 -1332 0
-1330 -1333 0
-1330 -1334 0
-1330 -1335 0
-1331 -1332 0
-1331 -1333 0
-1331 -1334 0
-1331 -1335 0
-1332 -1333 0
-1332 -1334 0
-1332 -1335 0
-1333 -1334 0
-1333 -1335 0
-1334 -1335 0
1336 1337 1338 1339 1340 1341 1342 0
-1336 -1337 0
-1336 -1338 0
-1336 -1339 0
-1336 -1340 0
-1336 -1341 0
-1336 -1342 0
-1337 -1338 0
-1337 -1339 0
-1337 -1340 0
-1337 -1341 0
-1337 -1342 0
-1338 -1339 0
-1338 -1340 0
-1338 -1341 0
-1338 -1342 0
-1339 -1340 0
-1339 -1341 0
-1339 -1342 0
-1340 -1341 0
-1340 -1342 0
-1341 -1342 0
1343 1344 1345 1346 1347 1348 1349 0
-1343 -1344 0
-1343 -1345 0
-1343 -1346 0
-1343 -1347 0
-1343 -1348 0
-1343 -1349 0
-1344 -1345 0
-1344 -1346 0
-1344 -1347 0
-1344 -1348 0
-1344 -1349 0
-1345 -1346 0
-1345 -1347 0
-1345 -1348 0
-1345 -1349 0
-1346 -1347 0
-1346 -1348 0
-1346 -1349 0
-1347 -1348 0
-1347 -1349 0
-1348 -1349 0
1350 1351 1352 1353 1354 1355 1356 0
-1350 -1351 0
-1350 -1352 0
-1350 -1353 0
-1350 -1354 0
-1350 -1355 0
-1350 -1356 0
-1351 -1352 0
-1351 -1353 0
-1351 -1354 0
-1351 -1355 0
-1351 -1356 0
-1352 -1353 0
-1352 -1354 0
-1352 -1355 0
-1352 -1356 0
-1353 -1354 0
-1353 -1355 0
-1353 -1356 0
-1354 -1355 0
-1354 -1356 0
-1355 -1356 0
1357 1358 1359 1360 1361 1362 1363 0
-1357 -1358 0
-1357 -1359 0
-1357 -1360 0
-1357 -1361 0
-1357 -1362 0
-1357 -1363 0
-1358 -1359 0
-1358 -1360 0
-1358 -1361 0
-1358 -1362 0
-1358 -1363 0
-1359 -1360 0
-1359 -1361 0
-1359 -1362 0
-1359 -1363 0
-1360 -1361 0
-1360 -1362 0
-1360 -1363 0
-1361 -1362 0
-1361 -1363 0
-1362 -1363 0
1364 1365 1366 1367 1368 1369 1370 0
-1364 -1365 0
-1364 -1366 0
-1364 -1367 0
-1364 -1368 0
-1364 -1369 0
-1364 -1370 0
-1365 -1366 0
-1365 -1367 0
-1365 -1368 0
-1365 -1369 0
-1365 -1370 0
-1366 -1367 0
-1366 -1368 0
-1366 -1369 0
-1366 -1370 0
-1367 -1368 0
-1367 -1369 0
-1367 -1370 0
-1368 -1369 0
-1368 -1370 0
-1369 -1370 0
1371 1372 1373 1374 1375 1376 1377 0
-1371 -1372 0
-1371 -1373 0
-1371 -1374 0
-1371 -1375 0
-1371 -1376 0
-1371 -1377 0
-1372 -1373 0
-1372 -1374 0
-1372 -1375 0
-1372 -1376 0
-1372 -1377 0
-1373 -1374 0
-1373 -1375 0
-1373 -1376 0
-1373 -1377 0
-1374 -1375 0
-1374 -1376 0
-1374 -1377 0
-1375 -1376 0
-1375 -1377 0
-1376 -1377 0
1378 1379 1380 1381 1382 1383 1384 0
-1378 -1379 0
-1378 -1380 0
-1378 -1381 0
-1378 -1382 0
-1378 -1383 0
-1378 -1384 0
-1379 -1380 0
-1379 -1381 0
-1379 -1382 0
-1379 -1383 0
-1379 -1384 0
-1380 -1381 0
-1380 -1382 0
-1380 -1383 0
-1380 -1384 0
-1381 -1382 0
-1381 -1383 0
-1381 -1384 0
-1382 -1383 0
-1382 -1384 0
-1383 -1384 0
1385 1386 1387 1388 1389 1390 1391 0
-1385 -1386 0
-1385 -1387 0
-1385 -1388 0
-1385 -1389 0
-1385 -1390 0
-1385 -1391 0
-1386 -1387 0
-1386 -1388 0
-1386 -1389 0
-1386 -1390 0
-1386 -1391 0
-1387 -1388 0
-1387 -1389 0
-1387 -1390 0
-1387 -1391 0
-1388 -1389 0
-1388 -1390 0
-1388 -1391 0
-1389 -1390 0
-1389 -1391 0
-1390 -1391 0
1392 1393 1394 1395 1396 1397 1398 0
-1392 -1393 0
-1392 -1394 0
-1392 -1395 0
-1392 -1396 0
-1392 -1397 0
-1392 -1398 0
-1393 -1394 0
-1393 -1395 0
-1393 -1396 0
-1393 -1397 0
-1393 -1398 0
-1394 -1395 0
-1394 -1396 0
-1394 -1397 0
-1394 -1398 0
-1395 -1396 0
-1395 -1397 0
-1395 -1398 0
-1396 -1397 0
-1396 -1398 0
-1397 -1398 0
1399 1400 1401 1402 1403 1404 1405 0
-1399 -1400 0
-1399 -1401 0
-1399 -1402 0
-1399 -1403 0
-1399 -1404 0
-1399 -1405 0
-1400 -1401 0
-1400 -1402 0
-1400 -1403 0
-1400 -1404 0
-1400 -1405 0
-1401 -1402 0
-1401 -1403 0
-1401 -1404 0
-1401 -1405 0
-1402 -1403 0
-1402 -1404 0
-1402 -1405 0
-1403 -1404 0
-1403 -1405 0
-1404 -1405 0
1406 1407 1408 1409 1410 1411 1412 0
-1406 -1407 0
-1406 -1408 0
-1406 -1409 0
-1406 -1410 0
-1406 -1411 0
-1406 -1412 0
-1407 -1408 0
-1407 -1409 0
-1407 -1410 0
-1407 -1411 0
-1407 -1412 0
-1408 -1409 0
-1408 -1410 0
-1408 -1411 0
-1408 -1412 0
-1409 -1410 0
-1409 -1411 0
-1409 -1412 0
-1410 -1411 0
-1410 -1412 0
-1411 -1412 0
1413 1414 1415 1416 1417 1418 1419 0
-1413 -1414 0
-1413 -1415 0
-1413 -1416 0
-1413 -1417 0
-1413 -1418 0
-1413 -1419 0
-1414 -1415 0
-1414 -1416 0
-1414 -1417 0
-1414 -1418 0
-1414 -1419 0
-1415 -1416 0
-1415 -1417 0
-1415 -1418 0
-1415 -1419 0
-1416 -1417 0
-1416 -1418 0
-1416 -1419 0
-1417 -1418 0
-1417 -1419 0
-1418 -1419 0
1420 1421 1422 1423 1424 1425 1426 0
-1420 -1421 0
-1420 -1422 0
-1420 -1423 0
-1420 -1424 0
-1420 -1425 0
-1420 -1426 0
-1421 -1422 0
-1421 -1423 0
-1421 -1424 0
-1421 -1425 0
-1421 -1426 0
-1422 -1423 0
-1422 -1424 0
-1422 -1425 0
-1422 -1426 0
-1423 -1424 0
-1423 -1425 0
-1423 -1426 0
-1424 -1425 0
-1424 -1426 0
-1425 -1426 0
1427 1428 1429 1430 1431 1432 1433 0
-1427 -1428 0
-1427 -1429 0
-1427 -1430 0
-1427 -1431 0
-1427 -1432 0
-1427 -1433 0
-1428 -1429 0
-1428 -1430 0
-1428 -1431 0
-1428 -1432 0
-1428 -1433 0
-1429 -1430 0
-1429 -1431 0
-1429 -1432 0
-1429 -1433 0
-1430 -1431 0
-1430 -1432 0
-1430 -1433 0
-1431 -1432 0
-1431 -1433 0
-1432 -1433 0
1434 1435 1436 1437 1438 1439 1440 0
-1434 -1435 0
-1434 -1436 0
-1434 -1437 0
-1434 -1438 0
-1434 -1439 0
-1434 -1440 0
-1435 -1436 0
-1435 -1437 0
-1435 -1438 0
-1435 -1439 0
-1435 -1440 0
-1436 -1437 0
-1436 -1438 0
-1436 -1439 0
-1436 -1440 0
-1437 -1438 0
-1437 -1439 0
-1437 -1440 0
-1438 -1439 0
-1438 -1440 0
-1439 -1440 0
1441 1442 1443 1444 1445 1446 1447 0
-1441 -1442 0
-1441 -1443 0
-1441 -1444 0
-1441 -1445 0
-1441 -1446 0
-1441 -1447 0
-1442 -1443 0
-1442 -1444 0
-1442 -1445 0
-1442 -1446 0
-1442 -1447 0
-1443 -1444 0
-1443 -1445 0
-1443 -1446 0
-1443 -1447 0
-1444 -1445 0
-1444 -1446 0
-1444 -1447 0
-1445 -1446 0
-1445 -1447 0
-1446 -1447 0
1448 1449 1450 1451 1452 1453 1454 0
-1448 -1449 0
-1448 -1450 0
-1448 -1451 0
-1448 -1452 0
-1448 -1453 0
-1448 -1454 0
-1449 -1450 0
-1449 -1451 0
-1449 -1452 0
-1449 -1453 0
-1449 -1454 0
-1450 -1451 0
-1450 -1452 0
-1450 -1453 0
-1450 -1454 0
-1451 -1452 0
-1451 -1453 0
-1451 -1454 0
-1452 -1453 0
-1452 -1454 0
-1453 -1454 0
1455 1456 1457 1458 1459 1460 1461 0
-1455 -1456 0
-1455 -1457 0
-1455 -1458 0
-1455 -1459 0
-1455 -1460 0
-1455 -1461 0
-1456 -1457 0
-1456 -1458 0
-1456 -1459 0
-1456 -1460 0
-1456 -1461 0
-1457 -1458 0
-1457 -1459 0
-1457 -1460 0
-1457 -1461 0
-1458 -1459 0
-1458 -1460 0
-1458 -1461 0
-1459 -1460 0
-1459 -1461 0
-1460 -1461 0
1462 1463 1464 1465 1466 1467 1468 0
-1462 -1463 0
-1462 -1464 0
-1462 -1465 0
-1462 -1466 0
-1462 -1467 0
-1462 -1468 0
-1463 -1464 0
-1463 -1465 0
-1463 -1466 0
-1463 -1467 0
-1463 -1468 0
-1464 -1465 0
-1464 -1466 0
-1464 -1467 0
-1464 -1468 0
-1465 -1466 0
-1465 -1467 0
-1465 -1468 0
-1466 -1467 0
-1466 -1468 0
-1467 -1468 0
1469 1470 1471 1472 1473 1474 1475 0
-1469 -1470 0
-1469 -1471 0
-1469 -1472 0
-1469 -1473 0
-1469 -1474 0
-1469 -1475 0
-1470 -1471 0
-1470 -1472 0
-1470 -1473 0
-1470 -1474 0
-1470 -1475 0
-1471 -1472 0
-1471 -1473 0
-1471 -1474 0
-1471 -1475 0
-1472 -1473 0
-1472 -1474 0
-1472 -1475 0
-1473 -1474 0
-1473 -1475 0
-1474 -1475 0
1476 1477 1478 1479 1480 1481 1482 0
-1476 -1477 0
-1476 -1478 0
-1476 -1479 0
-1476 -1480 0
-1476 -1481 0
-1476 -1482 0
-1477 -1478 0
-1477 -1479 0
-1477 -1480 0
-1477 -1481 0
-1477 -1482 0
-1478 -1479 0
-1478 -1480 0
-1478 -1481 0
-1478 -1482 0
-1479 -1480 0
-1479 -1481 0
-1479 -1482 0
-1480 -1481 0
-1480 -1482 0
-1481 -1482 0
1483 1484 1485 1486 1487 1488 1489 0
-1483 -1484 0
-1483 -1485 0
-1483 -1486 0
-1483 -1487 0
-1483 -1488 0
-1483 -1489 0
-1484 -1485 0
-1484 -1486 0
-1484 -1487 0
-1484 -1488 0
-1484 -1489 0
-1485 -1486 0
-1485 -1487 0
-1485 -1488 0
-1485 -1489 0
-1486 -1487 0
-1486 -1488 0
-1486 -1489 0
-1487 -1488 0
-1487 -1489 0
-1488 -1489 0
1490 1491 1492 1493 1494 1495 1496 0
-1490 -1491 0
-1490 -1492 0
-1490 -1493 0
-1490 -1494 0
-1490 -1495 0
-1490 -1496 0
-1491 -1492 0
-1491 -1493 0
-1491 -1494 0
-1491 -1495 0
-1491 -1496 0
-1492 -1493 0
-1492 -1494 0
-1492 -1495 0
-1492 -1496 0
-1493 -1494 0
-1493 -1495 0
-1493 -1496 0
-1494 -1495 0
-1494 -1496 0
-1495 -1496 0
1497 1498 1499 1500 1501 1502 1503 0
-1497 -1498 0
-1497 -1499 0
-1497 -1500 0
-1497 -1501 0
-1497 -1502 0
-1497 -1503 0
-1498 -1499 0
-1498 -1500 0
-1498 -1501 0
-1498 -1502 0
-1498 -1503 0
-1499 -1500 0
-1499 -1501 0
-1499 -1502 0
-1499 -1503 0
-1500 -1501 0
-1500 -1502 0
-1500 -1503 0
-1501 -1502 0
-1501 -1503 0
-1502 -1503 0
1504 1505 1506 1507 1508 1509 1510 0
-1504 -1505 0
-1504 -1506 0
-1504 -1507 0
-1504 -1508 0
-1504 -1509 0
-1504 -1510 0
-1505 -1506 0
-1505 -1507 0
-1505 -1508 0
-1505 -1509 0
-1505 -1510 0
-1506 -1507 0
-1506 -1508 0
-1506 -1509 0
-1506 -1510 0
-1507 -1508 0
-1507 -1509 0
-1507 -1510 0
-1508 -1509 0
-1508 -1510 0
-1509 -1510 0
1511 1512 1513 1514 1515 1516 1517 0
-1511 -1512 0
-1511 -1513 0
-1511 -1514 0
-1511 -1515 0
-1511 -1516 0
-1511 -1517 0
-1512 -1513 0
-1512 -1514 0
-1512 -1515 0
-1512 -1516 0
-1512 -1517 0
-1513 -1514 0
-1513 -1515 0
-1513 -1516 0
-1513 -1517 0
-1514 -1515 0
-1514 -1516 0
-1514 -1517 0
-1515 -1516 0
-1515 -1517 0
-1516 -1517 0
1518 1519 1520 1521 1522 1523 1524 0
-1518 -1519 0
-1518 -1520 0
-1518 -1521 0
-1518 -1522 0
-1518 -1523 0
-1518 -1524 0
-1519 -1520 0
-1519 -1521 0
-1519 -1522 0
-1519 -1523 0
-1519 -1524 0
-1520 -1521 0
-1520 -1522 0
-1520 -1523 0
-1520 -1524 0
-1521 -1522 0
-1521 -1523 0
-1521 -1524 0
-1522 -1523 0
-1522 -1524 0
-1523 -1524 0
1525 1526 1527 1528 1529 1530 1531 0
-1525 -1526 0
-1525 -1527 0
-1525 -1528 0
-1525 -1529 0
-1525 -1530 0
-1525 -1531 0
-1526 -1527 0
-1526 -1528 0
-1526 -1529 0
-1526 -1530 0
-1526 -1531 0
-1527 -1528 0
-1527 -1529 0
-1527 -1530 0
-1527 -1531 0
-1528 -1529 0
-1528 -1530 0
-1528 -1531 0
-1529 -1530 0
-1529 -1531 0
-1530 -1531 0
1532 1533 1534 1535 1536 1537 1538 0
-1532 -1533 0
-1532 -1534 0
-1532 -1535 0
-1532 -1536 0
-1532 -1537 0
-1532 -1538 0
-1533 -1534 0
-1533 -1535 0
-1533 -1536 0
-1533 -1537 0
-1533 -1538 0
-1534 -1535 0
-1534 -1536 0
-1534 -1537 0
-1534 -1538 0
-1535 -1536 0
-1535 -1537 0
-1535 -1538 0
-1536 -1537 0
-1536 -1538 0
-1537 -1538 0
1539 1540 1541 1542 1543 1544 1545 0
-1539 -1540 0
-1539 -1541 0
-1539 -1542 0
-1539 -1543 0
-1539 -1544 0
-1539 -1545 0
-1540 -1541 0
-1540 -1542 0
-1540 -1543 0
-1540 -1544 0
-1540 -1545 0
-1541 -1542 0
-1541 -1543 0
-1541 -1544 0
-1541 -1545 0
-1542 -1543 0
-1542 -1544 0
-1542 -1545 0
-1543 -1544 0
-1543 -1545 0
-1544 -1545 0
1546 1547 1548 1549 1550 1551 1552 0
-1546 -1547 0
-1546 -1548 0
-1546 -1549 0
-1546 -1550 0
-1546 -1551 0
-1546 -1552 0
-1547 -1548 0
-1547 -1549 0
-1547 -1550 0
-1547 -1551 0
-1547 -1552 0
-1548 -1549 0
-1548 -1550 0
-1548 -1551 0
-1548 -1552 0
-1549 -1550 0
-1549 -1551 0
-1549 -1552 0
-1550 -1551 0
-1550 -1552 0
-1551 -1552 0
1553 1554 1555 1556 1557 1558 1559 0
-1553 -1554 0
-1553 -1555 0
-1553 -1556 0
-1553 -1557 0
-1553 -1558 0
-1553 -1559 0
-1554 -1555 0
-1554 -1556 0
-1554 -1557 0
-1554 -1558 0
-1554 -1559 0
-1555 -1556 0
-1555 -1557 0
-1555 -1558 0
-1555 -1559 0
-1556 -1557 0
-1556 -1558 0
-1556 -1559 0
-1557 -1558 0
-1557 -1559 0
-1558 -1559 0
1560 1561 1562 1563 1564 1565 1566 0
-1560 -1561 0
-1560 -1562 0
-1560 -1563 0
-1560 -1564 0
-1560 -1565 0
-1560 -1566 0
-1561 -1562 0
-1561 -1563 0
-1561 -1564 0
-1561 -1565 0
-1561 -1566 0
-1562 -1563 0
-1562 -1564 0
-1562 -1565 0
-1562 -1566 0
-1563 -1564 0
-1563 -1565 0
-1563 -1566 0
-1564 -1565 0
-1564 -1566 0
-1565 -1566 0
1567 1568 1569 1570 1571 1572 1573 0
-1567 -1568 0
-1567 -1569 0
-1567 -1570 0
-1567 -1571 0
-1567 -1572 0
-1567 -1573 0
-1568 -1569 0
-1568 -1570 0
-1568 -1571 0
-1568 -1572 0
-1568 -1573 0
-1569 -1570 0
-1569 -1571 0
-1569 -1572 0
-1569 -1573 0
-1570 -1571 0
-1570 -1572 0
-1570 -1573 0
-1571 -1572 0
-1571 -1573 0
-1572 -1573 0
1574 1575 1576 1577 1578 1579 1580 0
-1574 -1575 0
-1574 -1576 0
-1574 -1577 0
-1574 -1578 0
-1574 -1579 0
-1574 -1580 0
-1575 -1576 0
-1575 -1577 0
-1575 -1578 0
-1575 -1579 0
-1575 -1580 0
-1576 -1577 0
-1576 -1578 0
-1576 -1579 0
-1576 -1580 0
-1577 -1578 0
-1577 -1579 0
-1577 -1580 0
-1578 -1579 0
-1578 -1580 0
-1579 -1580 0
1581 1582 1583 1584 1585 1586 1587 0
-1581 -1582 0
-1581 -1583 0
-1581 -1584 0
-1581 -1585 0
-1581 -1586 0
-1581 -1587 0
-1582 -1583 0
-1582 -1584 0
-1582 -1585 0
-1582 -1586 0
-1582 -1587 0
-1583 -1584 0
-1583 -1585 0
-1583 -1586 0
-1583 -1587 0
-1584 -1585 0
-1584 -1586 0
-1584 -1587 0
-1585 -1586 0
-1585 -1587 0
-1586 -1587 0
1588 1589 1590 1591 1592 1593 1594 0
-1588 -1589 0
-1588 -1590 0
-1588 -1591 0
-1588 -1592 0
-1588 -1593 0
-1588 -1594 0
-1589 -1590 0
-1589 -1591 0
-1589 -1592 0
-1589 -1593 0
-1589 -1594 0
-1590 -1591 0
-1590 -1592 0
-1590 -1593 0
-1590 -1594 0
-1591 -1592 0
-1591 -1593 0
-1591 -1594 0
-1592 -1593 0
-1592 -1594 0
-1593 -1594 0
1595 1596 1597 1598 1599 1600 1601 0
-1595 -1596 0
-1595 -1597 0
-1595 -1598 0
-1595 -1599 0
-1595 -1600 0
-1595 -1601 0
-1596 -1597 0
-1596 -1598 0
-1596 -1599 0
-1596 -1600 0
-1596 -1601 0
-1597 -1598 0
-1597 -1599 0
-1597 -1600 0
-1597 -1601 0
-1598 -1599 0
-1598 -1600 0
-1598 -1601 0
-1599 -1600 0
-1599 -1601 0
-1600 -1601 0
1602 1603 1604 1605 1606 1607 1608 0
-1602 -1603 0
-1602 -1604 0
-1602 -1605 0
-1602 -1606 0
-1602 -1607 0
-1602 -1608 0
-1603 -1604 0
-1603 -1605 0
-1603 -1606 0
-1603 -1607 0
-1603 -1608 0
-1604 -1605 0
-1604 -1606 0
-1604 -1607 0
-1604 -1608 0
-1605 -1606 0
-1605 -1607 0
-1605 -1608 0
-1606 -1607 0
-1606 -1608 0
-1607 -1608 0
1609 1610 1611 1612 1613 1614 1615 0
-1609 -1610 0
-1609 -1611 0
-1609 -1612 0
-1609 -1613 0
-1609 -1614 0
-1609 -1615 0
-1610 -1611 0
-1610 -1612 0
-1610 -1613 0
-1610 -1614 0
-1610 -1615 0
-1611 -1612 0
-1611 -1613 0
-1611 -1614 0
-1611 -1615 0
-1612 -1613 0
-1612 -1614 0
-1612 -1615 0
-1613 -1614 0
-1613 -1615 0
-1614 -1615 0
1616 1617 1618 1619 1620 1621 1622 0
-1616 -1617 0
-1616 -1618 0
-1616 -1619 0
-1616 -1620 0
-1616 -1621 0
-1616 -1622 0
-1617 -1618 0
-1617 -1619 0
-1617 -1620 0
-1617 -1621 0
-1617 -1622 0
-1618 -1619 0
-1618 -1620 0
-1618 -1621 0
-1618 -1622 0
-1619 -1620 0
-1619 -1621 0
-1619 -1622 0
-1620 -1621 0
-1620 -1622 0
-1621 -1622 0
1623 1624 1625 1626 1627 1628 1629 0
-1623 -1624 0
-1623 -1625 0
-1623 -1626 0
-1623 -1627 0
-1623 -1628 0
-1623 -1629 0
-1624 -1625 0
-1624 -1626 0
-1624 -1627 0
-1624 -1628 0
-1624 -1629 0
-1625 -1626 0
-1625 -1627 0
-1625 -1628 0
-1625 -1629 0
-1626 -1627 0
-1626 -1628 0
-1626 -1629 0
-1627 -1628 0
-1627 -1629 0
-1628 -1629 0
1630 1631 1632 1633 1634 1635 1636 0
-1630 -1631 0
-1630 -1632 0
-1630 -1633 0
-1630 -1634 0
-1630 -1635 0
-1630 -1636 0
-1631 -1632 0
-1631 -1633 0
-1631 -1634 0
-1631 -1635 0
-1631 -1636 0
-1632 -1633 0
-1632 -1634 0
-1632 -1635 0
-1632 -1636 0
-1633 -1634 0
-1633 -1635 0
-1633 -1636 0
-1634 -1635 0
-1634 -1636 0
-1635 -1636 0
1637 1638 1639 1640 1641 1642 1643 0
-1637 -1638 0
-1637 -1639 0
-1637 -1640 0
-1637 -1641 0
-1637 -1642 0
-1637 -1643 0
-1638 -1639 0
-1638 -1640 0
-1638 -1641 0
-1638 -1642 0
-1638 -1643 0
-1639 -1640 0
-1639 -1641 0
-1639 -1642 0
-1639 -1643 0
-1640 -1641 0
-1640 -1642 0
-1640 -1643 0
-1641 -1642 0
-1641 -1643 0
-1642 -1643 0
1644 1645 1646 1647 1648 1649 1650 0
-1644 -1645 0
-1644 -1646 0
-1644 -1647 0
-1644 -1648 0
-1644 -1649 0
-1644 -1650 0
-1645 -1646 0
-1645 -1647 0
-1645 -1648 0
-1645 -1649 0
-1645 -1650 0
-1646 -1647 0
-1646 -1648 0
-1646 -1649 0
-1646 -1650 0
-1647 -1648 0
-1647 -1649 0
-1647 -1650 0
-1648 -1649 0
-1648 -1650 0
-1649 -1650 0
1651 1652 1653 1654 1655 1656 1657 0
-1651 -1652 0
-1651 -1653 0
-1651 -1654 0
-1651 -1655 0
-1651 -1656 0
-1651 -1657 0
-1652 -1653 0
-1652 -1654 0
-1652 -1655 0
-1652 -1656 0
-1652 -1657 0
-1653 -1654 0
-1653 -1655 0
-1653 -1656 0
-1653 -1657 0
-1654 -1655 0
-1654 -1656 0
-1654 -1657 0
-1655 -1656 0
-1655 -1657 0
-1656 -1657 0
1658 1659 1660 1661 1662 1663 1664 0
-1658 -1659 0
-1658 -1660 0
-1658 -1661 0
-1658 -1662 0
-1658 -1663 0
-1658 -1664 0
-1659 -1660 0
-1659 -1661 0
-1659 -1662 0
-1659 -1663 0
-1659 -1664 0
-1660 -1661 0
-1660 -1662 0
-1660 -1663 0
-1660 -1664 0
-1661 -1662 0
-1661 -1663 0
-1661 -1664 0
-1662 -1663 0
-1662 -1664 0
-1663 -1664 0
1665 1666 1667 1668 1669 1670 1671 0
-1665 -1666 0
-1665 -1667 0
-1665 -1668 0
-1665 -1669 0
-1665 -1670 0
-1665 -1671 0
-1666 -1667 0
-1666 -1668 0
-1666 -1669 0
-1666 -1670 0
-1666 -1671 0
-1667 -1668 0
-1667 -1669 0
-1667 -1670 0
-1667 -1671 0
-1668 -1669 0
-1668 -1670 0
-1668 -1671 0
-1669 -1670 0
-1669 -1671 0
-1670 -1671 0
1672 1673 1674 1675 1676 1677 1678 0
-1672 -1673 0
-1672 -1674 0
-1672 -1675 0
-1672 -1676 0
-1672 -1677 0
-1672 -1678 0
-1673 -1674 0
-1673 -1675 0
-1673 -1676 0
-1673 -1677 0
-1673 -1678 0
-1674 -1675 0
-1674 -1676 0
-1674 -1677 0
-1674 -1678 0
-1675 -1676 0
-1675 -1677 0
-1675 -1678 0
-1676 -1677 0
-1676 -1678 0
-1677 -1678 0
1679 1680 1681 1682 1683 1684 1685 0
-1679 -1680 0
-1679 -1681 0
-1679 -1682 0
-1679 -1683 0
-1679 -1684 0
-1679 -1685 0
-1680 -1681 0
-1680 -1682 0
-1680 -1683 0
-1680 -1684 0
-1680 -1685 0
-1681 -1682 0
-1681 -1683 0
-1681 -1684 0
-1681 -1685 0
-1682 -1683 0
-1682 -1684 0
-1682 -1685 0
-1683 -1684 0
-1683 -1685 0
-1684 -1685 0
1686 1687 1688 1689 1690 1691 1692 0
-1686 -1687 0
-1686 -1688 0
-1686 -1689 0
-1686 -1690 0
-1686 -1691 0
-1686 -1692 0
-1687 -1688 0
-1687 -1689 0
-1687 -1690 0
-1687 -1691 0
-1687 -1692 0
-1688 -1689 0
-1688 -1690 0
-1688 -1691 0
-1688 -1692 0
-1689 -1690 0
-1689 -1691 0
-1689 -1692 0
-1690 -1691 0
-1690 -1692 0
-1691 -1692 0
1693 1694 1695 1696 1697 1698 1699 0
-1693 -1694 0
-1693 -1695 0
-1693 -1696 0
-1693 -1697 0
-1693 -1698 0
-1693 -1699 0
-1694 -1695 0
-1694 -1696 0
-1694 -1697 0
-1694 -1698 0
-1694 -1699 0
-1695 -1696 0
-1695 -1697 0
-1695 -1698 0
-1695 -1699 0
-1696 -1697 0
-1696 -1698 0
-1696 -1699 0
-1697 -1698 0
-1697 -1699 0
-1698 -1699 0
1700 1701 1702 1703 1704 1705 1706 0
-1700 -1701 0
-1700 -1702 0
-1700 -1703 0
-1700 -1704 0
-1700 -1705 0
-1700 -1706 0
-1701 -1702 0
-1701 -1703 0
-1701 -1704 0
-1701 -1705 0
-1701 -1706 0
-1702 -1703 0
-1702 -1704 0
-1702 -1705 0
-1702 -1706 0
-1703 -1704 0
-1703 -1705 0
-1703 -1706 0
-1704 -1705 0
-1704 -1706 0
-1705 -1706 0
1707 1708 1709 1710 1711 1712 1713 0
-1707 -1708 0
-1707 -1709 0
-1707 -1710 0
-1707 -1711 0
-1707 -1712 0
-1707 -1713 0
-1708 -1709 0
-1708 -1710 0
-1708 -1711 0
-1708 -1712 0
-1708 -1713 0
-1709 -1710 0
-1709 -1711 0
-1709 -1712 0
-1709 -1713 0
-1710 -1711 0
-1710 -1712 0
-1710 -1713 0
-1711 -1712 0
-1711 -1713 0
-1712 -1713 0
1714 1715 1716 1717 1718 1719 1720 0
-1714 -1715 0
-1714 -1716 0
-1714 -1717 0
-1714 -1718 0
-1714 -1719 0
-1714 -1720 0
-1715 -1716 0
-1715 -1717 0
-1715 -1718 0
-1715 -1719 0
-1715 -1720 0
-1716 -1717 0
-1716 -1718 0
-1716 -1719 0
-1716 -1720 0
-1717 -1718 0
-1717 -1719 0
-1717 -1720 0
-1718 -1719 0
-1718 -1720 0
-1719 -1720 0
1721 1722 1723 1724 1725 1726 1727 0
-1721 -1722 0
-1721 -1723 0
-1721 -1724 0
-1721 -1725 0
-1721 -1726 0
-1721 -1727 0
-1722 -1723 0
-1722 -1724 0
-1722 -1725 0
-1722 -1726 0
-1722 -1727 0
-1723 -1724 0
-1723 -1725 0
-1723 -1726 0
-1723 -1727 0
-1724 -1725 0
-1724 -1726 0
-1724 -1727 0
-1725 -1726 0
-1725 -1727 0
-1726 -1727 0
1728 1729 1730 1731 1732 1733 1734 0
-1728 -1729 0
-1728 -1730 0
-1728 -1731 0
-1728 -1732 0
-1728 -1733 0
-1728 -1734 0
-1729 -1730 0
-1729 -1731 0
-1729 -1732 0
-1729 -1733 0
-1729 -1734 0
-1730 -1731 0
-1730 -1732 0
-1730 -1733 0
-1730 -1734 0
-1731 -1732 0
-1731 -1733 0
-1731 -1734 0
-1732 -1733 0
-1732 -1734 0
-1733 -1734 0
1735 1736 1737 1738 1739 1740 1741 0
-1735 -1736 0
-1735 -1737 0
-1735 -1738 0
-1735 -1739 0
-1735 -1740 0
-1735 -1741 0
-1736 -1737 0
-1736 -1738 0
-1736 -1739 0
-1736 -1740 0
-1736 -1741 0
-1737 -1738 0
-1737 -1739 0
-1737 -1740 0
-1737 -1741 0
-1738 -1739 0
-1738 -1740 0
-1738 -1741 0
-1739 -1740 0
-1739 -1741 0
-1740 -1741 0
1742 1743 1744 1745 1746 1747 1748 0
-1742 -1743 0
-1742 -1744 0
-1742 -1745 0
-1742 -1746 0
-1742 -1747 0
-1742 -1748 0
-1743 -1744 0
-1743 -1745 0
-1743 -1746 0
-1743 -1747 0
-1743 -1748 0
-1744 -1745 0
-1744 -1746 0
-1744 -1747 0
-1744 -1748 0
-1745 -1746 0
-1745 -1747 0
-1745 -1748 0
-1746 -1747 0
-1746 -1748 0
-1747 -1748 0
1749 1750 1751 1752 1753 1754 1755 0
-1749 -1750 0
-1749 -1751 0
-1749 -1752 0
-1749 -1753 0
-1749 -1754 0
-1749 -1755 0
-1750 -1751 0
-1750 -1752 0
-1750 -1753 0
-1750 -1754 0
-1750 -1755 0
-1751 -1752 0
-1751 -1753 0
-1751 -1754 0
-1751 -1755 0
-1752 -1753 0
-1752 -1754 0
-1752 -1755 0
-1753 -1754 0
-1753 -1755 0
-1754 -1755 0
706 713 720 727 181 1 7 0
-706 -713 0
-706 -720 0
-706 -727 0
-706 -181 0
-706 -1 0
-706 -7 0
-713 -720 0
-713 -727 0
-713 -181 0
-713 -1 0
-713 -7 0
-720 -727 0
-720 -181 0
-720 -1 0
-720 -7 0
-727 -181 0
-727 -1 0
-727 -7 0
-181 -1 0
-181 -7 0
-1 -7 0
707 714 721 728 182 2 8 0
-707 -714 0
-707 -721 0
-707 -728 0
-707 -182 0
-707 -2 0
-707 -8 0
-714 -721 0
-714 -728 0
-714 -182 0
-714 -2 0
-714 -8 0
-721 -728 0
-721 -182 0
-721 -2 0
-721 -8 0
-728 -182 0
-728 -2 0
-728 -8 0
-182 -2 0
-182 -8 0
-2 -8 0
708 715 722 729 183 3 9 0
-708 -715 0
-708 -722 0
-708 -729 0
-708 -183 0
-708 -3 0
-708 -9 0
-715 -722 0
-715 -729 0
-715 -183 0
-715 -3 0
-715 -9 0
-722 -729 0
-722 -183 0
-722 -3 0
-722 -9 0
-729 -183 0
-729 -3 0
-729 -9 0
-183 -3 0
-183 -9 0
-3 -9 0
709 716 723 730 184 4 10 0
-709 -716 0
-709 -723 0
-709 -730 0
-709 -184 0
-709 -4 0
-709 -10 0
-716 -723 0
-716 -730 0
-716 -184 0
-716 -4 0
-716 -10 0
-723 -730 0
-723 -184 0
-723 -4 0
-723 -10 0
-730 -184 0
-730 -4 0
-730 -10 0
-184 -4 0
-184 -10 0
-4 -10 0
710 717 724 731 185 5 11 0
-710 -717 0
-710 -724 0
-710 -731 0
-710 -185 0
-710 -5 0
-710 -11 0
-717 -724 0
-717 -731 0
-717 -185 0
-717 -5 0
-717 -11 0
-724 -731 0
-724 -185 0
-724 -5 0
-724 -11 0
-731 -185 0
-731 -5 0
-731 -11 0
-185 -5 0
-185 -11 0
-5 -11 0
711 718 725 732 186 6 12 0
-711 -718 0
-711 -725 0
-711 -732 0
-711 -186 0
-711 -6 0
-711 -12 0
-718 -725 0
-718 -732 0
-718 -186 0
-718 -6 0
-718 -12 0
-725 -732 0
-725 -186 0
-725 -6 0
-725 -12 0
-732 -186 0
-732 -6 0
-732 -12 0
-186 -6 0
-186 -12 0
-6 -12 0
712 719 726 733 187 0
-712 -719 0
-712 -726 0
-712 -733 0
-712 -187 0
-719 -726 0
-719 -733 0
-719 -187 0
-726 -733 0
-726 -187 0
-733 -187 0
706 734 741 748 286 37 43 0
-706 -734 0
-706 -741 0
-706 -748 0
-706 -286 0
-706 -37 0
-706 -43 0
-734 -741 0
-734 -748 0
-734 -286 0
-734 -37 0
-734 -43 0
-741 -748 0
-741 -286 0
-741 -37 0
-741 -43 0
-748 -286 0
-748 -37 0
-748 -43 0
-286 -37 0
-286 -43 0
-37 -43 0
707 735 742 749 287 38 44 0
-707 -735 0
-707 -742 0
-707 -749 0
-707 -287 0
-707 -38 0
-707 -44 0
-735 -742 0
-735 -749 0
-735 -287 0
-735 -38 0
-735 -44 0
-742 -749 0
-742 -287 0
-742 -38 0
-742 -44 0
-749 -287 0
-749 -38 0
-749 -44 0
-287 -38 0
-287 -44 0
-38 -44 0
708 736 743 750 288 39 45 0
-708 -736 0
-708 -743 0
-708 -750 0
-708 -288 0
-708 -39 0
-708 -45 0
-736 -743 0
-736 -750 0
-736 -288 0
-736 -39 0
-736 -45 0
-743 -750 0
-743 -288 0
-743 -39 0
-743 -45 0
-750 -288 0
-750 -39 0
-750 -45 0
-288 -39 0
-288 -45 0
-39 -45 0
709 737 744 751 289 40 46 0
-709 -737 0
-709 -744 0
-709 -751 0
-709 -289 0
-709 -40 0
-709 -46 0
-737 -744 0
-737 -751 0
-737 -289 0
-737 -40 0
-737 -46 0
-744 -751 0
-744 -289 0
-744 -40 0
-744 -46 0
-751 -289 0
-751 -40 0
-751 -46 0
-289 -40 0
-289 -46 0
-40 -46 0
710 738 745 752 290 41 47 0
-710 -738 0
-710 -745 0
-710 -752 0
-710 -290 0
-710 -41 0
-710 -47 0
-738 -745 0
-738 -752 0
-738 -290 0
-738 -41 0
-738 -47 0
-745 -752 0
-745 -290 0
-745 -41 0
-745 -47 0
-752 -290 0
-752 -41 0
-752 -47 0
-290 -41 0
-290 -47 0
-41 -47 0
711 739 746 753 291 42 48 0
-711 -739 0
-711 -746 0
-711 -753 0
-711 -291 0
-711 -42 0
-711 -48 0
-739 -746 0
-739 -753 0
-739 -291 0
-739 -42 0
-739 -48 0
-746 -753 0
-746 -291 0
-746 -42 0
-746 -48 0
-753 -291 0
-753 -42 0
-753 -48 0
-291 -42 0
-291 -48 0
-42 -48 0
712 740 747 754 292 0
-712 -740 0
-712 -747 0
-712 -754 0
-712 -292 0
-740 -747 0
-740 -754 0
-740 -292 0
-747 -754 0
-747 -292 0
-754 -292 0
713 734 755 762 391 73 79 0
-713 -734 0
-713 -755 0
-713 -762 0
-713 -391 0
-713 -73 0
-713 -79 0
-734 -755 0
-734 -762 0
-734 -391 0
-734 -73 0
-734 -79 0
-755 -762 0
-755 -391 0
-755 -73 0
-755 -79 0
-762 -391 0
-762 -73 0
-762 -79 0
-391 -73 0
-391 -79 0
-73 -79 0
714 735 756 763 392 74 80 0
-714 -735 0
-714 -756 0
-714 -763 0
-714 -392 0
-714 -74 0
-714 -80 0
-735 -756 0
-735 -763 0
-735 -392 0
-735 -74 0
-735 -80 0
-756 -763 0
-756 -392 0
-756 -74 0
-756 -80 0
-763 -392 0
-763 -74 0
-763 -80 0
-392 -74 0
-392 -80 0
-74 -80 0
715 736 757 764 393 75 81 0
-715 -736 0
-715 -757 0
-715 -764 0
-715 -393 0
-715 -75 0
-715 -81 0
-736 -757 0
-736 -764 0
-736 -393 0
-736 -75 0
-736 -81 0
-757 -764 0
-757 -393 0
-757 -75 0
-757 -81 0
-764 -393 0
-764 -75 0
-764 -81 0
-393 -75 0
-393 -81 0
-75 -81 0
716 737 758 765 394 76 82 0
-716 -737 0
-716 -758 0
-716 -765 0
-716 -394 0
-716 -76 0
-716 -82 0
-737 -758 0
-737 -765 0
-737 -394 0
-737 -76 0
-737 -82 0
-758 -765 0
-758 -394 0
-758 -76 0
-758 -82 0
-765 -394 0
-765 -76 0
-765 -82 0
-394 -76 0
-394 -82 0
-76 -82 0
717 738 759 766 395 77 83 0
-717 -738 0
-717 -759 0
-717 -766 0
-717 -395 0
-717 -77 0
-717 -83 0
-738 -759 0
-738 -766 0
-738 -395 0
-738 -77 0
-738 -83 0
-759 -766 0
-759 -395 0
-759 -77 0
-759 -83 0
-766 -395 0
-766 -77 0
-766 -83 0
-395 -77 0
-395 -83 0
-77 -83 0
718 739 760 767 396 78 84 0
-718 -739 0
-718 -760 0
-718 -767 0
-718 -396 0
-718 -78 0
-718 -84 0
-739 -760 0
-739 -767 0
-739 -396 0
-739 -78 0
-739 -84 0
-760 -767 0
-760 -396 0
-760 -78 0
-760 -84 0
-767 -396 0
-767 -78 0
-767 -84 0
-396 -78 0
-396 -84 0
-78 -84 0
719 740 761 768 397 0
-719 -740 0
-719 -761 0
-719 -768 0
-719 -397 0
-740 -761 0
-740 -768 0
-740 -397 0
-761 -768 0
-761 -397 0
-768 -397 0
720 741 755 769 496 109 115 0
-720 -741 0
-720 -755 0
-720 -769 0
-720 -496 0
-720 -109 0
-720 -115 0
-741 -755 0
-741 -769 0
-741 -496 0
-741 -109 0
-741 -115 0
-755 -769 0
-755 -496 0
-755 -109 0
-755 -115 0
-769 -496 0
-769 -109 0
-769 -115 0
-496 -109 0
-496 -115 0
-109 -115 0
721 742 756 770 497 110 116 0
-721 -742 0
-721 -756 0
-721 -770 0
-721 -497 0
-721 -110 0
-721 -116 0
-742 -756 0
-742 -770 0
-742 -497 0
-742 -110 0
-742 -116 0
-756 -770 0
-756 -497 0
-756 -110 0
-756 -116 0
-770 -497 0
-770 -110 0
-770 -116 0
-497 -110 0
-497 -116 0
-110 -116 0
722 743 757 771 498 111 117 0
-722 -743 0
-722 -757 0
-722 -771 0
-722 -498 0
-722 -111 0
-722 -117 0
-743 -757 0
-743 -771 0
-743 -498 0
-743 -111 0
-743 -117 0
-757 -771 0
-757 -498 0
-757 -111 0
-757 -117 0
-771 -498 0
-771 -111 0
-771 -117 0
-498 -111 0
-498 -117 0
-111 -117 0
723 744 758 772 499 112 118 0
-723 -744 0
-723 -758 0
-723 -772 0
-723 -499 0
-723 -112 0
-723 -118 0
-744 -758 0
-744 -772 0
-744 -499 0
-744 -112 0
-744 -118 0
-758 -772 0
-758 -499 0
-758 -112 0
-758 -118 0
-772 -499 0
-772 -112 0
-772 -118 0
-499 -112 0
-499 -118 0
-112 -118 0
724 745 759 773 500 113 119 0
-724 -745 0
-724 -759 0
-724 -773 0
-724 -500 0
-724 -113 0
-724 -119 0
-745 -759 0
-745 -773 0
-745 -500 0
-745 -113 0
-745 -119 0
-759 -773 0
-759 -500 0
-759 -113 0
-759 -119 0
-773 -500 0
-773 -113 0
-773 -119 0
-500 -113 0
-500 -119 0
-113 -119 0
725 746 760 774 501 114 120 0
-725 -746 0
-725 -760 0
-725 -774 0
-725 -501 0
-725 -114 0
-725 -120 0
-746 -760 0
-746 -774 0
-746 -501 0
-746 -114 0
-746 -120 0
-760 -774 0
-760 -501 0
-760 -114 0
-760 -120 0
-774 -501 0
-774 -114 0
-774 -120 0
-501 -114 0
-501 -120 0
-114 -120 0
726 747 761 775 502 0
-726 -747 0
-726 -761 0
-726 -775 0
-726 -502 0
-747 -761 0
-747 -775 0
-747 -502 0
-761 -775 0
-761 -502 0
-775 -502 0
727 748 762 769 601 145 151 0
-727 -748 0
-727 -762 0
-727 -769 0
-727 -601 0
-727 -145 0
-727 -151 0
-748 -762 0
-748 -769 0
-748 -601 0
-748 -145 0
-748 -151 0
-762 -769 0
-762 -601 0
-762 -145 0
-762 -151 0
-769 -601 0
-769 -145 0
-769 -151 0
-601 -145 0
-601 -151 0
-145 -151 0
728 749 763 770 602 146 152 0
-728 -749 0
-728 -763 0
-728 -770 0
-728 -602 0
-728 -146 0
-728 -152 0
-749 -763 0
-749 -770 0
-749 -602 0
-749 -146 0
-749 -152 0
-763 -770 0
-763 -602 0
-763 -146 0
-763 -152 0
-770 -602 0
-770 -146 0
-770 -152 0
-602 -146 0
-602 -152 0
-146 -152 0
729 750 764 771 603 147 153 0
-729 -750 0
-729 -764 0
-729 -771 0
-729 -603 0
-729 -147 0
-729 -153 0
-750 -764 0
-750 -771 0
-750 -603 0
-750 -147 0
-750 -153 0
-764 -771 0
-764 -603 0
-764 -147 0
-764 -153 0
-771 -603 0
-771 -147 0
-771 -153 0
-603 -147 0
-603 -153 0
-147 -153 0
730 751 765 772 604 148 154 0
-730 -751 0
-730 -765 0
-730 -772 0
-730 -604 0
-730 -148 0
-730 -154 0
-751 -765 0
-751 -772 0
-751 -604 0
-751 -148 0
-751 -154 0
-765 -772 0
-765 -604 0
-765 -148 0
-765 -154 0
-772 -604 0
-772 -148 0
-772 -154 0
-604 -148 0
-604 -154 0
-148 -154 0
731 752 766 773 605 149 155 0
-731 -752 0
-731 -766 0
-731 -773 0
-731 -605 0
-731 -149 0
-731 -155 0
-752 -766 0
-752 -773 0
-752 -605 0
-752 -149 0
-752 -155 0
-766 -773 0
-766 -605 0
-766 -149 0
-766 -155 0
-773 -605 0
-773 -149 0
-773 -155 0
-605 -149 0
-605 -155 0
-149 -155 0
732 753 767 774 606 150 156 0
-732 -753 0
-732 -767 0
-732 -774 0
-732 -606 0
-732 -150 0
-732 -156 0
-753 -767 0
-753 -774 0
-753 -606 0
-753 -150 0
-753 -156 0
-767 -774 0
-767 -606 0
-767 -150 0
-767 -156 0
-774 -606 0
-774 -150 0
-774 -156 0
-606 -150 0
-606 -156 0
-150 -156 0
733 754 768 775 607 0
-733 -754 0
-733 -768 0
-733 -775 0
-733 -607 0
-754 -768 0
-754 -775 0
-754 -607 0
-768 -775 0
-768 -607 0
-775 -607 0
776 783 790 797 188 1 13 0
-776 -783 0
-776 -790 0
-776 -797 0
-776 -188 0
-776 -1 0
-776 -13 0
-783 -790 0
-783 -797 0
-783 -188 0
-783 -1 0
-783 -13 0
-790 -797 0
-790 -188 0
-790 -1 0
-790 -13 0
-797 -188 0
-797 -1 0
-797 -13 0
-188 -1 0
-188 -13 0
-1 -13 0
777 784 791 798 189 2 14 0
-777 -784 0
-777 -791 0
-777 -798 0
-777 -189 0
-777 -2 0
-777 -14 0
-784 -791 0
-784 -798 0
-784 -189 0
-784 -2 0
-784 -14 0
-791 -798 0
-791 -189 0
-791 -2 0
-791 -14 0
-798 -189 0
-798 -2 0
-798 -14 0
-189 -2 0
-189 -14 0
-2 -14 0
778 785 792 799 190 3 15 0
-778 -785 0
-778 -792 0
-778 -799 0
-778 -190 0
-778 -3 0
-778 -15 0
-785 -792 0
-785 -799 0
-785 -190 0
-785 -3 0
-785 -15 0
-792 -799 0
-792 -190 0
-792 -3 0
-792 -15 0
-799 -190 0
-799 -3 0
-799 -15 0
-190 -3 0
-190 -15 0
-3 -15 0
779 786 793 800 191 4 16 0
-779 -786 0
-779 -793 0
-779 -800 0
-779 -191 0
-779 -4 0
-779 -16 0
-786 -793 0
-786 -800 0
-786 -191 0
-786 -4 0
-786 -16 0
-793 -800 0
-793 -191 0
-793 -4 0
-793 -16 0
-800 -191 0
-800 -4 0
-800 -16 0
-191 -4 0
-191 -16 0
-4 -16 0
780 787 794 801 192 5 17 0
-780 -787 0
-780 -794 0
-780 -801 0
-780 -192 0
-780 -5 0
-780 -17 0
-787 -794 0
-787 -801 0
-787 -192 0
-787 -5 0
-787 -17 0
-794 -801 0
-794 -192 0
-794 -5 0
-794 -17 0
-801 -192 0
-801 -5 0
-801 -17 0
-192 -5 0
-192 -17 0
-5 -17 0
781 788 795 802 193 6 18 0
-781 -788 0
-781 -795 0
-781 -802 0
-781 -193 0
-781 -6 0
-781 -18 0
-788 -795 0
-788 -802 0
-788 -193 0
-788 -6 0
-788 -18 0
-795 -802 0
-795 -193 0
-795 -6 0
-795 -18 0
-802 -193 0
-802 -6 0
-802 -18 0
-193 -6 0
-193 -18 0
-6 -18 0
782 789 796 803 194 0
-782 -789 0
-782 -796 0
-782 -803 0
-782 -194 0
-789 -796 0
-789 -803 0
-789 -194 0
-796 -803 0
-796 -194 0
-803 -194 0
776 804 811 818 293 37 49 0
-776 -804 0
-776 -811 0
-776 -818 0
-776 -293 0
-776 -37 0
-776 -49 0
-804 -811 0
-804 -818 0
-804 -293 0
-804 -37 0
-804 -49 0
-811 -818 0
-811 -293 0
-811 -37 0
-811 -49 0
-818 -293 0
-818 -37 0
-818 -49 0
-293 -37 0
-293 -49 0
-37 -49 0
777 805 812 819 294 38 50 0
-777 -805 0
-777 -812 0
-777 -819 0
-777 -294 0
-777 -38 0
-777 -50 0
-805 -812 0
-805 -819 0
-805 -294 0
-805 -38 0
-805 -50 0
-812 -819 0
-812 -294 0
-812 -38 0
-812 -50 0
-819 -294 0
-819 -38 0
-819 -50 0
-294 -38 0
-294 -50 0
-38 -50 0
778 806 813 820 295 39 51 0
-778 -806 0
-778 -813 0
-778 -820 0
-778 -295 0
-778 -39 0
-778 -51 0
-806 -813 0
-806 -820 0
-806 -295 0
-806 -39 0
-806 -51 0
-813 -820 0
-813 -295 0
-813 -39 0
-813 -51 0
-820 -295 0
-820 -39 0
-820 -51 0
-295 -39 0
-295 -51 0
-39 -51 0
779 807 814 821 296 40 52 0
-779 -807 0
-779 -814 0
-779 -821 0
-779 -296 0
-779 -40 0
-779 -52 0
-807 -814 0
-807 -821 0
-807 -296 0
-807 -40 0
-807 -52 0
-814 -821 0
-814 -296 0
-814 -40 0
-814 -52 0
-821 -296 0
-821 -40 0
-821 -52 0
-296 -40 0
-296 -52 0
-40 -52 0
780 808 815 822 297 41 53 0
-780 -808 0
-780 -815 0
-780 -822 0
-780 -297 0
-780 -41 0
-780 -53 0
-808 -815 0
-808 -822 0
-808 -297 0
-808 -41 0
-808 -53 0
-815 -822 0
-815 -297 0
-815 -41 0
-815 -53 0
-822 -297 0
-822 -41 0
-822 -53 0
-297 -41 0
-297 -53 0
-41 -53 0
781 809 816 823 298 42 54 0
-781 -809 0
-781 -816 0
-781 -823 0
-781 -298 0
-781 -42 0
-781 -54 0
-809 -816 0
-809 -823 0
-809 -298 0
-809 -42 0
-809 -54 0
-816 -823 0
-816 -298 0
-816 -42 0
-816 -54 0
-823 -298 0
-823 -42 0
-823 -54 0
-298 -42 0
-298 -54 0
-42 -54 0
782 810 817 824 299 0
-782 -810 0
-782 -817 0
-782 -824 0
-782 -299 0
-810 -817 0
-810 -824 0
-810 -299 0
-817 -824 0
-817 -299 0
-824 -299 0
783 804 825 832 398 73 85 0
-783 -804 0
-783 -825 0
-783 -832 0
-783 -398 0
-783 -73 0
-783 -85 0
-804 -825 0
-804 -832 0
-804 -398 0
-804 -73 0
-804 -85 0
-825 -832 0
-825 -398 0
-825 -73 0
-825 -85 0
-832 -398 0
-832 -73 0
-832 -85 0
-398 -73 0
-398 -85 0
-73 -85 0
784 805 826 833 399 74 86 0
-784 -805 0
-784 -826 0
-784 -833 0
-784 -399 0
-784 -74 0
-784 -86 0
-805 -826 0
-805 -833 0
-805 -399 0
-805 -74 0
-805 -86 0
-826 -833 0
-826 -399 0
-826 -74 0
-826 -86 0
-833 -399 0
-833 -74 0
-833 -86 0
-399 -74 0
-399 -86 0
-74 -86 0
785 806 827 834 400 75 87 0
-785 -806 0
-785 -827 0
-785 -834 0
-785 -400 0
-785 -75 0
-785 -87 0
-806 -827 0
-806 -834 0
-806 -400 0
-806 -75 0
-806 -87 0
-827 -834 0
-827 -400 0
-827 -75 0
-827 -87 0
-834 -400 0
-834 -75 0
-834 -87 0
-400 -75 0
-400 -87 0
-75 -87 0
786 807 828 835 401 76 88 0
-786 -807 0
-786 -828 0
-786 -835 0
-786 -401 0
-786 -76 0
-786 -88 0
-807 -828 0
-807 -835 0
-807 -401 0
-807 -76 0
-807 -88 0
-828 -835 0
-828 -401 0
-828 -76 0
-828 -88 0
-835 -401 0
-835 -76 0
-835 -88 0
-401 -76 0
-401 -88 0
-76 -88 0
787 808 829 836 402 77 89 0
-787 -808 0
-787 -829 0
-787 -836 0
-787 -402 0
-787 -77 0
-787 -89 0
-808 -829 0
-808 -836 0
-808 -402 0
-808 -77 0
-808 -89 0
-829 -836 0
-829 -402 0
-829 -77 0
-829 -89 0
-836 -402 0
-836 -77 0
-836 -89 0
-402 -77 0
-402 -89 0
-77 -89 0
788 809 830 837 403 78 90 0
-788 -809 0
-788 -830 0
-788 -837 0
-788 -403 0
-788 -78 0
-788 -90 0
-809 -830 0
-809 -837 0
-809 -403 0
-809 -78 0
-809 -90 0
-830 -837 0
-830 -403 0
-830 -78 0
-830 -90 0
-837 -403 0
-837 -78 0
-837 -90 0
-403 -78 0
-403 -90 0
-78 -90 0
789 810 831 838 404 0
-789 -810 0
-789 -831 0
-789 -838 0
-789 -404 0
-810 -831 0
-810 -838 0
-810 -404 0
-831 -838 0
-831 -404 0
-838 -404 0
790 811 825 839 503 109 121 0
-790 -811 0
-790 -825 0
-790 -839 0
-790 -503 0
-790 -109 0
-790 -121 0
-811 -825 0
-811 -839 0
-811 -503 0
-811 -109 0
-811 -121 0
-825 -839 0
-825 -503 0
-825 -109 0
-825 -121 0
-839 -503 0
-839 -109 0
-839 -121 0
-503 -109 0
-503 -121 0
-109 -121 0
791 812 826 840 504 110 122 0
-791 -812 0
-791 -826 0
-791 -840 0
-791 -504 0
-791 -110 0
-791 -122 0
-812 -826 0
-812 -840 0
-812 -504 0
-812 -110 0
-812 -122 0
-826 -840 0
-826 -504 0
-826 -110 0
-826 -122 0
-840 -504 0
-840 -110 0
-840 -122 0
-504 -110 0
-504 -122 0
-110 -122 0
792 813 827 841 505 111 123 0
-792 -813 0
-792 -827 0
-792 -841 0
-792 -505 0
-792 -111 0
-792 -123 0
-813 -827 0
-813 -841 0
-813 -505 0
-813 -111 0
-813 -123 0
-827 -841 0
-827 -505 0
-827 -111 0
-827 -123 0
-841 -505 0
-841 -111 0
-841 -123 0
-505 -111 0
-505 -123 0
-111 -123 0
793 814 828 842 506 112 124 0
-793 -814 0
-793 -828 0
-793 -842 0
-793 -506 0
-793 -112 0
-793 -124 0
-814 -828 0
-814 -842 0
-814 -506 0
-814 -112 0
-814 -124 0
-828 -842 0
-828 -506 0
-828 -112 0
-828 -124 0
-842 -506 0
-842 -112 0
-842 -124 0
-506 -112 0
-506 -124 0
-112 -124 0
794 815 829 843 507 113 125 0
-794 -815 0
-794 -829 0
-794 -843 0
-794 -507 0
-794 -113 0
-794 -125 0
-815 -829 0
-815 -843 0
-815 -507 0
-815 -113 0
-815 -125 0
-829 -843 0
-829 -507 0
-829 -113 0
-829 -125 0
-843 -507 0
-843 -113 0
-843 -125 0
-507 -113 0
-507 -125 0
-113 -125 0
795 816 830 844 508 114 126 0
-795 -816 0
-795 -830 0
-795 -844 0
-795 -508 0
-795 -114 0
-795 -126 0
-816 -830 0
-816 -844 0
-816 -508 0
-816 -114 0
-816 -126 0
-830 -844 0
-830 -508 0
-830 -114 0
-830 -126 0
-844 -508 0
-844 -114 0
-844 -126 0
-508 -114 0
-508 -126 0
-114 -126 0
796 817 831 845 509 0
-796 -817 0
-796 -831 0
-796 -845 0
-796 -509 0
-817 -831 0
-817 -845 0
-817 -509 0
-831 -845 0
-831 -509 0
-845 -509 0
797 818 832 839 608 145 157 0
-797 -818 0
-797 -832 0
-797 -839 0
-797 -608 0
-797 -145 0
-797 -157 0
-818 -832 0
-818 -839 0
-818 -608 0
-818 -145 0
-818 -157 0
-832 -839 0
-832 -608 0
-832 -145 0
-832 -157 0
-839 -608 0
-839 -145 0
-839 -157 0
-608 -145 0
-608 -157 0
-145 -157 0
798 819 833 840 609 146 158 0
-798 -819 0
-798 -833 0
-798 -840 0
-798 -609 0
-798 -146 0
-798 -158 0
-819 -833 0
-819 -840 0
-819 -609 0
-819 -146 0
-819 -158 0
-833 -840 0
-833 -609 0
-833 -146 0
-833 -158 0
-840 -609 0
-840 -146 0
-840 -158 0
-609 -146 0
-609 -158 0
-146 -158 0
799 820 834 841 610 147 159 0
-799 -820 0
-799 -834 0
-799 -841 0
-799 -610 0
-799 -147 0
-799 -159 0
-820 -834 0
-820 -841 0
-820 -610 0
-820 -147 0
-820 -159 0
-834 -841 0
-834 -610 0
-834 -147 0
-834 -159 0
-841 -610 0
-841 -147 0
-841 -159 0
-610 -147 0
-610 -159 0
-147 -159 0
800 821 835 842 611 148 160 0
-800 -821 0
-800 -835 0
-800 -842 0
-800 -611 0
-800 -148 0
-800 -160 0
-821 -835 0
-821 -842 0
-821 -611 0
-821 -148 0
-821 -160 0
-835 -842 0
-835 -611 0
-835 -148 0
-835 -160 0
-842 -611 0
-842 -148 0
-842 -160 0
-611 -148 0
-611 -160 0
-148 -160 0
801 822 836 843 612 149 161 0
-801 -822 0
-801 -836 0
-801 -843 0
-801 -612 0
-801 -149 0
-801 -161 0
-822 -836 0
-822 -843 0
-822 -612 0
-822 -149 0
-822 -161 0
-836 -843 0
-836 -612 0
-836 -149 0
-836 -161 0
-843 -612 0
-843 -149 0
-843 -161 0
-612 -149 0
-612 -161 0
-149 -161 0
802 823 837 844 613 150 162 0
-802 -823 0
-802 -837 0
-802 -844 0
-802 -613 0
-802 -150 0
-802 -162 0
-823 -837 0
-823 -844 0
-823 -613 0
-823 -150 0
-823 -162 0
-837 -844 0
-837 -613 0
-837 -150 0
-837 -162 0
-844 -613 0
-844 -150 0
-844 -162 0
-613 -150 0
-613 -162 0
-150 -162 0
803 824 838 845 614 0
-803 -824 0
-803 -838 0
-803 -845 0
-803 -614 0
-824 -838 0
-824 -845 0
-824 -614 0
-838 -845 0
-838 -614 0
-845 -614 0
846 853 860 867 195 1 19 0
-846 -853 0
-846 -860 0
-846 -867 0
-846 -195 0
-846 -1 0
-846 -19 0
-853 -860 0
-853 -867 0
-853 -195 0
-853 -1 0
-853 -19 0
-860 -867 0
-860 -195 0
-860 -1 0
-860 -19 0
-867 -195 0
-867 -1 0
-867 -19 0
-195 -1 0
-195 -19 0
-1 -19 0
847 854 861 868 196 2 20 0
-847 -854 0
-847 -861 0
-847 -868 0
-847 -196 0
-847 -2 0
-847 -20 0
-854 -861 0
-854 -868 0
-854 -196 0
-854 -2 0
-854 -20 0
-861 -868 0
-861 -196 0
-861 -2 0
-861 -20 0
-868 -196 0
-868 -2 0
-868 -20 0
-196 -2 0
-196 -20 0
-2 -20 0
848 855 862 869 197 3 21 0
-848 -855 0
-848 -862 0
-848 -869 0
-848 -197 0
-848 -3 0
-848 -21 0
-855 -862 0
-855 -869 0
-855 -197 0
-855 -3 0
-855 -21 0
-862 -869 0
-862 -197 0
-862 -3 0
-862 -21 0
-869 -197 0
-869 -3 0
-869 -21 0
-197 -3 0
-197 -21 0
-3 -21 0
849 856 863 870 198 4 22 0
-849 -856 0
-849 -863 0
-849 -870 0
-849 -198 0
-849 -4 0
-849 -22 0
-856 -863 0
-856 -870 0
-856 -198 0
-856 -4 0
-856 -22 0
-863 -870 0
-863 -198 0
-863 -4 0
-863 -22 0
-870 -198 0
-870 -4 0
-870 -22 0
-198 -4 0
-198 -22 0
-4 -22 0
850 857 864 871 199 5 23 0
-850 -857 0
-850 -864 0
-850 -871 0
-850 -199 0
-850 -5 0
-850 -23 0
-857 -864 0
-857 -871 0
-857 -199 0
-857 -5 0
-857 -23 0
-864 -871 0
-864 -199 0
-864 -5 0
-864 -23 0
-871 -199 0
-871 -5 0
-871 -23 0
-199 -5 0
-199 -23 0
-5 -23 0
851 858 865 872 200 6 24 0
-851 -858 0
-851 -865 0
-851 -872 0
-851 -200 0
-851 -6 0
-851 -24 0
-858 -865 0
-858 -872 0
-858 -200 0
-858 -6 0
-858 -24 0
-865 -872 0
-865 -200 0
-865 -6 0
-865 -24 0
-872 -200 0
-872 -6 0
-872 -24 0
-200 -6 0
-200 -24 0
-6 -24 0
852 859 866 873 201 0
-852 -859 0
-852 -866 0
-852 -873 0
-852 -201 0
-859 -866 0
-859 -873 0
-859 -201 0
-866 -873 0
-866 -201 0
-873 -201 0
846 874 881 888 300 37 55 0
-846 -874 0
-846 -881 0
-846 -888 0
-846 -300 0
-846 -37 0
-846 -55 0
-874 -881 0
-874 -888 0
-874 -300 0
-874 -37 0
-874 -55 0
-881 -888 0
-881 -300 0
-881 -37 0
-881 -55 0
-888 -300 0
-888 -37 0
-888 -55 0
-300 -37 0
-300 -55 0
-37 -55 0
847 875 882 889 301 38 56 0
-847 -875 0
-847 -882 0
-847 -889 0
-847 -301 0
-847 -38 0
-847 -56 0
-875 -882 0
-875 -889 0
-875 -301 0
-875 -38 0
-875 -56 0
-882 -889 0
-882 -301 0
-882 -38 0
-882 -56 0
-889 -301 0
-889 -38 0
-889 -56 0
-301 -38 0
-301 -56 0
-38 -56 0
848 876 883 890 302 39 57 0
-848 -876 0
-848 -883 0
-848 -890 0
-848 -302 0
-848 -39 0
-848 -57 0
-876 -883 0
-876 -890 0
-876 -302 0
-876 -39 0
-876 -57 0
-883 -890 0
-883 -302 0
-883 -39 0
-883 -57 0
-890 -302 0
-890 -39 0
-890 -57 0
-302 -39 0
-302 -57 0
-39 -57 0
849 877 884 891 303 40 58 0
-849 -877 0
-849 -884 0
-849 -891 0
-849 -303 0
-849 -40 0
-849 -58 0
-877 -884 0
-877 -891 0
-877 -303 0
-877 -40 0
-877 -58 0
-884 -891 0
-884 -303 0
-884 -40 0
-884 -58 0
-891 -303 0
-891 -40 0
-891 -58 0
-303 -40 0
-303 -58 0
-40 -58 0
850 878 885 892 304 41 59 0
-850 -878 0
-850 -885 0
-850 -892 0
-850 -304 0
-850 -41 0
-850 -59 0
-878 -885 0
-878 -892 0
-878 -304 0
-878 -41 0
-878 -59 0
-885 -892 0
-885 -304 0
-885 -41 0
-885 -59 0
-892 -304 0
-892 -41 0
-892 -59 0
-304 -41 0
-304 -59 0
-41 -59 0
851 879 886 893 305 42 60 0
-851 -879 0
-851 -886 0
-851 -893 0
-851 -305 0
-851 -42 0
-851 -60 0
-879 -886 0
-879 -893 0
-879 -305 0
-879 -42 0
-879 -60 0
-886 -893 0
-886 -305 0
-886 -42 0
-886 -60 0
-893 -305 0
-893 -42 0
-893 -60 0
-305 -42 0
-305 -60 0
-42 -60 0
852 880 887 894 306 0
-852 -880 0
-852 -887 0
-852 -894 0
-852 -306 0
-880 -887 0
-880 -894 0
-880 -306 0
-887 -894 0
-887 -306 0
-894 -306 0
853 874 895 902 405 73 91 0
-853 -874 0
-853 -895 0
-853 -902 0
-853 -405 0
-853 -73 0
-853 -91 0
-874 -895 0
-874 -902 0
-874 -405 0
-874 -73 0
-874 -91 0
-895 -902 0
-895 -405 0
-895 -73 0
-895 -91 0
-902 -405 0
-902 -73 0
-902 -91 0
-405 -73 0
-405 -91 0
-73 -91 0
854 875 896 903 406 74 92 0
-854 -875 0
-854 -896 0
-854 -903 0
-854 -406 0
-854 -74 0
-854 -92 0
-875 -896 0
-875 -903 0
-875 -406 0
-875 -74 0
-875 -92 0
-896 -903 0
-896 -406 0
-896 -74 0
-896 -92 0
-903 -406 0
-903 -74 0
-903 -92 0
-406 -74 0
-406 -92 0
-74 -92 0
855 876 897 904 407 75 93 0
-855 -876 0
-855 -897 0
-855 -904 0
-855 -407 0
-855 -75 0
-855 -93 0
-876 -897 0
-876 -904 0
-876 -407 0
-876 -75 0
-876 -93 0
-897 -904 0
-897 -407 0
-897 -75 0
-897 -93 0
-904 -407 0
-904 -75 0
-904 -93 0
-407 -75 0
-407 -93 0
-75 -93 0
856 877 898 905 408 76 94 0
-856 -877 0
-856 -898 0
-856 -905 0
-856 -408 0
-856 -76 0
-856 -94 0
-877 -898 0
-877 -905 0
-877 -408 0
-877 -76 0
-877 -94 0
-898 -905 0
-898 -408 0
-898 -76 0
-898 -94 0
-905 -408 0
-905 -76 0
-905 -94 0
-408 -76 0
-408 -94 0
-76 -94 0
857 878 899 906 409 77 95 0
-857 -878 0
-857 -899 0
-857 -906 0
-857 -409 0
-857 -77 0
-857 -95 0
-878 -899 0
-878 -906 0
-878 -409 0
-878 -77 0
-878 -95 0
-899 -906 0
-899 -409 0
-899 -77 0
-899 -95 0
-906 -409 0
-906 -77 0
-906 -95 0
-409 -77 0
-409 -95 0
-77 -95 0
858 879 900 907 410 78 96 0
-858 -879 0
-858 -900 0
-858 -907 0
-858 -410 0
-858 -78 0
-858 -96 0
-879 -900 0
-879 -907 0
-879 -410 0
-879 -78 0
-879 -96 0
-900 -907 0
-900 -410 0
-900 -78 0
-900 -96 0
-907 -410 0
-907 -78 0
-907 -96 0
-410 -78 0
-410 -96 0
-78 -96 0
859 880 901 908 411 0
-859 -880 0
-859 -901 0
-859 -908 0
-859 -411 0
-880 -901 0
-880 -908 0
-880 -411 0
-901 -908 0
-901 -411 0
-908 -411 0
860 881 895 909 510 109 127 0
-860 -881 0
-860 -895 0
-860 -909 0
-860 -510 0
-860 -109 0
-860 -127 0
-881 -895 0
-881 -909 0
-881 -510 0
-881 -109 0
-881 -127 0
-895 -909 0
-895 -510 0
-895 -109 0
-895 -127 0
-909 -510 0
-909 -109 0
-909 -127 0
-510 -109 0
-510 -127 0
-109 -127 0
861 882 896 910 511 110 128 0
-861 -882 0
-861 -896 0
-861 -910 0
-861 -511 0
-861 -110 0
-861 -128 0
-882 -896 0
-882 -910 0
-882 -511 0
-882 -110 0
-882 -128 0
-896 -910 0
-896 -511 0
-896 -110 0
-896 -128 0
-910 -511 0
-910 -110 0
-910 -128 0
-511 -110 0
-511 -128 0
-110 -128 0
862 883 897 911 512 111 129 0
-862 -883 0
-862 -897 0
-862 -911 0
-862 -512 0
-862 -111 0
-862 -129 0
-883 -897 0
-883 -911 0
-883 -512 0
-883 -111 0
-883 -129 0
-897 -911 0
-897 -512 0
-897 -111 0
-897 -129 0
-911 -512 0
-911 -111 0
-911 -129 0
-512 -111 0
-512 -129 0
-111 -129 0
863 884 898 912 513 112 130 0
-863 -884 0
-863 -898 0
-863 -912 0
-863 -513 0
-863 -112 0
-863 -130 0
-884 -898 0
-884 -912 0
-884 -513 0
-884 -112 0
-884 -130 0
-898 -912 0
-898 -513 0
-898 -112 0
-898 -130 0
-912 -513 0
-912 -112 0
-912 -130 0
-513 -112 0
-513 -130 0
-112 -130 0
864 885 899 913 514 113 131 0
-864 -885 0
-864 -899 0
-864 -913 0
-864 -514 0
-864 -113 0
-864 -131 0
-885 -899 0
-885 -913 0
-885 -514 0
-885 -113 0
-885 -131 0
-899 -913 0
-899 -514 0
-899 -113 0
-899 -131 0
-913 -514 0
-913 -113 0
-913 -131 0
-514 -113 0
-514 -131 0
-113 -131 0
865 886 900 914 515 114 132 0
-865 -886 0
-865 -900 0
-865 -914 0
-865 -515 0
-865 -114 0
-865 -132 0
-886 -900 0
-886 -914 0
-886 -515 0
-886 -114 0
-886 -132 0
-900 -914 0
-900 -515 0
-900 -114 0
-900 -132 0
-914 -515 0
-914 -114 0
-914 -132 0
-515 -114 0
-515 -132 0
-114 -132 0
866 887 901 915 516 0
-866 -887 0
-866 -901 0
-866 -915 0
-866 -516 0
-887 -901 0
-887 -915 0
-887 -516 0
-901 -915 0
-901 -516 0
-915 -516 0
867 888 902 909 615 145 163 0
-867 -888 0
-867 -902 0
-867 -909 0
-867 -615 0
-867 -145 0
-867 -163 0
-888 -902 0
-888 -909 0
-888 -615 0
-888 -145 0
-888 -163 0
-902 -909 0
-902 -615 0
-902 -145 0
-902 -163 0
-909 -615 0
-909 -145 0
-909 -163 0
-615 -145 0
-615 -163 0
-145 -163 0
868 889 903 910 616 146 164 0
-868 -889 0
-868 -903 0
-868 -910 0
-868 -616 0
-868 -146 0
-868 -164 0
-889 -903 0
-889 -910 0
-889 -616 0
-889 -146 0
-889 -164 0
-903 -910 0
-903 -616 0
-903 -146 0
-903 -164 0
-910 -616 0
-910 -146 0
-910 -164 0
-616 -146 0
-616 -164 0
-146 -164 0
869 890 904 911 617 147 165 0
-869 -890 0
-869 -904 0
-869 -911 0
-869 -617 0
-869 -147 0
-869 -165 0
-890 -904 0
-890 -911 0
-890 -617 0
-890 -147 0
-890 -165 0
-904 -911 0
-904 -617 0
-904 -147 0
-904 -165 0
-911 -617 0
-911 -147 0
-911 -165 0
-617 -147 0
-617 -165 0
-147 -165 0
870 891 905 912 618 148 166 0
-870 -891 0
-870 -905 0
-870 -912 0
-870 -618 0
-870 -148 0
-870 -166 0
-891 -905 0
-891 -912 0
-891 -618 0
-891 -148 0
-891 -166 0
-905 -912 0
-905 -618 0
-905 -148 0
-905 -166 0
-912 -618 0
-912 -148 0
-912 -166 0
-618 -148 0
-618 -166 0
-148 -166 0
871 892 906 913 619 149 167 0
-871 -892 0
-871 -906 0
-871 -913 0
-871 -619 0
-871 -149 0
-871 -167 0
-892 -906 0
-892 -913 0
-892 -619 0
-892 -149 0
-892 -167 0
-906 -913 0
-906 -619 0
-906 -149 0
-906 -167 0
-913 -619 0
-913 -149 0
-913 -167 0
-619 -149 0
-619 -167 0
-149 -167 0
872 893 907 914 620 150 168 0
-872 -893 0
-872 -907 0
-872 -914 0
-872 -620 0
-872 -150 0
-872 -168 0
-893 -907 0
-893 -914 0
-893 -620 0
-893 -150 0
-893 -168 0
-907 -914 0
-907 -620 0
-907 -150 0
-907 -168 0
-914 -620 0
-914 -150 0
-914 -168 0
-620 -150 0
-620 -168 0
-150 -168 0
873 894 908 915 621 0
-873 -894 0
-873 -908 0
-873 -915 0
-873 -621 0
-894 -908 0
-894 -915 0
-894 -621 0
-908 -915 0
-908 -621 0
-915 -621 0
916 923 930 937 202 1 25 0
-916 -923 0
-916 -930 0
-916 -937 0
-916 -202 0
-916 -1 0
-916 -25 0
-923 -930 0
-923 -937 0
-923 -202 0
-923 -1 0
-923 -25 0
-930 -937 0
-930 -202 0
-930 -1 0
-930 -25 0
-937 -202 0
-937 -1 0
-937 -25 0
-202 -1 0
-202 -25 0
-1 -25 0
917 924 931 938 203 2 26 0
-917 -924 0
-917 -931 0
-917 -938 0
-917 -203 0
-917 -2 0
-917 -26 0
-924 -931 0
-924 -938 0
-924 -203 0
-924 -2 0
-924 -26 0
-931 -938 0
-931 -203 0
-931 -2 0
-931 -26 0
-938 -203 0
-938 -2 0
-938 -26 0
-203 -2 0
-203 -26 0
-2 -26 0
918 925 932 939 204 3 27 0
-918 -925 0
-918 -932 0
-918 -939 0
-918 -204 0
-918 -3 0
-918 -27 0
-925 -932 0
-925 -939 0
-925 -204 0
-925 -3 0
-925 -27 0
-932 -939 0
-932 -204 0
-932 -3 0
-932 -27 0
-939 -204 0
-939 -3 0
-939 -27 0
-204 -3 0
-204 -27 0
-3 -27 0
919 926 933 940 205 4 28 0
-919 -926 0
-919 -933 0
-919 -940 0
-919 -205 0
-919 -4 0
-919 -28 0
-926 -933 0
-926 -940 0
-926 -205 0
-926 -4 0
-926 -28 0
-933 -940 0
-933 -205 0
-933 -4 0
-933 -28 0
-940 -205 0
-940 -4 0
-940 -28 0
-205 -4 0
-205 -28 0
-4 -28 0
920 927 934 941 206 5 29 0
-920 -927 0
-920 -934 0
-920 -941 0
-920 -206 0
-920 -5 0
-920 -29 0
-927 -934 0
-927 -941 0
-927 -206 0
-927 -5 0
-927 -29 0
-934 -941 0
-934 -206 0
-934 -5 0
-934 -29 0
-941 -206 0
-941 -5 0
-941 -29 0
-206 -5 0
-206 -29 0
-5 -29 0
921 928 935 942 207 6 30 0
-921 -928 0
-921 -935 0
-921 -942 0
-921 -207 0
-921 -6 0
-921 -30 0
-928 -935 0
-928 -942 0
-928 -207 0
-928 -6 0
-928 -30 0
-935 -942 0
-935 -207 0
-935 -6 0
-935 -30 0
-942 -207 0
-942 -6 0
-942 -30 0
-207 -6 0
-207 -30 0
-6 -30 0
922 929 936 943 208 0
-922 -929 0
-922 -936 0
-922 -943 0
-922 -208 0
-929 -936 0
-929 -943 0
-929 -208 0
-936 -943 0
-936 -208 0
-943 -208 0
916 944 951 958 307 37 61 0
-916 -944 0
-916 -951 0
-916 -958 0
-916 -307 0
-916 -37 0
-916 -61 0
-944 -951 0
-944 -958 0
-944 -307 0
-944 -37 0
-944 -61 0
-951 -958 0
-951 -307 0
-951 -37 0
-951 -61 0
-958 -307 0
-958 -37 0
-958 -61 0
-307 -37 0
-307 -61 0
-37 -61 0
917 945 952 959 308 38 62 0
-917 -945 0
-917 -952 0
-917 -959 0
-917 -308 0
-917 -38 0
-917 -62 0
-945 -952 0
-945 -959 0
-945 -308 0
-945 -38 0
-945 -62 0
-952 -959 0
-952 -308 0
-952 -38 0
-952 -62 0
-959 -308 0
-959 -38 0
-959 -62 0
-308 -38 0
-308 -62 0
-38 -62 0
918 946 953 960 309 39 63 0
-918 -946 0
-918 -953 0
-918 -960 0
-918 -309 0
-918 -39 0
-918 -63 0
-946 -953 0
-946 -960 0
-946 -309 0
-946 -39 0
-946 -63 0
-953 -960 0
-953 -309 0
-953 -39 0
-953 -63 0
-960 -309 0
-960 -39 0
-960 -63 0
-309 -39 0
-309 -63 0
-39 -63 0
919 947 954 961 310 40 64 0
-919 -947 0
-919 -954 0
-919 -961 0
-919 -310 0
-919 -40 0
-919 -64 0
-947 -954 0
-947 -961 0
-947 -310 0
-947 -40 0
-947 -64 0
-954 -961 0
-954 -310 0
-954 -40 0
-954 -64 0
-961 -310 0
-961 -40 0
-961 -64 0
-310 -40 0
-310 -64 0
-40 -64 0
920 948 955 962 311 41 65 0
-920 -948 0
-920 -955 0
-920 -962 0
-920 -311 0
-920 -41 0
-920 -65 0
-948 -955 0
-948 -962 0
-948 -311 0
-948 -41 0
-948 -65 0
-955 -962 0
-955 -311 0
-955 -41 0
-955 -65 0
-962 -311 0
-962 -41 0
-962 -65 0
-311 -41 0
-311 -65 0
-41 -65 0
921 949 956 963 312 42 66 0
-921 -949 0
-921 -956 0
-921 -963 0
-921 -312 0
-921 -42 0
-921 -66 0
-949 -956 0
-949 -963 0
-949 -312 0
-949 -42 0
-949 -66 0
-956 -963 0
-956 -312 0
-956 -42 0
-956 -66 0
-963 -312 0
-963 -42 0
-963 -66 0
-312 -42 0
-312 -66 0
-42 -66 0
922 950 957 964 313 0
-922 -950 0
-922 -957 0
-922 -964 0
-922 -313 0
-950 -957 0
-950 -964 0
-950 -313 0
-957 -964 0
-957 -313 0
-964 -313 0
923 944 965 972 412 73 97 0
-923 -944 0
-923 -965 0
-923 -972 0
-923 -412 0
-923 -73 0
-923 -97 0
-944 -965 0
-944 -972 0
-944 -412 0
-944 -73 0
-944 -97 0
-965 -972 0
-965 -412 0
-965 -73 0
-965 -97 0
-972 -412 0
-972 -73 0
-972 -97 0
-412 -73 0
-412 -97 0
-73 -97 0
924 945 966 973 413 74 98 0
-924 -945 0
-924 -966 0
-924 -973 0
-924 -413 0
-924 -74 0
-924 -98 0
-945 -966 0
-945 -973 0
-945 -413 0
-945 -74 0
-945 -98 0
-966 -973 0
-966 -413 0
-966 -74 0
-966 -98 0
-973 -413 0
-973 -74 0
-973 -98 0
-413 -74 0
-413 -98 0
-74 -98 0
925 946 967 974 414 75 99 0
-925 -946 0
-925 -967 0
-925 -974 0
-925 -414 0
-925 -75 0
-925 -99 0
-946 -967 0
-946 -974 0
-946 -414 0
-946 -75 0
-946 -99 0
-967 -974 0
-967 -414 0
-967 -75 0
-967 -99 0
-974 -414 0
-974 -75 0
-974 -99 0
-414 -75 0
-414 -99 0
-75 -99 0
926 947 968 975 415 76 100 0
-926 -947 0
-926 -968 0
-926 -975 0
-926 -415 0
-926 -76 0
-926 -100 0
-947 -968 0
-947 -975 0
-947 -415 0
-947 -76 0
-947 -100 0
-968 -975 0
-968 -415 0
-968 -76 0
-968 -100 0
-975 -415 0
-975 -76 0
-975 -100 0
-415 -76 0
-415 -100 0
-76 -100 0
927 948 969 976 416 77 101 0
-927 -948 0
-927 -969 0
-927 -976 0
-927 -416 0
-927 -77 0
-927 -101 0
-948 -969 0
-948 -976 0
-948 -416 0
-948 -77 0
-948 -101 0
-969 -976 0
-969 -416 0
-969 -77 0
-969 -101 0
-976 -416 0
-976 -77 0
-976 -101 0
-416 -77 0
-416 -101 0
-77 -101 0
928 949 970 977 417 78 102 0
-928 -949 0
-928 -970 0
-928 -977 0
-928 -417 0
-928 -78 0
-928 -102 0
-949 -970 0
-949 -977 0
-949 -417 0
-949 -78 0
-949 -102 0
-970 -977 0
-970 -417 0
-970 -78 0
-970 -102 0
-977 -417 0
-977 -78 0
-977 -102 0
-417 -78 0
-417 -102 0
-78 -102 0
929 950 971 978 418 0
-929 -950 0
-929 -971 0
-929 -978 0
-929 -418 0
-950 -971 0
-950 -978 0
-950 -418 0
-971 -978 0
-971 -418 0
-978 -418 0
930 951 965 979 517 109 133 0
-930 -951 0
-930 -965 0
-930 -979 0
-930 -517 0
-930 -109 0
-930 -133 0
-951 -965 0
-951 -979 0
-951 -517 0
-951 -109 0
-951 -133 0
-965 -979 0
-965 -517 0
-965 -109 0
-965 -133 0
-979 -517 0
-979 -109 0
-979 -133 0
-517 -109 0
-517 -133 0
-109 -133 0
931 952 966 980 518 110 134 0
-931 -952 0
-931 -966 0
-931 -980 0
-931 -518 0
-931 -110 0
-931 -134 0
-952 -966 0
-952 -980 0
-952 -518 0
-952 -110 0
-952 -134 0
-966 -980 0
-966 -518 0
-966 -110 0
-966 -134 0
-980 -518 0
-980 -110 0
-980 -134 0
-518 -110 0
-518 -134 0
-110 -134 0
932 953 967 981 519 111 135 0
-932 -953 0
-932 -967 0
-932 -981 0
-932 -519 0
-932 -111 0
-932 -135 0
-953 -967 0
-953 -981 0
-953 -519 0
-953 -111 0
-953 -135 0
-967 -981 0
-967 -519 0
-967 -111 0
-967 -135 0
-981 -519 0
-981 -111 0
-981 -135 0
-519 -111 0
-519 -135 0
-111 -135 0
933 954 968 982 520 112 136 0
-933 -954 0
-933 -968 0
-933 -982 0
-933 -520 0
-933 -112 0
-933 -136 0
-954 -968 0
-954 -982 0
-954 -520 0
-954 -112 0
-954 -136 0
-968 -982 0
-968 -520 0
-968 -112 0
-968 -136 0
-982 -520 0
-982 -112 0
-982 -136 0
-520 -112 0
-520 -136 0
-112 -136 0
934 955 969 983 521 113 137 0
-934 -955 0
-934 -969 0
-934 -983 0
-934 -521 0
-934 -113 0
-934 -137 0
-955 -969 0
-955 -983 0
-955 -521 0
-955 -113 0
-955 -137 0
-969 -983 0
-969 -521 0
-969 -113 0
-969 -137 0
-983 -521 0
-983 -113 0
-983 -137 0
-521 -113 0
-521 -137 0
-113 -137 0
935 956 970 984 522 114 138 0
-935 -956 0
-935 -970 0
-935 -984 0
-935 -522 0
-935 -114 0
-935 -138 0
-956 -970 0
-956 -984 0
-956 -522 0
-956 -114 0
-956 -138 0
-970 -984 0
-970 -522 0
-970 -114 0
-970 -138 0
-984 -522 0
-984 -114 0
-984 -138 0
-522 -114 0
-522 -138 0
-114 -138 0
936 957 971 985 523 0
-936 -957 0
-936 -971 0
-936 -985 0
-936 -523 0
-957 -971 0
-957 -985 0
-957 -523 0
-971 -985 0
-971 -523 0
-985 -523 0
937 958 972 979 622 145 169 0
-937 -958 0
-937 -972 0
-937 -979 0
-937 -622 0
-937 -145 0
-937 -169 0
-958 -972 0
-958 -979 0
-958 -622 0
-958 -145 0
-958 -169 0
-972 -979 0
-972 -622 0
-972 -145 0
-972 -169 0
-979 -622 0
-979 -145 0
-979 -169 0
-622 -145 0
-622 -169 0
-145 -169 0
938 959 973 980 623 146 170 0
-938 -959 0
-938 -973 0
-938 -980 0
-938 -623 0
-938 -146 0
-938 -170 0
-959 -973 0
-959 -980 0
-959 -623 0
-959 -146 0
-959 -170 0
-973 -980 0
-973 -623 0
-973 -146 0
-973 -170 0
-980 -623 0
-980 -146 0
-980 -170 0
-623 -146 0
-623 -170 0
-146 -170 0
939 960 974 981 624 147 171 0
-939 -960 0
-939 -974 0
-939 -981 0
-939 -624 0
-939 -147 0
-939 -171 0
-960 -974 0
-960 -981 0
-960 -624 0
-960 -147 0
-960 -171 0
-974 -981 0
-974 -624 0
-974 -147 0
-974 -171 0
-981 -624 0
-981 -147 0
-981 -171 0
-624 -147 0
-624 -171 0
-147 -171 0
940 961 975 982 625 148 172 0
-940 -961 0
-940 -975 0
-940 -982 0
-940 -625 0
-940 -148 0
-940 -172 0
-961 -975 0
-961 -982 0
-961 -625 0
-961 -148 0
-961 -172 0
-975 -982 0
-975 -625 0
-975 -148 0
-975 -172 0
-982 -625 0
-982 -148 0
-982 -172 0
-625 -148 0
-625 -172 0
-148 -172 0
941 962 976 983 626 149 173 0
-941 -962 0
-941 -976 0
-941 -983 0
-941 -626 0
-941 -149 0
-941 -173 0
-962 -976 0
-962 -983 0
-962 -626 0
-962 -149 0
-962 -173 0
-976 -983 0
-976 -626 0
-976 -149 0
-976 -173 0
-983 -626 0
-983 -149 0
-983 -173 0
-626 -149 0
-626 -173 0
-149 -173 0
942 963 977 984 627 150 174 0
-942 -963 0
-942 -977 0
-942 -984 0
-942 -627 0
-942 -150 0
-942 -174 0
-963 -977 0
-963 -984 0
-963 -627 0
-963 -150 0
-963 -174 0
-977 -984 0
-977 -627 0
-977 -150 0
-977 -174 0
-984 -627 0
-984 -150 0
-984 -174 0
-627 -150 0
-627 -174 0
-150 -174 0
943 964 978 985 628 0
-943 -964 0
-943 -978 0
-943 -985 0
-943 -628 0
-964 -978 0
-964 -985 0
-964 -628 0
-978 -985 0
-978 -628 0
-985 -628 0
986 993 1000 1007 209 1 31 0
-986 -993 0
-986 -1000 0
-986 -1007 0
-986 -209 0
-986 -1 0
-986 -31 0
-993 -1000 0
-993 -1007 0
-993 -209 0
-993 -1 0
-993 -31 0
-1000 -1007 0
-1000 -209 0
-1000 -1 0
-1000 -31 0
-1007 -209 0
-1007 -1 0
-1007 -31 0
-209 -1 0
-209 -31 0
-1 -31 0
987 994 1001 1008 210 2 32 0
-987 -994 0
-987 -1001 0
-987 -1008 0
-987 -210 0
-987 -2 0
-987 -32 0
-994 -1001 0
-994 -1008 0
-994 -210 0
-994 -2 0
-994 -32 0
-1001 -1008 0
-1001 -210 0
-1001 -2 0
-1001 -32 0
-1008 -210 0
-1008 -2 0
-1008 -32 0
-210 -2 0
-210 -32 0
-2 -32 0
988 995 1002 1009 211 3 33 0
-988 -995 0
-988 -1002 0
-988 -1009 0
-988 -211 0
-988 -3 0
-988 -33 0
-995 -1002 0
-995 -1009 0
-995 -211 0
-995 -3 0
-995 -33 0
-1002 -1009 0
-1002 -211 0
-1002 -3 0
-1002 -33 0
-1009 -211 0
-1009 -3 0
-1009 -33 0
-211 -3 0
-211 -33 0
-3 -33 0
989 996 1003 1010 212 4 34 0
-989 -996 0
-989 -1003 0
-989 -1010 0
-989 -212 0
-989 -4 0
-989 -34 0
-996 -1003 0
-996 -1010 0
-996 -212 0
-996 -4 0
-996 -34 0
-1003 -1010 0
-1003 -212 0
-1003 -4 0
-1003 -34 0
-1010 -212 0
-1010 -4 0
-1010 -34 0
-212 -4 0
-212 -34 0
-4 -34 0
990 997 1004 1011 213 5 35 0
-990 -997 0
-990 -1004 0
-990 -1011 0
-990 -213 0
-990 -5 0
-990 -35 0
-997 -1004 0
-997 -1011 0
-997 -213 0
-997 -5 0
-997 -35 0
-1004 -1011 0
-1004 -213 0
-1004 -5 0
-1004 -35 0
-1011 -213 0
-1011 -5 0
-1011 -35 0
-213 -5 0
-213 -35 0
-5 -35 0
991 998 1005 1012 214 6 36 0
-991 -998 0
-991 -1005 0
-991 -1012 0
-991 -214 0
-991 -6 0
-991 -36 0
-998 -1005 0
-998 -1012 0
-998 -214 0
-998 -6 0
-998 -36 0
-1005 -1012 0
-1005 -214 0
-1005 -6 0
-1005 -36 0
-1012 -214 0
-1012 -6 0
-1012 -36 0
-214 -6 0
-214 -36 0
-6 -36 0
992 999 1006 1013 215 0
-992 -999 0
-992 -1006 0
-992 -1013 0
-992 -215 0
-999 -1006 0
-999 -1013 0
-999 -215 0
-1006 -1013 0
-1006 -215 0
-1013 -215 0
986 1014 1021 1028 314 37 67 0
-986 -1014 0
-986 -1021 0
-986 -1028 0
-986 -314 0
-986 -37 0
-986 -67 0
-1014 -1021 0
-1014 -1028 0
-1014 -314 0
-1014 -37 0
-1014 -67 0
-1021 -1028 0
-1021 -314 0
-1021 -37 0
-1021 -67 0
-1028 -314 0
-1028 -37 0
-1028 -67 0
-314 -37 0
-314 -67 0
-37 -67 0
987 1015 1022 1029 315 38 68 0
-987 -1015 0
-987 -1022 0
-987 -1029 0
-987 -315 0
-987 -38 0
-987 -68 0
-1015 -1022 0
-1015 -1029 0
-1015 -315 0
-1015 -38 0
-1015 -68 0
-1022 -1029 0
-1022 -315 0
-1022 -38 0
-1022 -68 0
-1029 -315 0
-1029 -38 0
-1029 -68 0
-315 -38 0
-315 -68 0
-38 -68 0
988 1016 1023 1030 316 39 69 0
-988 -1016 0
-988 -1023 0
-988 -1030 0
-988 -316 0
-988 -39 0
-988 -69 0
-1016 -1023 0
-1016 -1030 0
-1016 -316 0
-1016 -39 0
-1016 -69 0
-1023 -1030 0
-1023 -316 0
-1023 -39 0
-1023 -69 0
-1030 -316 0
-1030 -39 0
-1030 -69 0
-316 -39 0
-316 -69 0
-39 -69 0
989 1017 1024 1031 317 40 70 0
-989 -1017 0
-989 -1024 0
-989 -1031 0
-989 -317 0
-989 -40 0
-989 -70 0
-1017 -1024 0
-1017 -1031 0
-1017 -317 0
-1017 -40 0
-1017 -70 0
-1024 -1031 0
-1024 -317 0
-1024 -40 0
-1024 -70 0
-1031 -317 0
-1031 -40 0
-1031 -70 0
-317 -40 0
-317 -70 0
-40 -70 0
990 1018 1025 1032 318 41 71 0
-990 -1018 0
-990 -1025 0
-990 -1032 0
-990 -318 0
-990 -41 0
-990 -71 0
-1018 -1025 0
-1018 -1032 0
-1018 -318 0
-1018 -41 0
-1018 -71 0
-1025 -1032 0
-1025 -318 0
-1025 -41 0
-1025 -71 0
-1032 -318 0
-1032 -41 0
-1032 -71 0
-318 -41 0
-318 -71 0
-41 -71 0
991 1019 1026 1033 319 42 72 0
-991 -1019 0
-991 -1026 0
-991 -1033 0
-991 -319 0
-991 -42 0
-991 -72 0
-1019 -1026 0
-1019 -1033 0
-1019 -319 0
-1019 -42 0
-1019 -72 0
-1026 -1033 0
-1026 -319 0
-1026 -42 0
-1026 -72 0
-1033 -319 0
-1033 -42 0
-1033 -72 0
-319 -42 0
-319 -72 0
-42 -72 0
992 1020 1027 1034 320 0
-992 -1020 0
-992 -1027 0
-992 -1034 0
-992 -320 0
-1020 -1027 0
-1020 -1034 0
-1020 -320 0
-1027 -1034 0
-1027 -320 0
-1034 -320 0
993 1014 1035 1042 419 73 103 0
-993 -1014 0
-993 -1035 0
-993 -1042 0
-993 -419 0
-993 -73 0
-993 -103 0
-1014 -1035 0
-1014 -1042 0
-1014 -419 0
-1014 -73 0
-1014 -103 0
-1035 -1042 0
-1035 -419 0
-1035 -73 0
-1035 -103 0
-1042 -419 0
-1042 -73 0
-1042 -103 0
-419 -73 0
-419 -103 0
-73 -103 0
994 1015 1036 1043 420 74 104 0
-994 -1015 0
-994 -1036 0
-994 -1043 0
-994 -420 0
-994 -74 0
-994 -104 0
-1015 -1036 0
-1015 -1043 0
-1015 -420 0
-1015 -74 0
-1015 -104 0
-1036 -1043 0
-1036 -420 0
-1036 -74 0
-1036 -104 0
-1043 -420 0
-1043 -74 0
-1043 -104 0
-420 -74 0
-420 -104 0
-74 -104 0
995 1016 1037 1044 421 75 105 0
-995 -1016 0
-995 -1037 0
-995 -1044 0
-995 -421 0
-995 -75 0
-995 -105 0
-1016 -1037 0
-1016 -1044 0
-1016 -421 0
-1016 -75 0
-1016 -105 0
-1037 -1044 0
-1037 -421 0
-1037 -75 0
-1037 -105 0
-1044 -421 0
-1044 -75 0
-1044 -105 0
-421 -75 0
-421 -105 0
-75 -105 0
996 1017 1038 1045 422 76 106 0
-996 -1017 0
-996 -1038 0
-996 -1045 0
-996 -422 0
-996 -76 0
-996 -106 0
-1017 -1038 0
-1017 -1045 0
-1017 -422 0
-1017 -76 0
-1017 -106 0
-1038 -1045 0
-1038 -422 0
-1038 -76 0
-1038 -106 0
-1045 -422 0
-1045 -76 0
-1045 -106 0
-422 -76 0
-422 -106 0
-76 -106 0
997 1018 1039 1046 423 77 107 0
-997 -1018 0
-997 -1039 0
-997 -1046 0
-997 -423 0
-997 -77 0
-997 -107 0
-1018 -1039 0
-1018 -1046 0
-1018 -423 0
-1018 -77 0
-1018 -107 0
-1039 -1046 0
-1039 -423 0
-1039 -77 0
-1039 -107 0
-1046 -423 0
-1046 -77 0
-1046 -107 0
-423 -77 0
-423 -107 0
-77 -107 0
998 1019 1040 1047 424 78 108 0
-998 -1019 0
-998 -1040 0
-998 -1047 0
-998 -424 0
-998 -78 0
-998 -108 0
-1019 -1040 0
-1019 -1047 0
-1019 -424 0
-1019 -78 0
-1019 -108 0
-1040 -1047 0
-1040 -424 0
-1040 -78 0
-1040 -108 0
-1047 -424 0
-1047 -78 0
-1047 -108 0
-424 -78 0
-424 -108 0
-78 -108 0
999 1020 1041 1048 425 0
-999 -1020 0
-999 -1041 0
-999 -1048 0
-999 -425 0
-1020 -1041 0
-1020 -1048 0
-1020 -425 0
-1041 -1048 0
-1041 -425 0
-1048 -425 0
1000 1021 1035 1049 524 109 139 0
-1000 -1021 0
-1000 -1035 0
-1000 -1049 0
-1000 -524 0
-1000 -109 0
-1000 -139 0
-1021 -1035 0
-1021 -1049 0
-1021 -524 0
-1021 -109 0
-1021 -139 0
-1035 -1049 0
-1035 -524 0
-1035 -109 0
-1035 -139 0
-1049 -524 0
-1049 -109 0
-1049 -139 0
-524 -109 0
-524 -139 0
-109 -139 0
1001 1022 1036 1050 525 110 140 0
-1001 -1022 0
-1001 -1036 0
-1001 -1050 0
-1001 -525 0
-1001 -110 0
-1001 -140 0
-1022 -1036 0
-1022 -1050 0
-1022 -525 0
-1022 -110 0
-1022 -140 0
-1036 -1050 0
-1036 -525 0
-1036 -110 0
-1036 -140 0
-1050 -525 0
-1050 -110 0
-1050 -140 0
-525 -110 0
-525 -140 0
-110 -140 0
1002 1023 1037 1051 526 111 141 0
-1002 -1023 0
-1002 -1037 0
-1002 -1051 0
-1002 -526 0
-1002 -111 0
-1002 -141 0
-1023 -1037 0
-1023 -1051 0
-1023 -526 0
-1023 -111 0
-1023 -141 0
-1037 -1051 0
-1037 -526 0
-1037 -111 0
-1037 -141 0
-1051 -526 0
-1051 -111 0
-1051 -141 0
-526 -111 0
-526 -141 0
-111 -141 0
1003 1024 1038 1052 527 112 142 0
-1003 -1024 0
-1003 -1038 0
-1003 -1052 0
-1003 -527 0
-1003 -112 0
-1003 -142 0
-1024 -1038 0
-1024 -1052 0
-1024 -527 0
-1024 -112 0
-1024 -142 0
-1038 -1052 0
-1038 -527 0
-1038 -112 0
-1038 -142 0
-1052 -527 0
-1052 -112 0
-1052 -142 0
-527 -112 0
-527 -142 0
-112 -142 0
1004 1025 1039 1053 528 113 143 0
-1004 -1025 0
-1004 -1039 0
-1004 -1053 0
-1004 -528 0
-1004 -113 0
-1004 -143 0
-1025 -1039 0
-1025 -1053 0
-1025 -528 0
-1025 -113 0
-1025 -143 0
-1039 -1053 0
-1039 -528 0
-1039 -113 0
-1039 -143 0
-1053 -528 0
-1053 -113 0
-1053 -143 0
-528 -113 0
-528 -143 0
-113 -143 0
1005 1026 1040 1054 529 114 144 0
-1005 -1026 0
-1005 -1040 0
-1005 -1054 0
-1005 -529 0
-1005 -114 0
-1005 -144 0
-1026 -1040 0
-1026 -1054 0
-1026 -529 0
-1026 -114 0
-1026 -144 0
-1040 -1054 0
-1040 -529 0
-1040 -114 0
-1040 -144 0
-1054 -529 0
-1054 -114 0
-1054 -144 0
-529 -114 0
-529 -144 0
-114 -144 0
1006 1027 1041 1055 530 0
-1006 -1027 0
-1006 -1041 0
-1006 -1055 0
-1006 -530 0
-1027 -1041 0
-1027 -1055 0
-1027 -530 0
-1041 -1055 0
-1041 -530 0
-1055 -530 0
1007 1028 1042 1049 629 145 175 0
-1007 -1028 0
-1007 -1042 0
-1007 -1049 0
-1007 -629 0
-1007 -145 0
-1007 -175 0
-1028 -1042 0
-1028 -1049 0
-1028 -629 0
-1028 -145 0
-1028 -175 0
-1042 -1049 0
-1042 -629 0
-1042 -145 0
-1042 -175 0
-1049 -629 0
-1049 -145 0
-1049 -175 0
-629 -145 0
-629 -175 0
-145 -175 0
1008 1029 1043 1050 630 146 176 0
-1008 -1029 0
-1008 -1043 0
-1008 -1050 0
-1008 -630 0
-1008 -146 0
-1008 -176 0
-1029 -1043 0
-1029 -1050 0
-1029 -630 0
-1029 -146 0
-1029 -176 0
-1043 -1050 0
-1043 -630 0
-1043 -146 0
-1043 -176 0
-1050 -630 0
-1050 -146 0
-1050 -176 0
-630 -146 0
-630 -176 0
-146 -176 0
1009 1030 1044 1051 631 147 177 0
-1009 -1030 0
-1009 -1044 0
-1009 -1051 0
-1009 -631 0
-1009 -147 0
-1009 -177 0
-1030 -1044 0
-1030 -1051 0
-1030 -631 0
-1030 -147 0
-1030 -177 0
-1044 -1051 0
-1044 -631 0
-1044 -147 0
-1044 -177 0
-1051 -631 0
-1051 -147 0
-1051 -177 0
-631 -147 0
-631 -177 0
-147 -177 0
1010 1031 1045 1052 632 148 178 0
-1010 -1031 0
-1010 -1045 0
-1010 -1052 0
-1010 -632 0
-1010 -148 0
-1010 -178 0
-1031 -1045 0
-1031 -1052 0
-1031 -632 0
-1031 -148 0
-1031 -178 0
-1045 -1052 0
-1045 -632 0
-1045 -148 0
-1045 -178 0
-1052 -632 0
-1052 -148 0
-1052 -178 0
-632 -148 0
-632 -178 0
-148 -178 0
1011 1032 1046 1053 633 149 179 0
-1011 -1032 0
-1011 -1046 0
-1011 -1053 0
-1011 -633 0
-1011 -149 0
-1011 -179 0
-1032 -1046 0
-1032 -1053 0
-1032 -633 0
-1032 -149 0
-1032 -179 0
-1046 -1053 0
-1046 -633 0
-1046 -149 0
-1046 -179 0
-1053 -633 0
-1053 -149 0
-1053 -179 0
-633 -149 0
-633 -179 0
-149 -179 0
1012 1033 1047 1054 634 150 180 0
-1012 -1033 0
-1012 -1047 0
-1012 -1054 0
-1012 -634 0
-1012 -150 0
-1012 -180 0
-1033 -1047 0
-1033 -1054 0
-1033 -634 0
-1033 -150 0
-1033 -180 0
-1047 -1054 0
-1047 -634 0
-1047 -150 0
-1047 -180 0
-1054 -634 0
-1054 -150 0
-1054 -180 0
-634 -150 0
-634 -180 0
-150 -180 0
1013 1034 1048 1055 635 0
-1013 -1034 0
-1013 -1048 0
-1013 -1055 0
-1013 -635 0
-1034 -1048 0
-1034 -1055 0
-1034 -635 0
-1048 -1055 0
-1048 -635 0
-1055 -635 0
1056 1063 1070 1077 216 7 13 0
-1056 -1063 0
-1056 -1070 0
-1056 -1077 0
-1056 -216 0
-1056 -7 0
-1056 -13 0
-1063 -1070 0
-1063 -1077 0
-1063 -216 0
-1063 -7 0
-1063 -13 0
-1070 -1077 0
-1070 -216 0
-1070 -7 0
-1070 -13 0
-1077 -216 0
-1077 -7 0
-1077 -13 0
-216 -7 0
-216 -13 0
-7 -13 0
1057 1064 1071 1078 217 8 14 0
-1057 -1064 0
-1057 -1071 0
-1057 -1078 0
-1057 -217 0
-1057 -8 0
-1057 -14 0
-1064 -1071 0
-1064 -1078 0
-1064 -217 0
-1064 -8 0
-1064 -14 0
-1071 -1078 0
-1071 -217 0
-1071 -8 0
-1071 -14 0
-1078 -217 0
-1078 -8 0
-1078 -14 0
-217 -8 0
-217 -14 0
-8 -14 0
1058 1065 1072 1079 218 9 15 0
-1058 -1065 0
-1058 -1072 0
-1058 -1079 0
-1058 -218 0
-1058 -9 0
-1058 -15 0
-1065 -1072 0
-1065 -1079 0
-1065 -218 0
-1065 -9 0
-1065 -15 0
-1072 -1079 0
-1072 -218 0
-1072 -9 0
-1072 -15 0
-1079 -218 0
-1079 -9 0
-1079 -15 0
-218 -9 0
-218 -15 0
-9 -15 0
1059 1066 1073 1080 219 10 16 0
-1059 -1066 0
-1059 -1073 0
-1059 -1080 0
-1059 -219 0
-1059 -10 0
-1059 -16 0
-1066 -1073 0
-1066 -1080 0
-1066 -219 0
-1066 -10 0
-1066 -16 0
-1073 -1080 0
-1073 -219 0
-1073 -10 0
-1073 -16 0
-1080 -219 0
-1080 -10 0
-1080 -16 0
-219 -10 0
-219 -16 0
-10 -16 0
1060 1067 1074 1081 220 11 17 0
-1060 -1067 0
-1060 -1074 0
-1060 -1081 0
-1060 -220 0
-1060 -11 0
-1060 -17 0
-1067 -1074 0
-1067 -1081 0
-1067 -220 0
-1067 -11 0
-1067 -17 0
-1074 -1081 0
-1074 -220 0
-1074 -11 0
-1074 -17 0
-1081 -220 0
-1081 -11 0
-1081 -17 0
-220 -11 0
-220 -17 0
-11 -17 0
1061 1068 1075 1082 221 12 18 0
-1061 -1068 0
-1061 -1075 0
-1061 -1082 0
-1061 -221 0
-1061 -12 0
-1061 -18 0
-1068 -1075 0
-1068 -1082 0
-1068 -221 0
-1068 -12 0
-1068 -18 0
-1075 -1082 0
-1075 -221 0
-1075 -12 0
-1075 -18 0
-1082 -221 0
-1082 -12 0
-1082 -18 0
-221 -12 0
-221 -18 0
-12 -18 0
1062 1069 1076 1083 222 0
-1062 -1069 0
-1062 -1076 0
-1062 -1083 0
-1062 -222 0
-1069 -1076 0
-1069 -1083 0
-1069 -222 0
-1076 -1083 0
-1076 -222 0
-1083 -222 0
1056 1084 1091 1098 321 43 49 0
-1056 -1084 0
-1056 -1091 0
-1056 -1098 0
-1056 -321 0
-1056 -43 0
-1056 -49 0
-1084 -1091 0
-1084 -1098 0
-1084 -321 0
-1084 -43 0
-1084 -49 0
-1091 -1098 0
-1091 -321 0
-1091 -43 0
-1091 -49 0
-1098 -321 0
-1098 -43 0
-1098 -49 0
-321 -43 0
-321 -49 0
-43 -49 0
1057 1085 1092 1099 322 44 50 0
-1057 -1085 0
-1057 -1092 0
-1057 -1099 0
-1057 -322 0
-1057 -44 0
-1057 -50 0
-1085 -1092 0
-1085 -1099 0
-1085 -322 0
-1085 -44 0
-1085 -50 0
-1092 -1099 0
-1092 -322 0
-1092 -44 0
-1092 -50 0
-1099 -322 0
-1099 -44 0
-1099 -50 0
-322 -44 0
-322 -50 0
-44 -50 0
1058 1086 1093 1100 323 45 51 0
-1058 -1086 0
-1058 -1093 0
-1058 -1100 0
-1058 -323 0
-1058 -45 0
-1058 -51 0
-1086 -1093 0
-1086 -1100 0
-1086 -323 0
-1086 -45 0
-1086 -51 0
-1093 -1100 0
-1093 -323 0
-1093 -45 0
-1093 -51 0
-1100 -323 0
-1100 -45 0
-1100 -51 0
-323 -45 0
-323 -51 0
-45 -51 0
1059 1087 1094 1101 324 46 52 0
-1059 -1087 0
-1059 -1094 0
-1059 -1101 0
-1059 -324 0
-1059 -46 0
-1059 -52 0
-1087 -1094 0
-1087 -1101 0
-1087 -324 0
-1087 -46 0
-1087 -52 0
-1094 -1101 0
-1094 -324 0
-1094 -46 0
-1094 -52 0
-1101 -324 0
-1101 -46 0
-1101 -52 0
-324 -46 0
-324 -52 0
-46 -52 0
1060 1088 1095 1102 325 47 53 0
-1060 -1088 0
-1060 -1095 0
-1060 -1102 0
-1060 -325 0
-1060 -47 0
-1060 -53 0
-1088 -1095 0
-1088 -1102 0
-1088 -325 0
-1088 -47 0
-1088 -53 0
-1095 -1102 0
-1095 -325 0
-1095 -47 0
-1095 -53 0
-1102 -325 0
-1102 -47 0
-1102 -53 0
-325 -47 0
-325 -53 0
-47 -53 0
1061 1089 1096 1103 326 48 54 0
-1061 -1089 0
-1061 -1096 0
-1061 -1103 0
-1061 -326 0
-1061 -48 0
-1061 -54 0
-1089 -1096 0
-1089 -1103 0
-1089 -326 0
-1089 -48 0
-1089 -54 0
-1096 -1103 0
-1096 -326 0
-1096 -48 0
-1096 -54 0
-1103 -326 0
-1103 -48 0
-1103 -54 0
-326 -48 0
-326 -54 0
-48 -54 0
1062 1090 1097 1104 327 0
-1062 -1090 0
-1062 -1097 0
-1062 -1104 0
-1062 -327 0
-1090 -1097 0
-1090 -1104 0
-1090 -327 0
-1097 -1104 0
-1097 -327 0
-1104 -327 0
1063 1084 1105 1112 426 79 85 0
-1063 -1084 0
-1063 -1105 0
-1063 -1112 0
-1063 -426 0
-1063 -79 0
-1063 -85 0
-1084 -1105 0
-1084 -1112 0
-1084 -426 0
-1084 -79 0
-1084 -85 0
-1105 -1112 0
-1105 -426 0
-1105 -79 0
-1105 -85 0
-1112 -426 0
-1112 -79 0
-1112 -85 0
-426 -79 0
-426 -85 0
-79 -85 0
1064 1085 1106 1113 427 80 86 0
-1064 -1085 0
-1064 -1106 0
-1064 -1113 0
-1064 -427 0
-1064 -80 0
-1064 -86 0
-1085 -1106 0
-1085 -1113 0
-1085 -427 0
-1085 -80 0
-1085 -86 0
-1106 -1113 0
-1106 -427 0
-1106 -80 0
-1106 -86 0
-1113 -427 0
-1113 -80 0
-1113 -86 0
-427 -80 0
-427 -86 0
-80 -86 0
1065 1086 1107 1114 428 81 87 0
-1065 -1086 0
-1065 -1107 0
-1065 -1114 0
-1065 -428 0
-1065 -81 0
-1065 -87 0
-1086 -1107 0
-1086 -1114 0
-1086 -428 0
-1086 -81 0
-1086 -87 0
-1107 -1114 0
-1107 -428 0
-1107 -81 0
-1107 -87 0
-1114 -428 0
-1114 -81 0
-1114 -87 0
-428 -81 0
-428 -87 0
-81 -87 0
1066 1087 1108 1115 429 82 88 0
-1066 -1087 0
-1066 -1108 0
-1066 -1115 0
-1066 -429 0
-1066 -82 0
-1066 -88 0
-1087 -1108 0
-1087 -1115 0
-1087 -429 0
-1087 -82 0
-1087 -88 0
-1108 -1115 0
-1108 -429 0
-1108 -82 0
-1108 -88 0
-1115 -429 0
-1115 -82 0
-1115 -88 0
-429 -82 0
-429 -88 0
-82 -88 0
1067 1088 1109 1116 430 83 89 0
-1067 -1088 0
-1067 -1109 0
-1067 -1116 0
-1067 -430 0
-1067 -83 0
-1067 -89 0
-1088 -1109 0
-1088 -1116 0
-1088 -430 0
-1088 -83 0
-1088 -89 0
-1109 -1116 0
-1109 -430 0
-1109 -83 0
-1109 -89 0
-1116 -430 0
-1116 -83 0
-1116 -89 0
-430 -83 0
-430 -89 0
-83 -89 0
1068 1089 1110 1117 431 84 90 0
-1068 -1089 0
-1068 -1110 0
-1068 -1117 0
-1068 -431 0
-1068 -84 0
-1068 -90 0
-1089 -1110 0
-1089 -1117 0
-1089 -431 0
-1089 -84 0
-1089 -90 0
-1110 -1117 0
-1110 -431 0
-1110 -84 0
-1110 -90 0
-1117 -431 0
-1117 -84 0
-1117 -90 0
-431 -84 0
-431 -90 0
-84 -90 0
1069 1090 1111 1118 432 0
-1069 -1090 0
-1069 -1111 0
-1069 -1118 0
-1069 -432 0
-1090 -1111 0
-1090 -1118 0
-1090 -432 0
-1111 -1118 0
-1111 -432 0
-1118 -432 0
1070 1091 1105 1119 531 115 121 0
-1070 -1091 0
-1070 -1105 0
-1070 -1119 0
-1070 -531 0
-1070 -115 0
-1070 -121 0
-1091 -1105 0
-1091 -1119 0
-1091 -531 0
-1091 -115 0
-1091 -121 0
-1105 -1119 0
-1105 -531 0
-1105 -115 0
-1105 -121 0
-1119 -531 0
-1119 -115 0
-1119 -121 0
-531 -115 0
-531 -121 0
-115 -121 0
1071 1092 1106 1120 532 116 122 0
-1071 -1092 0
-1071 -1106 0
-1071 -1120 0
-1071 -532 0
-1071 -116 0
-1071 -122 0
-1092 -1106 0
-1092 -1120 0
-1092 -532 0
-1092 -116 0
-1092 -122 0
-1106 -1120 0
-1106 -532 0
-1106 -116 0
-1106 -122 0
-1120 -532 0
-1120 -116 0
-1120 -122 0
-532 -116 0
-532 -122 0
-116 -122 0
1072 1093 1107 1121 533 117 123 0
-1072 -1093 0
-1072 -1107 0
-1072 -1121 0
-1072 -533 0
-1072 -117 0
-1072 -123 0
-1093 -1107 0
-1093 -1121 0
-1093 -533 0
-1093 -117 0
-1093 -123 0
-1107 -1121 0
-1107 -533 0
-1107 -117 0
-1107 -123 0
-1121 -533 0
-1121 -117 0
-1121 -123 0
-533 -117 0
-533 -123 0
-117 -123 0
1073 1094 1108 1122 534 118 124 0
-1073 -1094 0
-1073 -1108 0
-1073 -1122 0
-1073 -534 0
-1073 -118 0
-1073 -124 0
-1094 -1108 0
-1094 -1122 0
-1094 -534 0
-1094 -118 0
-1094 -124 0
-1108 -1122 0
-1108 -534 0
-1108 -118 0
-1108 -124 0
-1122 -534 0
-1122 -118 0
-1122 -124 0
-534 -118 0
-534 -124 0
-118 -124 0
1074 1095 1109 1123 535 119 125 0
-1074 -1095 0
-1074 -1109 0
-1074 -1123 0
-1074 -535 0
-1074 -119 0
-1074 -125 0
-1095 -1109 0
-1095 -1123 0
-1095 -535 0
-1095 -119 0
-1095 -125 0
-1109 -1123 0
-1109 -535 0
-1109 -119 0
-1109 -125 0
-1123 -535 0
-1123 -119 0
-1123 -125 0
-535 -119 0
-535 -125 0
-119 -125 0
1075 1096 1110 1124 536 120 126 0
-1075 -1096 0
-1075 -1110 0
-1075 -1124 0
-1075 -536 0
-1075 -120 0
-1075 -126 0
-1096 -1110 0
-1096 -1124 0
-1096 -536 0
-1096 -120 0
-1096 -126 0
-1110 -1124 0
-1110 -536 0
-1110 -120 0
-1110 -126 0
-1124 -536 0
-1124 -120 0
-1124 -126 0
-536 -120 0
-536 -126 0
-120 -126 0
1076 1097 1111 1125 537 0
-1076 -1097 0
-1076 -1111 0
-1076 -1125 0
-1076 -537 0
-1097 -1111 0
-1097 -1125 0
-1097 -537 0
-1111 -1125 0
-1111 -537 0
-1125 -537 0
1077 1098 1112 1119 636 151 157 0
-1077 -1098 0
-1077 -1112 0
-1077 -1119 0
-1077 -636 0
-1077 -151 0
-1077 -157 0
-1098 -1112 0
-1098 -1119 0
-1098 -636 0
-1098 -151 0
-1098 -157 0
-1112 -1119 0
-1112 -636 0
-1112 -151 0
-1112 -157 0
-1119 -636 0
-1119 -151 0
-1119 -157 0
-636 -151 0
-636 -157 0
-151 -157 0
1078 1099 1113 1120 637 152 158 0
-1078 -1099 0
-1078 -1113 0
-1078 -1120 0
-1078 -637 0
-1078 -152 0
-1078 -158 0
-1099 -1113 0
-1099 -1120 0
-1099 -637 0
-1099 -152 0
-1099 -158 0
-1113 -1120 0
-1113 -637 0
-1113 -152 0
-1113 -158 0
-1120 -637 0
-1120 -152 0
-1120 -158 0
-637 -152 0
-637 -158 0
-152 -158 0
1079 1100 1114 1121 638 153 159 0
-1079 -1100 0
-1079 -1114 0
-1079 -1121 0
-1079 -638 0
-1079 -153 0
-1079 -159 0
-1100 -1114 0
-1100 -1121 0
-1100 -638 0
-1100 -153 0
-1100 -159 0
-1114 -1121 0
-1114 -638 0
-1114 -153 0
-1114 -159 0
-1121 -638 0
-1121 -153 0
-1121 -159 0
-638 -153 0
-638 -159 0
-153 -159 0
1080 1101 1115 1122 639 154 160 0
-1080 -1101 0
-1080 -1115 0
-1080 -1122 0
-1080 -639 0
-1080 -154 0
-1080 -160 0
-1101 -1115 0
-1101 -1122 0
-1101 -639 0
-1101 -154 0
-1101 -160 0
-1115 -1122 0
-1115 -639 0
-1115 -154 0
-1115 -160 0
-1122 -639 0
-1122 -154 0
-1122 -160 0
-639 -154 0
-639 -160 0
-154 -160 0
1081 1102 1116 1123 640 155 161 0
-1081 -1102 0
-1081 -1116 0
-1081 -1123 0
-1081 -640 0
-1081 -155 0
-1081 -161 0
-1102 -1116 0
-1102 -1123 0
-1102 -640 0
-1102 -155 0
-1102 -161 0
-1116 -1123 0
-1116 -640 0
-1116 -155 0
-1116 -161 0
-1123 -640 0
-1123 -155 0
-1123 -161 0
-640 -155 0
-640 -161 0
-155 -161 0
1082 1103 1117 1124 641 156 162 0
-1082 -1103 0
-1082 -1117 0
-1082 -1124 0
-1082 -641 0
-1082 -156 0
-1082 -162 0
-1103 -1117 0
-1103 -1124 0
-1103 -641 0
-1103 -156 0
-1103 -162 0
-1117 -1124 0
-1117 -641 0
-1117 -156 0
-1117 -162 0
-1124 -641 0
-1124 -156 0
-1124 -162 0
-641 -156 0
-641 -162 0
-156 -162 0
1083 1104 1118 1125 642 0
-1083 -1104 0
-1083 -1118 0
-1083 -1125 0
-1083 -642 0
-1104 -1118 0
-1104 -1125 0
-1104 -642 0
-1118 -1125 0
-1118 -642 0
-1125 -642 0
1126 1133 1140 1147 223 7 19 0
-1126 -1133 0
-1126 -1140 0
-1126 -1147 0
-1126 -223 0
-1126 -7 0
-1126 -19 0
-1133 -1140 0
-1133 -1147 0
-1133 -223 0
-1133 -7 0
-1133 -19 0
-1140 -1147 0
-1140 -223 0
-1140 -7 0
-1140 -19 0
-1147 -223 0
-1147 -7 0
-1147 -19 0
-223 -7 0
-223 -19 0
-7 -19 0
1127 1134 1141 1148 224 8 20 0
-1127 -1134 0
-1127 -1141 0
-1127 -1148 0
-1127 -224 0
-1127 -8 0
-1127 -20 0
-1134 -1141 0
-1134 -1148 0
-1134 -224 0
-1134 -8 0
-1134 -20 0
-1141 -1148 0
-1141 -224 0
-1141 -8 0
-1141 -20 0
-1148 -224 0
-1148 -8 0
-1148 -20 0
-224 -8 0
-224 -20 0
-8 -20 0
1128 1135 1142 1149 225 9 21 0
-1128 -1135 0
-1128 -1142 0
-1128 -1149 0
-1128 -225 0
-1128 -9 0
-1128 -21 0
-1135 -1142 0
-1135 -1149 0
-1135 -225 0
-1135 -9 0
-1135 -21 0
-1142 -1149 0
-1142 -225 0
-1142 -9 0
-1142 -21 0
-1149 -225 0
-1149 -9 0
-1149 -21 0
-225 -9 0
-225 -21 0
-9 -21 0
1129 1136 1143 1150 226 10 22 0
-1129 -1136 0
-1129 -1143 0
-1129 -1150 0
-1129 -226 0
-1129 -10 0
-1129 -22 0
-1136 -1143 0
-1136 -1150 0
-1136 -226 0
-1136 -10 0
-1136 -22 0
-1143 -1150 0
-1143 -226 0
-1143 -10 0
-1143 -22 0
-1150 -226 0
-1150 -10 0
-1150 -22 0
-226 -10 0
-226 -22 0
-10 -22 0
1130 1137 1144 1151 227 11 23 0
-1130 -1137 0
-1130 -1144 0
-1130 -1151 0
-1130 -227 0
-1130 -11 0
-1130 -23 0
-1137 -1144 0
-1137 -1151 0
-1137 -227 0
-1137 -11 0
-1137 -23 0
-1144 -1151 0
-1144 -227 0
-1144 -11 0
-1144 -23 0
-1151 -227 0
-1151 -11 0
-1151 -23 0
-227 -11 0
-227 -23 0
-11 -23 0
1131 1138 1145 1152 228 12 24 0
-1131 -1138 0
-1131 -1145 0
-1131 -1152 0
-1131 -228 0
-1131 -12 0
-1131 -24 0
-1138 -1145 0
-1138 -1152 0
-1138 -228 0
-1138 -12 0
-1138 -24 0
-1145 -1152 0
-1145 -228 0
-1145 -12 0
-1145 -24 0
-1152 -228 0
-1152 -12 0
-1152 -24 0
-228 -12 0
-228 -24 0
-12 -24 0
1132 1139 1146 1153 229 0
-1132 -1139 0
-1132 -1146 0
-1132 -1153 0
-1132 -229 0
-1139 -1146 0
-1139 -1153 0
-1139 -229 0
-1146 -1153 0
-1146 -229 0
-1153 -229 0
1126 1154 1161 1168 328 43 55 0
-1126 -1154 0
-1126 -1161 0
-1126 -1168 0
-1126 -328 0
-1126 -43 0
-1126 -55 0
-1154 -1161 0
-1154 -1168 0
-1154 -328 0
-1154 -43 0
-1154 -55 0
-1161 -1168 0
-1161 -328 0
-1161 -43 0
-1161 -55 0
-1168 -328 0
-1168 -43 0
-1168 -55 0
-328 -43 0
-328 -55 0
-43 -55 0
1127 1155 1162 1169 329 44 56 0
-1127 -1155 0
-1127 -1162 0
-1127 -1169 0
-1127 -329 0
-1127 -44 0
-1127 -56 0
-1155 -1162 0
-1155 -1169 0
-1155 -329 0
-1155 -44 0
-1155 -56 0
-1162 -1169 0
-1162 -329 0
-1162 -44 0
-1162 -56 0
-1169 -329 0
-1169 -44 0
-1169 -56 0
-329 -44 0
-329 -56 0
-44 -56 0
1128 1156 1163 1170 330 45 57 0
-1128 -1156 0
-1128 -1163 0
-1128 -1170 0
-1128 -330 0
-1128 -45 0
-1128 -57 0
-1156 -1163 0
-1156 -1170 0
-1156 -330 0
-1156 -45 0
-1156 -57 0
-1163 -1170 0
-1163 -330 0
-1163 -45 0
-1163 -57 0
-1170 -330 0
-1170 -45 0
-1170 -57 0
-330 -45 0
-330 -57 0
-45 -57 0
1129 1157 1164 1171 331 46 58 0
-1129 -1157 0
-1129 -1164 0
-1129 -1171 0
-1129 -331 0
-1129 -46 0
-1129 -58 0
-1157 -1164 0
-1157 -1171 0
-1157 -331 0
-1157 -46 0
-1157 -58 0
-1164 -1171 0
-1164 -331 0
-1164 -46 0
-1164 -58 0
-1171 -331 0
-1171 -46 0
-1171 -58 0
-331 -46 0
-331 -58 0
-46 -58 0
1130 1158 1165 1172 332 47 59 0
-1130 -1158 0
-1130 -1165 0
-1130 -1172 0
-1130 -332 0
-1130 -47 0
-1130 -59 0
-1158 -1165 0
-1158 -1172 0
-1158 -332 0
-1158 -47 0
-1158 -59 0
-1165 -1172 0
-1165 -332 0
-1165 -47 0
-1165 -59 0
-1172 -332 0
-1172 -47 0
-1172 -59 0
-332 -47 0
-332 -59 0
-47 -59 0
1131 1159 1166 1173 333 48 60 0
-1131 -1159 0
-1131 -1166 0
-1131 -1173 0
-1131 -333 0
-1131 -48 0
-1131 -60 0
-1159 -1166 0
-1159 -1173 0
-1159 -333 0
-1159 -48 0
-1159 -60 0
-1166 -1173 0
-1166 -333 0
-1166 -48 0
-1166 -60 0
-1173 -333 0
-1173 -48 0
-1173 -60 0
-333 -48 0
-333 -60 0
-48 -60 0
1132 1160 1167 1174 334 0
-1132 -1160 0
-1132 -1167 0
-1132 -1174 0
-1132 -334 0
-1160 -1167 0
-1160 -1174 0
-1160 -334 0
-1167 -1174 0
-1167 -334 0
-1174 -334 0
1133 1154 1175 1182 433 79 91 0
-1133 -1154 0
-1133 -1175 0
-1133 -1182 0
-1133 -433 0
-1133 -79 0
-1133 -91 0
-1154 -1175 0
-1154 -1182 0
-1154 -433 0
-1154 -79 0
-1154 -91 0
-1175 -1182 0
-1175 -433 0
-1175 -79 0
-1175 -91 0
-1182 -433 0
-1182 -79 0
-1182 -91 0
-433 -79 0
-433 -91 0
-79 -91 0
1134 1155 1176 1183 434 80 92 0
-1134 -1155 0
-1134 -1176 0
-1134 -1183 0
-1134 -434 0
-1134 -80 0
-1134 -92 0
-1155 -1176 0
-1155 -1183 0
-1155 -434 0
-1155 -80 0
-1155 -92 0
-1176 -1183 0
-1176 -434 0
-1176 -80 0
-1176 -92 0
-1183 -434 0
-1183 -80 0
-1183 -92 0
-434 -80 0
-434 -92 0
-80 -92 0
1135 1156 1177 1184 435 81 93 0
-1135 -1156 0
-1135 -1177 0
-1135 -1184 0
-1135 -435 0
-1135 -81 0
-1135 -93 0
-1156 -1177 0
-1156 -1184 0
-1156 -435 0
-1156 -81 0
-1156 -93 0
-1177 -1184 0
-1177 -435 0
-1177 -81 0
-1177 -93 0
-1184 -435 0
-1184 -81 0
-1184 -93 0
-435 -81 0
-435 -93 0
-81 -93 0
1136 1157 1178 1185 436 82 94 0
-1136 -1157 0
-1136 -1178 0
-1136 -1185 0
-1136 -436 0
-1136 -82 0
-1136 -94 0
-1157 -1178 0
-1157 -1185 0
-1157 -436 0
-1157 -82 0
-1157 -94 0
-1178 -1185 0
-1178 -436 0
-1178 -82 0
-1178 -94 0
-1185 -436 0
-1185 -82 0
-1185 -94 0
-436 -82 0
-436 -94 0
-82 -94 0
1137 1158 1179 1186 437 83 95 0
-1137 -1158 0
-1137 -1179 0
-1137 -1186 0
-1137 -437 0
-1137 -83 0
-1137 -95 0
-1158 -1179 0
-1158 -1186 0
-1158 -437 0
-1158 -83 0
-1158 -95 0
-1179 -1186 0
-1179 -437 0
-1179 -83 0
-1179 -95 0
-1186 -437 0
-1186 -83 0
-1186 -95 0
-437 -83 0
-437 -95 0
-83 -95 0
1138 1159 1180 1187 438 84 96 0
-1138 -1159 0
-1138 -1180 0
-1138 -1187 0
-1138 -438 0
-1138 -84 0
-1138 -96 0
-1159 -1180 0
-1159 -1187 0
-1159 -438 0
-1159 -84 0
-1159 -96 0
-1180 -1187 0
-1180 -438 0
-1180 -84 0
-1180 -96 0
-1187 -438 0
-1187 -84 0
-1187 -96 0
-438 -84 0
-438 -96 0
-84 -96 0
1139 1160 1181 1188 439 0
-1139 -1160 0
-1139 -1181 0
-1139 -1188 0
-1139 -439 0
-1160 -1181 0
-1160 -1188 0
-1160 -439 0
-1181 -1188 0
-1181 -439 0
-1188 -439 0
1140 1161 1175 1189 538 115 127 0
-1140 -1161 0
-1140 -1175 0
-1140 -1189 0
-1140 -538 0
-1140 -115 0
-1140 -127 0
-1161 -1175 0
-1161 -1189 0
-1161 -538 0
-1161 -115 0
-1161 -127 0
-1175 -1189 0
-1175 -538 0
-1175 -115 0
-1175 -127 0
-1189 -538 0
-1189 -115 0
-1189 -127 0
-538 -115 0
-538 -127 0
-115 -127 0
1141 1162 1176 1190 539 116 128 0
-1141 -1162 0
-1141 -1176 0
-1141 -1190 0
-1141 -539 0
-1141 -116 0
-1141 -128 0
-1162 -1176 0
-1162 -1190 0
-1162 -539 0
-1162 -116 0
-1162 -128 0
-1176 -1190 0
-1176 -539 0
-1176 -116 0
-1176 -128 0
-1190 -539 0
-1190 -116 0
-1190 -128 0
-539 -116 0
-539 -128 0
-116 -128 0
1142 1163 1177 1191 540 117 129 0
-1142 -1163 0
-1142 -1177 0
-1142 -1191 0
-1142 -540 0
-1142 -117 0
-1142 -129 0
-1163 -1177 0
-1163 -1191 0
-1163 -540 0
-1163 -117 0
-1163 -129 0
-1177 -1191 0
-1177 -540 0
-1177 -117 0
-1177 -129 0
-1191 -540 0
-1191 -117 0
-1191 -129 0
-540 -117 0
-540 -129 0
-117 -129 0
1143 1164 1178 1192 541 118 130 0
-1143 -1164 0
-1143 -1178 0
-1143 -1192 0
-1143 -541 0
-1143 -118 0
-1143 -130 0
-1164 -1178 0
-1164 -1192 0
-1164 -541 0
-1164 -118 0
-1164 -130 0
-1178 -1192 0
-1178 -541 0
-1178 -118 0
-1178 -130 0
-1192 -541 0
-1192 -118 0
-1192 -130 0
-541 -118 0
-541 -130 0
-118 -130 0
1144 1165 1179 1193 542 119 131 0
-1144 -1165 0
-1144 -1179 0
-1144 -1193 0
-1144 -542 0
-1144 -119 0
-1144 -131 0
-1165 -1179 0
-1165 -1193 0
-1165 -542 0
-1165 -119 0
-1165 -131 0
-1179 -1193 0
-1179 -542 0
-1179 -119 0
-1179 -131 0
-1193 -542 0
-1193 -119 0
-1193 -131 0
-542 -119 0
-542 -131 0
-119 -131 0
1145 1166 1180 1194 543 120 132 0
-1145 -1166 0
-1145 -1180 0
-1145 -1194 0
-1145 -543 0
-1145 -120 0
-1145 -132 0
-1166 -1180 0
-1166 -1194 0
-1166 -543 0
-1166 -120 0
-1166 -132 0
-1180 -1194 0
-1180 -543 0
-1180 -120 0
-1180 -132 0
-1194 -543 0
-1194 -120 0
-1194 -132 0
-543 -120 0
-543 -132 0
-120 -132 0
1146 1167 1181 1195 544 0
-1146 -1167 0
-1146 -1181 0
-1146 -1195 0
-1146 -544 0
-1167 -1181 0
-1167 -1195 0
-1167 -544 0
-1181 -1195 0
-1181 -544 0
-1195 -544 0
1147 1168 1182 1189 643 151 163 0
-1147 -1168 0
-1147 -1182 0
-1147 -1189 0
-1147 -643 0
-1147 -151 0
-1147 -163 0
-1168 -1182 0
-1168 -1189 0
-1168 -643 0
-1168 -151 0
-1168 -163 0
-1182 -1189 0
-1182 -643 0
-1182 -151 0
-1182 -163 0
-1189 -643 0
-1189 -151 0
-1189 -163 0
-643 -151 0
-643 -163 0
-151 -163 0
1148 1169 1183 1190 644 152 164 0
-1148 -1169 0
-1148 -1183 0
-1148 -1190 0
-1148 -644 0
-1148 -152 0
-1148 -164 0
-1169 -1183 0
-1169 -1190 0
-1169 -644 0
-1169 -152 0
-1169 -164 0
-1183 -1190 0
-1183 -644 0
-1183 -152 0
-1183 -164 0
-1190 -644 0
-1190 -152 0
-1190 -164 0
-644 -152 0
-644 -164 0
-152 -164 0
1149 1170 1184 1191 645 153 165 0
-1149 -1170 0
-1149 -1184 0
-1149 -1191 0
-1149 -645 0
-1149 -153 0
-1149 -165 0
-1170 -1184 0
-1170 -1191 0
-1170 -645 0
-1170 -153 0
-1170 -165 0
-1184 -1191 0
-1184 -645 0
-1184 -153 0
-1184 -165 0
-1191 -645 0
-1191 -153 0
-1191 -165 0
-645 -153 0
-645 -165 0
-153 -165 0
1150 1171 1185 1192 646 154 166 0
-1150 -1171 0
-1150 -1185 0
-1150 -1192 0
-1150 -646 0
-1150 -154 0
-1150 -166 0
-1171 -1185 0
-1171 -1192 0
-1171 -646 0
-1171 -154 0
-1171 -166 0
-1185 -1192 0
-1185 -646 0
-1185 -154 0
-1185 -166 0
-1192 -646 0
-1192 -154 0
-1192 -166 0
-646 -154 0
-646 -166 0
-154 -166 0
1151 1172 1186 1193 647 155 167 0
-1151 -1172 0
-1151 -1186 0
-1151 -1193 0
-1151 -647 0
-1151 -155 0
-1151 -167 0
-1172 -1186 0
-1172 -1193 0
-1172 -647 0
-1172 -155 0
-1172 -167 0
-1186 -1193 0
-1186 -647 0
-1186 -155 0
-1186 -167 0
-1193 -647 0
-1193 -155 0
-1193 -167 0
-647 -155 0
-647 -167 0
-155 -167 0
1152 1173 1187 1194 648 156 168 0
-1152 -1173 0
-1152 -1187 0
-1152 -1194 0
-1152 -648 0
-1152 -156 0
-1152 -168 0
-1173 -1187 0
-1173 -1194 0
-1173 -648 0
-1173 -156 0
-1173 -168 0
-1187 -1194 0
-1187 -648 0
-1187 -156 0
-1187 -168 0
-1194 -648 0
-1194 -156 0
-1194 -168 0
-648 -156 0
-648 -168 0
-156 -168 0
1153 1174 1188 1195 649 0
-1153 -1174 0
-1153 -1188 0
-1153 -1195 0
-1153 -649 0
-1174 -1188 0
-1174 -1195 0
-1174 -649 0
-1188 -1195 0
-1188 -649 0
-1195 -649 0
1196 1203 1210 1217 230 7 25 0
-1196 -1203 0
-1196 -1210 0
-1196 -1217 0
-1196 -230 0
-1196 -7 0
-1196 -25 0
-1203 -1210 0
-1203 -1217 0
-1203 -230 0
-1203 -7 0
-1203 -25 0
-1210 -1217 0
-1210 -230 0
-1210 -7 0
-1210 -25 0
-1217 -230 0
-1217 -7 0
-1217 -25 0
-230 -7 0
-230 -25 0
-7 -25 0
1197 1204 1211 1218 231 8 26 0
-1197 -1204 0
-1197 -1211 0
-1197 -1218 0
-1197 -231 0
-1197 -8 0
-1197 -26 0
-1204 -1211 0
-1204 -1218 0
-1204 -231 0
-1204 -8 0
-1204 -26 0
-1211 -1218 0
-1211 -231 0
-1211 -8 0
-1211 -26 0
-1218 -231 0
-1218 -8 0
-1218 -26 0
-231 -8 0
-231 -26 0
-8 -26 0
1198 1205 1212 1219 232 9 27 0
-1198 -1205 0
-1198 -1212 0
-1198 -1219 0
-1198 -232 0
-1198 -9 0
-1198 -27 0
-1205 -1212 0
-1205 -1219 0
-1205 -232 0
-1205 -9 0
-1205 -27 0
-1212 -1219 0
-1212 -232 0
-1212 -9 0
-1212 -27 0
-1219 -232 0
-1219 -9 0
-1219 -27 0
-232 -9 0
-232 -27 0
-9 -27 0
1199 1206 1213 1220 233 10 28 0
-1199 -1206 0
-1199 -1213 0
-1199 -1220 0
-1199 -233 0
-1199 -10 0
-1199 -28 0
-1206 -1213 0
-1206 -1220 0
-1206 -233 0
-1206 -10 0
-1206 -28 0
-1213 -1220 0
-1213 -233 0
-1213 -10 0
-1213 -28 0
-1220 -233 0
-1220 -10 0
-1220 -28 0
-233 -10 0
-233 -28 0
-10 -28 0
1200 1207 1214 1221 234 11 29 0
-1200 -1207 0
-1200 -1214 0
-1200 -1221 0
-1200 -234 0
-1200 -11 0
-1200 -29 0
-1207 -1214 0
-1207 -1221 0
-1207 -234 0
-1207 -11 0
-1207 -29 0
-1214 -1221 0
-1214 -234 0
-1214 -11 0
-1214 -29 0
-1221 -234 0
-1221 -11 0
-1221 -29 0
-234 -11 0
-234 -29 0
-11 -29 0
1201 1208 1215 1222 235 12 30 0
-1201 -1208 0
-1201 -1215 0
-1201 -1222 0
-1201 -235 0
-1201 -12 0
-1201 -30 0
-1208 -1215 0
-1208 -1222 0
-1208 -235 0
-1208 -12 0
-1208 -30 0
-1215 -1222 0
-1215 -235 0
-1215 -12 0
-1215 -30 0
-1222 -235 0
-1222 -12 0
-1222 -30 0
-235 -12 0
-235 -30 0
-12 -30 0
1202 1209 1216 1223 236 0
-1202 -1209 0
-1202 -1216 0
-1202 -1223 0
-1202 -236 0
-1209 -1216 0
-1209 -1223 0
-1209 -236 0
-1216 -1223 0
-1216 -236 0
-1223 -236 0
1196 1224 1231 1238 335 43 61 0
-1196 -1224 0
-1196 -1231 0
-1196 -1238 0
-1196 -335 0
-1196 -43 0
-1196 -61 0
-1224 -1231 0
-1224 -1238 0
-1224 -335 0
-1224 -43 0
-1224 -61 0
-1231 -1238 0
-1231 -335 0
-1231 -43 0
-1231 -61 0
-1238 -335 0
-1238 -43 0
-1238 -61 0
-335 -43 0
-335 -61 0
-43 -61 0
1197 1225 1232 1239 336 44 62 0
-1197 -1225 0
-1197 -1232 0
-1197 -1239 0
-1197 -336 0
-1197 -44 0
-1197 -62 0
-1225 -1232 0
-1225 -1239 0
-1225 -336 0
-1225 -44 0
-1225 -62 0
-1232 -1239 0
-1232 -336 0
-1232 -44 0
-1232 -62 0
-1239 -336 0
-1239 -44 0
-1239 -62 0
-336 -44 0
-336 -62 0
-44 -62 0
1198 1226 1233 1240 337 45 63 0
-1198 -1226 0
-1198 -1233 0
-1198 -1240 0
-1198 -337 0
-1198 -45 0
-1198 -63 0
-1226 -1233 0
-1226 -1240 0
-1226 -337 0
-1226 -45 0
-1226 -63 0
-1233 -1240 0
-1233 -337 0
-1233 -45 0
-1233 -63 0
-1240 -337 0
-1240 -45 0
-1240 -63 0
-337 -45 0
-337 -63 0
-45 -63 0
1199 1227 1234 1241 338 46 64 0
-1199 -1227 0
-1199 -1234 0
-1199 -1241 0
-1199 -338 0
-1199 -46 0
-1199 -64 0
-1227 -1234 0
-1227 -1241 0
-1227 -338 0
-1227 -46 0
-1227 -64 0
-1234 -1241 0
-1234 -338 0
-1234 -46 0
-1234 -64 0
-1241 -338 0
-1241 -46 0
-1241 -64 0
-338 -46 0
-338 -64 0
-46 -64 0
1200 1228 1235 1242 339 47 65 0
-1200 -1228 0
-1200 -1235 0
-1200 -1242 0
-1200 -339 0
-1200 -47 0
-1200 -65 0
-1228 -1235 0
-1228 -1242 0
-1228 -339 0
-1228 -47 0
-1228 -65 0
-1235 -1242 0
-1235 -339 0
-1235 -47 0
-1235 -65 0
-1242 -339 0
-1242 -47 0
-1242 -65 0
-339 -47 0
-339 -65 0
-47 -65 0
1201 1229 1236 1243 340 48 66 0
-1201 -1229 0
-1201 -1236 0
-1201 -1243 0
-1201 -340 0
-1201 -48 0
-1201 -66 0
-1229 -1236 0
-1229 -1243 0
-1229 -340 0
-1229 -48 0
-1229 -66 0
-1236 -1243 0
-1236 -340 0
-1236 -48 0
-1236 -66 0
-1243 -340 0
-1243 -48 0
-1243 -66 0
-340 -48 0
-340 -66 0
-48 -66 0
1202 1230 1237 1244 341 0
-1202 -1230 0
-1202 -1237 0
-1202 -1244 0
-1202 -341 0
-1230 -1237 0
-1230 -1244 0
-1230 -341 0
-1237 -1244 0
-1237 -341 0
-1244 -341 0
1203 1224 1245 1252 440 79 97 0
-1203 -1224 0
-1203 -1245 0
-1203 -1252 0
-1203 -440 0
-1203 -79 0
-1203 -97 0
-1224 -1245 0
-1224 -1252 0
-1224 -440 0
-1224 -79 0
-1224 -97 0
-1245 -1252 0
-1245 -440 0
-1245 -79 0
-1245 -97 0
-1252 -440 0
-1252 -79 0
-1252 -97 0
-440 -79 0
-440 -97 0
-79 -97 0
1204 1225 1246 1253 441 80 98 0
-1204 -1225 0
-1204 -1246 0
-1204 -1253 0
-1204 -441 0
-1204 -80 0
-1204 -98 0
-1225 -1246 0
-1225 -1253 0
-1225 -441 0
-1225 -80 0
-1225 -98 0
-1246 -1253 0
-1246 -441 0
-1246 -80 0
-1246 -98 0
-1253 -441 0
-1253 -80 0
-1253 -98 0
-441 -80 0
-441 -98 0
-80 -98 0
1205 1226 1247 1254 442 81 99 0
-1205 -1226 0
-1205 -1247 0
-1205 -1254 0
-1205 -442 0
-1205 -81 0
-1205 -99 0
-1226 -1247 0
-1226 -1254 0
-1226 -442 0
-1226 -81 0
-1226 -99 0
-1247 -1254 0
-1247 -442 0
-1247 -81 0
-1247 -99 0
-1254 -442 0
-1254 -81 0
-1254 -99 0
-442 -81 0
-442 -99 0
-81 -99 0
1206 1227 1248 1255 443 82 100 0
-1206 -1227 0
-1206 -1248 0
-1206 -1255 0
-1206 -443 0
-1206 -82 0
-1206 -100 0
-1227 -1248 0
-1227 -1255 0
-1227 -443 0
-1227 -82 0
-1227 -100 0
-1248 -1255 0
-1248 -443 0
-1248 -82 0
-1248 -100 0
-1255 -443 0
-1255 -82 0
-1255 -100 0
-443 -82 0
-443 -100 0
-82 -100 0
1207 1228 1249 1256 444 83 101 0
-1207 -1228 0
-1207 -1249 0
-1207 -1256 0
-1207 -444 0
-1207 -83 0
-1207 -101 0
-1228 -1249 0
-1228 -1256 0
-1228 -444 0
-1228 -83 0
-1228 -101 0
-1249 -1256 0
-1249 -444 0
-1249 -83 0
-1249 -101 0
-1256 -444 0
-1256 -83 0
-1256 -101 0
-444 -83 0
-444 -101 0
-83 -101 0
1208 1229 1250 1257 445 84 102 0
-1208 -1229 0
-1208 -1250 0
-1208 -1257 0
-1208 -445 0
-1208 -84 0
-1208 -102 0
-1229 -1250 0
-1229 -1257 0
-1229 -445 0
-1229 -84 0
-1229 -102 0
-1250 -1257 0
-1250 -445 0
-1250 -84 0
-1250 -102 0
-1257 -445 0
-1257 -84 0
-1257 -102 0
-445 -84 0
-445 -102 0
-84 -102 0
1209 1230 1251 1258 446 0
-1209 -1230 0
-1209 -1251 0
-1209 -1258 0
-1209 -446 0
-1230 -1251 0
-1230 -1258 0
-1230 -446 0
-1251 -1258 0
-1251 -446 0
-1258 -446 0
1210 1231 1245 1259 545 115 133 0
-1210 -1231 0
-1210 -1245 0
-1210 -1259 0
-1210 -545 0
-1210 -115 0
-1210 -133 0
-1231 -1245 0
-1231 -1259 0
-1231 -545 0
-1231 -115 0
-1231 -133 0
-1245 -1259 0
-1245 -545 0
-1245 -115 0
-1245 -133 0
-1259 -545 0
-1259 -115 0
-1259 -133 0
-545 -115 0
-545 -133 0
-115 -133 0
1211 1232 1246 1260 546 116 134 0
-1211 -1232 0
-1211 -1246 0
-1211 -1260 0
-1211 -546 0
-1211 -116 0
-1211 -134 0
-1232 -1246 0
-1232 -1260 0
-1232 -546 0
-1232 -116 0
-1232 -134 0
-1246 -1260 0
-1246 -546 0
-1246 -116 0
-1246 -134 0
-1260 -546 0
-1260 -116 0
-1260 -134 0
-546 -116 0
-546 -134 0
-116 -134 0
1212 1233 1247 1261 547 117 135 0
-1212 -1233 0
-1212 -1247 0
-1212 -1261 0
-1212 -547 0
-1212 -117 0
-1212 -135 0
-1233 -1247 0
-1233 -1261 0
-1233 -547 0
-1233 -117 0
-1233 -135 0
-1247 -1261 0
-1247 -547 0
-1247 -117 0
-1247 -135 0
-1261 -547 0
-1261 -117 0
-1261 -135 0
-547 -117 0
-547 -135 0
-117 -135 0
1213 1234 1248 1262 548 118 136 0
-1213 -1234 0
-1213 -1248 0
-1213 -1262 0
-1213 -548 0
-1213 -118 0
-1213 -136 0
-1234 -1248 0
-1234 -1262 0
-1234 -548 0
-1234 -118 0
-1234 -136 0
-1248 -1262 0
-1248 -548 0
-1248 -118 0
-1248 -136 0
-1262 -548 0
-1262 -118 0
-1262 -136 0
-548 -118 0
-548 -136 0
-118 -136 0
1214 1235 1249 1263 549 119 137 0
-1214 -1235 0
-1214 -1249 0
-1214 -1263 0
-1214 -549 0
-1214 -119 0
-1214 -137 0
-1235 -1249 0
-1235 -1263 0
-1235 -549 0
-1235 -119 0
-1235 -137 0
-1249 -1263 0
-1249 -549 0
-1249 -119 0
-1249 -137 0
-1263 -549 0
-1263 -119 0
-1263 -137 0
-549 -119 0
-549 -137 0
-119 -137 0
1215 1236 1250 1264 550 120 138 0
-1215 -1236 0
-1215 -1250 0
-1215 -1264 0
-1215 -550 0
-1215 -120 0
-1215 -138 0
-1236 -1250 0
-1236 -1264 0
-1236 -550 0
-1236 -120 0
-1236 -138 0
-1250 -1264 0
-1250 -550 0
-1250 -120 0
-1250 -138 0
-1264 -550 0
-1264 -120 0
-1264 -138 0
-550 -120 0
-550 -138 0
-120 -138 0
1216 1237 1251 1265 551 0
-1216 -1237 0
-1216 -1251 0
-1216 -1265 0
-1216 -551 0
-1237 -1251 0
-1237 -1265 0
-1237 -551 0
-1251 -1265 0
-1251 -551 0
-1265 -551 0
1217 1238 1252 1259 650 151 169 0
-1217 -1238 0
-1217 -1252 0
-1217 -1259 0
-1217 -650 0
-1217 -151 0
-1217 -169 0
-1238 -1252 0
-1238 -1259 0
-1238 -650 0
-1238 -151 0
-1238 -169 0
-1252 -1259 0
-1252 -650 0
-1252 -151 0
-1252 -169 0
-1259 -650 0
-1259 -151 0
-1259 -169 0
-650 -151 0
-650 -169 0
-151 -169 0
1218 1239 1253 1260 651 152 170 0
-1218 -1239 0
-1218 -1253 0
-1218 -1260 0
-1218 -651 0
-1218 -152 0
-1218 -170 0
-1239 -1253 0
-1239 -1260 0
-1239 -651 0
-1239 -152 0
-1239 -170 0
-1253 -1260 0
-1253 -651 0
-1253 -152 0
-1253 -170 0
-1260 -651 0
-1260 -152 0
-1260 -170 0
-651 -152 0
-651 -170 0
-152 -170 0
1219 1240 1254 1261 652 153 171 0
-1219 -1240 0
-1219 -1254 0
-1219 -1261 0
-1219 -652 0
-1219 -153 0
-1219 -171 0
-1240 -1254 0
-1240 -1261 0
-1240 -652 0
-1240 -153 0
-1240 -171 0
-1254 -1261 0
-1254 -652 0
-1254 -153 0
-1254 -171 0
-1261 -652 0
-1261 -153 0
-1261 -171 0
-652 -153 0
-652 -171 0
-153 -171 0
1220 1241 1255 1262 653 154 172 0
-1220 -1241 0
-1220 -1255 0
-1220 -1262 0
-1220 -653 0
-1220 -154 0
-1220 -172 0
-1241 -1255 0
-1241 -1262 0
-1241 -653 0
-1241 -154 0
-1241 -172 0
-1255 -1262 0
-1255 -653 0
-1255 -154 0
-1255 -172 0
-1262 -653 0
-1262 -154 0
-1262 -172 0
-653 -154 0
-653 -172 0
-154 -172 0
1221 1242 1256 1263 654 155 173 0
-1221 -1242 0
-1221 -1256 0
-1221 -1263 0
-1221 -654 0
-1221 -155 0
-1221 -173 0
-1242 -1256 0
-1242 -1263 0
-1242 -654 0
-1242 -155 0
-1242 -173 0
-1256 -1263 0
-1256 -654 0
-1256 -155 0
-1256 -173 0
-1263 -654 0
-1263 -155 0
-1263 -173 0
-654 -155 0
-654 -173 0
-155 -173 0
1222 1243 1257 1264 655 156 174 0
-1222 -1243 0
-1222 -1257 0
-1222 -1264 0
-1222 -655 0
-1222 -156 0
-1222 -174 0
-1243 -1257 0
-1243 -1264 0
-1243 -655 0
-1243 -156 0
-1243 -174 0
-1257 -1264 0
-1257 -655 0
-1257 -156 0
-1257 -174 0
-1264 -655 0
-1264 -156 0
-1264 -174 0
-655 -156 0
-655 -174 0
-156 -174 0
1223 1244 1258 1265 656 0
-1223 -1244 0
-1223 -1258 0
-1223 -1265 0
-1223 -656 0
-1244 -1258 0
-1244 -1265 0
-1244 -656 0
-1258 -1265 0
-1258 -656 0
-1265 -656 0
1266 1273 1280 1287 237 7 31 0
-1266 -1273 0
-1266 -1280 0
-1266 -1287 0
-1266 -237 0
-1266 -7 0
-1266 -31 0
-1273 -1280 0
-1273 -1287 0
-1273 -237 0
-1273 -7 0
-1273 -31 0
-1280 -1287 0
-1280 -237 0
-1280 -7 0
-1280 -31 0
-1287 -237 0
-1287 -7 0
-1287 -31 0
-237 -7 0
-237 -31 0
-7 -31 0
1267 1274 1281 1288 238 8 32 0
-1267 -1274 0
-1267 -1281 0
-1267 -1288 0
-1267 -238 0
-1267 -8 0
-1267 -32 0
-1274 -1281 0
-1274 -1288 0
-1274 -238 0
-1274 -8 0
-1274 -32 0
-1281 -1288 0
-1281 -238 0
-1281 -8 0
-1281 -32 0
-1288 -238 0
-1288 -8 0
-1288 -32 0
-238 -8 0
-238 -32 0
-8 -32 0
1268 1275 1282 1289 239 9 33 0
-1268 -1275 0
-1268 -1282 0
-1268 -1289 0
-1268 -239 0
-1268 -9 0
-1268 -33 0
-1275 -1282 0
-1275 -1289 0
-1275 -239 0
-1275 -9 0
-1275 -33 0
-1282 -1289 0
-1282 -239 0
-1282 -9 0
-1282 -33 0
-1289 -239 0
-1289 -9 0
-1289 -33 0
-239 -9 0
-239 -33 0
-9 -33 0
1269 1276 1283 1290 240 10 34 0
-1269 -1276 0
-1269 -1283 0
-1269 -1290 0
-1269 -240 0
-1269 -10 0
-1269 -34 0
-1276 -1283 0
-1276 -1290 0
-1276 -240 0
-1276 -10 0
-1276 -34 0
-1283 -1290 0
-1283 -240 0
-1283 -10 0
-1283 -34 0
-1290 -240 0
-1290 -10 0
-1290 -34 0
-240 -10 0
-240 -34 0
-10 -34 0
1270 1277 1284 1291 241 11 35 0
-1270 -1277 0
-1270 -1284 0
-1270 -1291 0
-1270 -241 0
-1270 -11 0
-1270 -35 0
-1277 -1284 0
-1277 -1291 0
-1277 -241 0
-1277 -11 0
-1277 -35 0
-1284 -1291 0
-1284 -241 0
-1284 -11 0
-1284 -35 0
-1291 -241 0
-1291 -11 0
-1291 -35 0
-241 -11 0
-241 -35 0
-11 -35 0
1271 1278 1285 1292 242 12 36 0
-1271 -1278 0
-1271 -1285 0
-1271 -1292 0
-1271 -242 0
-1271 -12 0
-1271 -36 0
-1278 -1285 0
-1278 -1292 0
-1278 -242 0
-1278 -12 0
-1278 -36 0
-1285 -1292 0
-1285 -242 0
-1285 -12 0
-1285 -36 0
-1292 -242 0
-1292 -12 0
-1292 -36 0
-242 -12 0
-242 -36 0
-12 -36 0
1272 1279 1286 1293 243 0
-1272 -1279 0
-1272 -1286 0
-1272 -1293 0
-1272 -243 0
-1279 -1286 0
-1279 -1293 0
-1279 -243 0
-1286 -1293 0
-1286 -243 0
-1293 -243 0
1266 1294 1301 1308 342 43 67 0
-1266 -1294 0
-1266 -1301 0
-1266 -1308 0
-1266 -342 0
-1266 -43 0
-1266 -67 0
-1294 -1301 0
-1294 -1308 0
-1294 -342 0
-1294 -43 0
-1294 -67 0
-1301 -1308 0
-1301 -342 0
-1301 -43 0
-1301 -67 0
-1308 -342 0
-1308 -43 0
-1308 -67 0
-342 -43 0
-342 -67 0
-43 -67 0
1267 1295 1302 1309 343 44 68 0
-1267 -1295 0
-1267 -1302 0
-1267 -1309 0
-1267 -343 0
-1267 -44 0
-1267 -68 0
-1295 -1302 0
-1295 -1309 0
-1295 -343 0
-1295 -44 0
-1295 -68 0
-1302 -1309 0
-1302 -343 0
-1302 -44 0
-1302 -68 0
-1309 -343 0
-1309 -44 0
-1309 -68 0
-343 -44 0
-343 -68 0
-44 -68 0
1268 1296 1303 1310 344 45 69 0
-1268 -1296 0
-1268 -1303 0
-1268 -1310 0
-1268 -344 0
-1268 -45 0
-1268 -69 0
-1296 -1303 0
-1296 -1310 0
-1296 -344 0
-1296 -45 0
-1296 -69 0
-1303 -1310 0
-1303 -344 0
-1303 -45 0
-1303 -69 0
-1310 -344 0
-1310 -45 0
-1310 -69 0
-344 -45 0
-344 -69 0
-45 -69 0
1269 1297 1304 1311 345 46 70 0
-1269 -1297 0
-1269 -1304 0
-1269 -1311 0
-1269 -345 0
-1269 -46 0
-1269 -70 0
-1297 -1304 0
-1297 -1311 0
-1297 -345 0
-1297 -46 0
-1297 -70 0
-1304 -1311 0
-1304 -345 0
-1304 -46 0
-1304 -70 0
-1311 -345 0
-1311 -46 0
-1311 -70 0
-345 -46 0
-345 -70 0
-46 -70 0
1270 1298 1305 1312 346 47 71 0
-1270 -1298 0
-1270 -1305 0
-1270 -1312 0
-1270 -346 0
-1270 -47 0
-1270 -71 0
-1298 -1305 0
-1298 -1312 0
-1298 -346 0
-1298 -47 0
-1298 -71 0
-1305 -1312 0
-1305 -346 0
-1305 -47 0
-1305 -71 0
-1312 -346 0
-1312 -47 0
-1312 -71 0
-346 -47 0
-346 -71 0
-47 -71 0
1271 1299 1306 1313 347 48 72 0
-1271 -1299 0
-1271 -1306 0
-1271 -1313 0
-1271 -347 0
-1271 -48 0
-1271 -72 0
-1299 -1306 0
-1299 -1313 0
-1299 -347 0
-1299 -48 0
-1299 -72 0
-1306 -1313 0
-1306 -347 0
-1306 -48 0
-1306 -72 0
-1313 -347 0
-1313 -48 0
-1313 -72 0
-347 -48 0
-347 -72 0
-48 -72 0
1272 1300 1307 1314 348 0
-1272 -1300 0
-1272 -1307 0
-1272 -1314 0
-1272 -348 0
-1300 -1307 0
-1300 -1314 0
-1300 -348 0
-1307 -1314 0
-1307 -348 0
-1314 -348 0
1273 1294 1315 1322 447 79 103 0
-1273 -1294 0
-1273 -1315 0
-1273 -1322 0
-1273 -447 0
-1273 -79 0
-1273 -103 0
-1294 -1315 0
-1294 -1322 0
-1294 -447 0
-1294 -79 0
-1294 -103 0
-1315 -1322 0
-1315 -447 0
-1315 -79 0
-1315 -103 0
-1322 -447 0
-1322 -79 0
-1322 -103 0
-447 -79 0
-447 -103 0
-79 -103 0
1274 1295 1316 1323 448 80 104 0
-1274 -1295 0
-1274 -1316 0
-1274 -1323 0
-1274 -448 0
-1274 -80 0
-1274 -104 0
-1295 -1316 0
-1295 -1323 0
-1295 -448 0
-1295 -80 0
-1295 -104 0
-1316 -1323 0
-1316 -448 0
-1316 -80 0
-1316 -104 0
-1323 -448 0
-1323 -80 0
-1323 -104 0
-448 -80 0
-448 -104 0
-80 -104 0
1275 1296 1317 1324 449 81 105 0
-1275 -1296 0
-1275 -1317 0
-1275 -1324 0
-1275 -449 0
-1275 -81 0
-1275 -105 0
-1296 -1317 0
-1296 -1324 0
-1296 -449 0
-1296 -81 0
-1296 -105 0
-1317 -1324 0
-1317 -449 0
-1317 -81 0
-1317 -105 0
-1324 -449 0
-1324 -81 0
-1324 -105 0
-449 -81 0
-449 -105 0
-81 -105 0
1276 1297 1318 1325 450 82 106 0
-1276 -1297 0
-1276 -1318 0
-1276 -1325 0
-1276 -450 0
-1276 -82 0
-1276 -106 0
-1297 -1318 0
-1297 -1325 0
-1297 -450 0
-1297 -82 0
-1297 -106 0
-1318 -1325 0
-1318 -450 0
-1318 -82 0
-1318 -106 0
-1325 -450 0
-1325 -82 0
-1325 -106 0
-450 -82 0
-450 -106 0
-82 -106 0
1277 1298 1319 1326 451 83 107 0
-1277 -1298 0
-1277 -1319 0
-1277 -1326 0
-1277 -451 0
-1277 -83 0
-1277 -107 0
-1298 -1319 0
-1298 -1326 0
-1298 -451 0
-1298 -83 0
-1298 -107 0
-1319 -1326 0
-1319 -451 0
-1319 -83 0
-1319 -107 0
-1326 -451 0
-1326 -83 0
-1326 -107 0
-451 -83 0
-451 -107 0
-83 -107 0
1278 1299 1320 1327 452 84 108 0
-1278 -1299 0
-1278 -1320 0
-1278 -1327 0
-1278 -452 0
-1278 -84 0
-1278 -108 0
-1299 -1320 0
-1299 -1327 0
-1299 -452 0
-1299 -84 0
-1299 -108 0
-1320 -1327 0
-1320 -452 0
-1320 -84 0
-1320 -108 0
-1327 -452 0
-1327 -84 0
-1327 -108 0
-452 -84 0
-452 -108 0
-84 -108 0
1279 1300 1321 1328 453 0
-1279 -1300 0
-1279 -1321 0
-1279 -1328 0
-1279 -453 0
-1300 -1321 0
-1300 -1328 0
-1300 -453 0
-1321 -1328 0
-1321 -453 0
-1328 -453 0
1280 1301 1315 1329 552 115 139 0
-1280 -1301 0
-1280 -1315 0
-1280 -1329 0
-1280 -552 0
-1280 -115 0
-1280 -139 0
-1301 -1315 0
-1301 -1329 0
-1301 -552 0
-1301 -115 0
-1301 -139 0
-1315 -1329 0
-1315 -552 0
-1315 -115 0
-1315 -139 0
-1329 -552 0
-1329 -115 0
-1329 -139 0
-552 -115 0
-552 -139 0
-115 -139 0
1281 1302 1316 1330 553 116 140 0
-1281 -1302 0
-1281 -1316 0
-1281 -1330 0
-1281 -553 0
-1281 -116 0
-1281 -140 0
-1302 -1316 0
-1302 -1330 0
-1302 -553 0
-1302 -116 0
-1302 -140 0
-1316 -1330 0
-1316 -553 0
-1316 -116 0
-1316 -140 0
-1330 -553 0
-1330 -116 0
-1330 -140 0
-553 -116 0
-553 -140 0
-116 -140 0
1282 1303 1317 1331 554 117 141 0
-1282 -1303 0
-1282 -1317 0
-1282 -1331 0
-1282 -554 0
-1282 -117 0
-1282 -141 0
-1303 -1317 0
-1303 -1331 0
-1303 -554 0
-1303 -117 0
-1303 -141 0
-1317 -1331 0
-1317 -554 0
-1317 -117 0
-1317 -141 0
-1331 -554 0
-1331 -117 0
-1331 -141 0
-554 -117 0
-554 -141 0
-117 -141 0
1283 1304 1318 1332 555 118 142 0
-1283 -1304 0
-1283 -1318 0
-1283 -1332 0
-1283 -555 0
-1283 -118 0
-1283 -142 0
-1304 -1318 0
-1304 -1332 0
-1304 -555 0
-1304 -118 0
-1304 -142 0
-1318 -1332 0
-1318 -555 0
-1318 -118 0
-1318 -142 0
-1332 -555 0
-1332 -118 0
-1332 -142 0
-555 -118 0
-555 -142 0
-118 -142 0
1284 1305 1319 1333 556 119 143 0
-1284 -1305 0
-1284 -1319 0
-1284 -1333 0
-1284 -556 0
-1284 -119 0
-1284 -143 0
-1305 -1319 0
-1305 -1333 0
-1305 -556 0
-1305 -119 0
-1305 -143 0
-1319 -1333 0
-1319 -556 0
-1319 -119 0
-1319 -143 0
-1333 -556 0
-1333 -119 0
-1333 -143 0
-556 -119 0
-556 -143 0
-119 -143 0
1285 1306 1320 1334 557 120 144 0
-1285 -1306 0
-1285 -1320 0
-1285 -1334 0
-1285 -557 0
-1285 -120 0
-1285 -144 0
-1306 -1320 0
-1306 -1334 0
-1306 -557 0
-1306 -120 0
-1306 -144 0
-1320 -1334 0
-1320 -557 0
-1320 -120 0
-1320 -144 0
-1334 -557 0
-1334 -120 0
-1334 -144 0
-557 -120 0
-557 -144 0
-120 -144 0
1286 1307 1321 1335 558 0
-1286 -1307 0
-1286 -1321 0
-1286 -1335 0
-1286 -558 0
-1307 -1321 0
-1307 -1335 0
-1307 -558 0
-1321 -1335 0
-1321 -558 0
-1335 -558 0
1287 1308 1322 1329 657 151 175 0
-1287 -1308 0
-1287 -1322 0
-1287 -1329 0
-1287 -657 0
-1287 -151 0
-1287 -175 0
-1308 -1322 0
-1308 -1329 0
-1308 -657 0
-1308 -151 0
-1308 -175 0
-1322 -1329 0
-1322 -657 0
-1322 -151 0
-1322 -175 0
-1329 -657 0
-1329 -151 0
-1329 -175 0
-657 -151 0
-657 -175 0
-151 -175 0
1288 1309 1323 1330 658 152 176 0
-1288 -1309 0
-1288 -1323 0
-1288 -1330 0
-1288 -658 0
-1288 -152 0
-1288 -176 0
-1309 -1323 0
-1309 -1330 0
-1309 -658 0
-1309 -152 0
-1309 -176 0
-1323 -1330 0
-1323 -658 0
-1323 -152 0
-1323 -176 0
-1330 -658 0
-1330 -152 0
-1330 -176 0
-658 -152 0
-658 -176 0
-152 -176 0
1289 1310 1324 1331 659 153 177 0
-1289 -1310 0
-1289 -1324 0
-1289 -1331 0
-1289 -659 0
-1289 -153 0
-1289 -177 0
-1310 -1324 0
-1310 -1331 0
-1310 -659 0
-1310 -153 0
-1310 -177 0
-1324 -1331 0
-1324 -659 0
-1324 -153 0
-1324 -177 0
-1331 -659 0
-1331 -153 0
-1331 -177 0
-659 -153 0
-659 -177 0
-153 -177 0
1290 1311 1325 1332 660 154 178 0
-1290 -1311 0
-1290 -1325 0
-1290 -1332 0
-1290 -660 0
-1290 -154 0
-1290 -178 0
-1311 -1325 0
-1311 -1332 0
-1311 -660 0
-1311 -154 0
-1311 -178 0
-1325 -1332 0
-1325 -660 0
-1325 -154 0
-1325 -178 0
-1332 -660 0
-1332 -154 0
-1332 -178 0
-660 -154 0
-660 -178 0
-154 -178 0
1291 1312 1326 1333 661 155 179 0
-1291 -1312 0
-1291 -1326 0
-1291 -1333 0
-1291 -661 0
-1291 -155 0
-1291 -179 0
-1312 -1326 0
-1312 -1333 0
-1312 -661 0
-1312 -155 0
-1312 -179 0
-1326 -1333 0
-1326 -661 0
-1326 -155 0
-1326 -179 0
-1333 -661 0
-1333 -155 0
-1333 -179 0
-661 -155 0
-661 -179 0
-155 -179 0
1292 1313 1327 1334 662 156 180 0
-1292 -1313 0
-1292 -1327 0
-1292 -1334 0
-1292 -662 0
-1292 -156 0
-1292 -180 0
-1313 -1327 0
-1313 -1334 0
-1313 -662 0
-1313 -156 0
-1313 -180 0
-1327 -1334 0
-1327 -662 0
-1327 -156 0
-1327 -180 0
-1334 -662 0
-1334 -156 0
-1334 -180 0
-662 -156 0
-662 -180 0
-156 -180 0
1293 1314 1328 1335 663 0
-1293 -1314 0
-1293 -1328 0
-1293 -1335 0
-1293 -663 0
-1314 -1328 0
-1314 -1335 0
-1314 -663 0
-1328 -1335 0
-1328 -663 0
-1335 -663 0
1336 1343 1350 1357 244 13 19 0
-1336 -1343 0
-1336 -1350 0
-1336 -1357 0
-1336 -244 0
-1336 -13 0
-1336 -19 0
-1343 -1350 0
-1343 -1357 0
-1343 -244 0
-1343 -13 0
-1343 -19 0
-1350 -1357 0
-1350 -244 0
-1350 -13 0
-1350 -19 0
-1357 -244 0
-1357 -13 0
-1357 -19 0
-244 -13 0
-244 -19 0
-13 -19 0
1337 1344 1351 1358 245 14 20 0
-1337 -1344 0
-1337 -1351 0
-1337 -1358 0
-1337 -245 0
-1337 -14 0
-1337 -20 0
-1344 -1351 0
-1344 -1358 0
-1344 -245 0
-1344 -14 0
-1344 -20 0
-1351 -1358 0
-1351 -245 0
-1351 -14 0
-1351 -20 0
-1358 -245 0
-1358 -14 0
-1358 -20 0
-245 -14 0
-245 -20 0
-14 -20 0
1338 1345 1352 1359 246 15 21 0
-1338 -1345 0
-1338 -1352 0
-1338 -1359 0
-1338 -246 0
-1338 -15 0
-1338 -21 0
-1345 -1352 0
-1345 -1359 0
-1345 -246 0
-1345 -15 0
-1345 -21 0
-1352 -1359 0
-1352 -246 0
-1352 -15 0
-1352 -21 0
-1359 -246 0
-1359 -15 0
-1359 -21 0
-246 -15 0
-246 -21 0
-15 -21 0
1339 1346 1353 1360 247 16 22 0
-1339 -1346 0
-1339 -1353 0
-1339 -1360 0
-1339 -247 0
-1339 -16 0
-1339 -22 0
-1346 -1353 0
-1346 -1360 0
-1346 -247 0
-1346 -16 0
-1346 -22 0
-1353 -1360 0
-1353 -247 0
-1353 -16 0
-1353 -22 0
-1360 -247 0
-1360 -16 0
-1360 -22 0
-247 -16 0
-247 -22 0
-16 -22 0
1340 1347 1354 1361 248 17 23 0
-1340 -1347 0
-1340 -1354 0
-1340 -1361 0
-1340 -248 0
-1340 -17 0
-1340 -23 0
-1347 -1354 0
-1347 -1361 0
-1347 -248 0
-1347 -17 0
-1347 -23 0
-1354 -1361 0
-1354 -248 0
-1354 -17 0
-1354 -23 0
-1361 -248 0
-1361 -17 0
-1361 -23 0
-248 -17 0
-248 -23 0
-17 -23 0
1341 1348 1355 1362 249 18 24 0
-1341 -1348 0
-1341 -1355 0
-1341 -1362 0
-1341 -249 0
-1341 -18 0
-1341 -24 0
-1348 -1355 0
-1348 -1362 0
-1348 -249 0
-1348 -18 0
-1348 -24 0
-1355 -1362 0
-1355 -249 0
-1355 -18 0
-1355 -24 0
-1362 -249 0
-1362 -18 0
-1362 -24 0
-249 -18 0
-249 -24 0
-18 -24 0
1342 1349 1356 1363 250 0
-1342 -1349 0
-1342 -1356 0
-1342 -1363 0
-1342 -250 0
-1349 -1356 0
-1349 -1363 0
-1349 -250 0
-1356 -1363 0
-1356 -250 0
-1363 -250 0
1336 1364 1371 1378 349 49 55 0
-1336 -1364 0
-1336 -1371 0
-1336 -1378 0
-1336 -349 0
-1336 -49 0
-1336 -55 0
-1364 -1371 0
-1364 -1378 0
-1364 -349 0
-1364 -49 0
-1364 -55 0
-1371 -1378 0
-1371 -349 0
-1371 -49 0
-1371 -55 0
-1378 -349 0
-1378 -49 0
-1378 -55 0
-349 -49 0
-349 -55 0
-49 -55 0
1337 1365 1372 1379 350 50 56 0
-1337 -1365 0
-1337 -1372 0
-1337 -1379 0
-1337 -350 0
-1337 -50 0
-1337 -56 0
-1365 -1372 0
-1365 -1379 0
-1365 -350 0
-1365 -50 0
-1365 -56 0
-1372 -1379 0
-1372 -350 0
-1372 -50 0
-1372 -56 0
-1379 -350 0
-1379 -50 0
-1379 -56 0
-350 -50 0
-350 -56 0
-50 -56 0
1338 1366 1373 1380 351 51 57 0
-1338 -1366 0
-1338 -1373 0
-1338 -1380 0
-1338 -351 0
-1338 -51 0
-1338 -57 0
-1366 -1373 0
-1366 -1380 0
-1366 -351 0
-1366 -51 0
-1366 -57 0
-1373 -1380 0
-1373 -351 0
-1373 -51 0
-1373 -57 0
-1380 -351 0
-1380 -51 0
-1380 -57 0
-351 -51 0
-351 -57 0
-51 -57 0
1339 1367 1374 1381 352 52 58 0
-1339 -1367 0
-1339 -1374 0
-1339 -1381 0
-1339 -352 0
-1339 -52 0
-1339 -58 0
-1367 -1374 0
-1367 -1381 0
-1367 -352 0
-1367 -52 0
-1367 -58 0
-1374 -1381 0
-1374 -352 0
-1374 -52 0
-1374 -58 0
-1381 -352 0
-1381 -52 0
-1381 -58 0
-352 -52 0
-352 -58 0
-52 -58 0
1340 1368 1375 1382 353 53 59 0
-1340 -1368 0
-1340 -1375 0
-1340 -1382 0
-1340 -353 0
-1340 -53 0
-1340 -59 0
-1368 -1375 0
-1368 -1382 0
-1368 -353 0
-1368 -53 0
-1368 -59 0
-1375 -1382 0
-1375 -353 0
-1375 -53 0
-1375 -59 0
-1382 -353 0
-1382 -53 0
-1382 -59 0
-353 -53 0
-353 -59 0
-53 -59 0
1341 1369 1376 1383 354 54 60 0
-1341 -1369 0
-1341 -1376 0
-1341 -1383 0
-1341 -354 0
-1341 -54 0
-1341 -60 0
-1369 -1376 0
-1369 -1383 0
-1369 -354 0
-1369 -54 0
-1369 -60 0
-1376 -1383 0
-1376 -354 0
-1376 -54 0
-1376 -60 0
-1383 -354 0
-1383 -54 0
-1383 -60 0
-354 -54 0
-354 -60 0
-54 -60 0
1342 1370 1377 1384 355 0
-1342 -1370 0
-1342 -1377 0
-1342 -1384 0
-1342 -355 0
-1370 -1377 0
-1370 -1384 0
-1370 -355 0
-1377 -1384 0
-1377 -355 0
-1384 -355 0
1343 1364 1385 1392 454 85 91 0
-1343 -1364 0
-1343 -1385 0
-1343 -1392 0
-1343 -454 0
-1343 -85 0
-1343 -91 0
-1364 -1385 0
-1364 -1392 0
-1364 -454 0
-1364 -85 0
-1364 -91 0
-1385 -1392 0
-1385 -454 0
-1385 -85 0
-1385 -91 0
-1392 -454 0
-1392 -85 0
-1392 -91 0
-454 -85 0
-454 -91 0
-85 -91 0
1344 1365 1386 1393 455 86 92 0
-1344 -1365 0
-1344 -1386 0
-1344 -1393 0
-1344 -455 0
-1344 -86 0
-1344 -92 0
-1365 -1386 0
-1365 -1393 0
-1365 -455 0
-1365 -86 0
-1365 -92 0
-1386 -1393 0
-1386 -455 0
-1386 -86 0
-1386 -92 0
-1393 -455 0
-1393 -86 0
-1393 -92 0
-455 -86 0
-455 -92 0
-86 -92 0
1345 1366 1387 1394 456 87 93 0
-1345 -1366 0
-1345 -1387 0
-1345 -1394 0
-1345 -456 0
-1345 -87 0
-1345 -93 0
-1366 -1387 0
-1366 -1394 0
-1366 -456 0
-1366 -87 0
-1366 -93 0
-1387 -1394 0
-1387 -456 0
-1387 -87 0
-1387 -93 0
-1394 -456 0
-1394 -87 0
-1394 -93 0
-456 -87 0
-456 -93 0
-87 -93 0
1346 1367 1388 1395 457 88 94 0
-1346 -1367 0
-1346 -1388 0
-1346 -1395 0
-1346 -457 0
-1346 -88 0
-1346 -94 0
-1367 -1388 0
-1367 -1395 0
-1367 -457 0
-1367 -88 0
-1367 -94 0
-1388 -1395 0
-1388 -457 0
-1388 -88 0
-1388 -94 0
-1395 -457 0
-1395 -88 0
-1395 -94 0
-457 -88 0
-457 -94 0
-88 -94 0
1347 1368 1389 1396 458 89 95 0
-1347 -1368 0
-1347 -1389 0
-1347 -1396 0
-1347 -458 0
-1347 -89 0
-1347 -95 0
-1368 -1389 0
-1368 -1396 0
-1368 -458 0
-1368 -89 0
-1368 -95 0
-1389 -1396 0
-1389 -458 0
-1389 -89 0
-1389 -95 0
-1396 -458 0
-1396 -89 0
-1396 -95 0
-458 -89 0
-458 -95 0
-89 -95 0
1348 1369 1390 1397 459 90 96 0
-1348 -1369 0
-1348 -1390 0
-1348 -1397 0
-1348 -459 0
-1348 -90 0
-1348 -96 0
-1369 -1390 0
-1369 -1397 0
-1369 -459 0
-1369 -90 0
-1369 -96 0
-1390 -1397 0
-1390 -459 0
-1390 -90 0
-1390 -96 0
-1397 -459 0
-1397 -90 0
-1397 -96 0
-459 -90 0
-459 -96 0
-90 -96 0
1349 1370 1391 1398 460 0
-1349 -1370 0
-1349 -1391 0
-1349 -1398 0
-1349 -460 0
-1370 -1391 0
-1370 -1398 0
-1370 -460 0
-1391 -1398 0
-1391 -460 0
-1398 -460 0
1350 1371 1385 1399 559 121 127 0
-1350 -1371 0
-1350 -1385 0
-1350 -1399 0
-1350 -559 0
-1350 -121 0
-1350 -127 0
-1371 -1385 0
-1371 -1399 0
-1371 -559 0
-1371 -121 0
-1371 -127 0
-1385 -1399 0
-1385 -559 0
-1385 -121 0
-1385 -127 0
-1399 -559 0
-1399 -121 0
-1399 -127 0
-559 -121 0
-559 -127 0
-121 -127 0
1351 1372 1386 1400 560 122 128 0
-1351 -1372 0
-1351 -1386 0
-1351 -1400 0
-1351 -560 0
-1351 -122 0
-1351 -128 0
-1372 -1386 0
-1372 -1400 0
-1372 -560 0
-1372 -122 0
-1372 -128 0
-1386 -1400 0
-1386 -560 0
-1386 -122 0
-1386 -128 0
-1400 -560 0
-1400 -122 0
-1400 -128 0
-560 -122 0
-560 -128 0
-122 -128 0
1352 1373 1387 1401 561 123 129 0
-1352 -1373 0
-1352 -1387 0
-1352 -1401 0
-1352 -561 0
-1352 -123 0
-1352 -129 0
-1373 -1387 0
-1373 -1401 0
-1373 -561 0
-1373 -123 0
-1373 -129 0
-1387 -1401 0
-1387 -561 0
-1387 -123 0
-1387 -129 0
-1401 -561 0
-1401 -123 0
-1401 -129 0
-561 -123 0
-561 -129 0
-123 -129 0
1353 1374 1388 1402 562 124 130 0
-1353 -1374 0
-1353 -1388 0
-1353 -1402 0
-1353 -562 0
-1353 -124 0
-1353 -130 0
-1374 -1388 0
-1374 -1402 0
-1374 -562 0
-1374 -124 0
-1374 -130 0
-1388 -1402 0
-1388 -562 0
-1388 -124 0
-1388 -130 0
-1402 -562 0
-1402 -124 0
-1402 -130 0
-562 -124 0
-562 -130 0
-124 -130 0
1354 1375 1389 1403 563 125 131 0
-1354 -1375 0
-1354 -1389 0
-1354 -1403 0
-1354 -563 0
-1354 -125 0
-1354 -131 0
-1375 -1389 0
-1375 -1403 0
-1375 -563 0
-1375 -125 0
-1375 -131 0
-1389 -1403 0
-1389 -563 0
-1389 -125 0
-1389 -131 0
-1403 -563 0
-1403 -125 0
-1403 -131 0
-563 -125 0
-563 -131 0
-125 -131 0
1355 1376 1390 1404 564 126 132 0
-1355 -1376 0
-1355 -1390 0
-1355 -1404 0
-1355 -564 0
-1355 -126 0
-1355 -132 0
-1376 -1390 0
-1376 -1404 0
-1376 -564 0
-1376 -126 0
-1376 -132 0
-1390 -1404 0
-1390 -564 0
-1390 -126 0
-1390 -132 0
-1404 -564 0
-1404 -126 0
-1404 -132 0
-564 -126 0
-564 -132 0
-126 -132 0
1356 1377 1391 1405 565 0
-1356 -1377 0
-1356 -1391 0
-1356 -1405 0
-1356 -565 0
-1377 -1391 0
-1377 -1405 0
-1377 -565 0
-1391 -1405 0
-1391 -565 0
-1405 -565 0
1357 1378 1392 1399 664 157 163 0
-1357 -1378 0
-1357 -1392 0
-1357 -1399 0
-1357 -664 0
-1357 -157 0
-1357 -163 0
-1378 -1392 0
-1378 -1399 0
-1378 -664 0
-1378 -157 0
-1378 -163 0
-1392 -1399 0
-1392 -664 0
-1392 -157 0
-1392 -163 0
-1399 -664 0
-1399 -157 0
-1399 -163 0
-664 -157 0
-664 -163 0
-157 -163 0
1358 1379 1393 1400 665 158 164 0
-1358 -1379 0
-1358 -1393 0
-1358 -1400 0
-1358 -665 0
-1358 -158 0
-1358 -164 0
-1379 -1393 0
-1379 -1400 0
-1379 -665 0
-1379 -158 0
-1379 -164 0
-1393 -1400 0
-1393 -665 0
-1393 -158 0
-1393 -164 0
-1400 -665 0
-1400 -158 0
-1400 -164 0
-665 -158 0
-665 -164 0
-158 -164 0
1359 1380 1394 1401 666 159 165 0
-1359 -1380 0
-1359 -1394 0
-1359 -1401 0
-1359 -666 0
-1359 -159 0
-1359 -165 0
-1380 -1394 0
-1380 -1401 0
-1380 -666 0
-1380 -159 0
-1380 -165 0
-1394 -1401 0
-1394 -666 0
-1394 -159 0
-1394 -165 0
-1401 -666 0
-1401 -159 0
-1401 -165 0
-666 -159 0
-666 -165 0
-159 -165 0
1360 1381 1395 1402 667 160 166 0
-1360 -1381 0
-1360 -1395 0
-1360 -1402 0
-1360 -667 0
-1360 -160 0
-1360 -166 0
-1381 -1395 0
-1381 -1402 0
-1381 -667 0
-1381 -160 0
-1381 -166 0
-1395 -1402 0
-1395 -667 0
-1395 -160 0
-1395 -166 0
-1402 -667 0
-1402 -160 0
-1402 -166 0
-667 -160 0
-667 -166 0
-160 -166 0
1361 1382 1396 1403 668 161 167 0
-1361 -1382 0
-1361 -1396 0
-1361 -1403 0
-1361 -668 0
-1361 -161 0
-1361 -167 0
-1382 -1396 0
-1382 -1403 0
-1382 -668 0
-1382 -161 0
-1382 -167 0
-1396 -1403 0
-1396 -668 0
-1396 -161 0
-1396 -167 0
-1403 -668 0
-1403 -161 0
-1403 -167 0
-668 -161 0
-668 -167 0
-161 -167 0
1362 1383 1397 1404 669 162 168 0
-1362 -1383 0
-1362 -1397 0
-1362 -1404 0
-1362 -669 0
-1362 -162 0
-1362 -168 0
-1383 -1397 0
-1383 -1404 0
-1383 -669 0
-1383 -162 0
-1383 -168 0
-1397 -1404 0
-1397 -669 0
-1397 -162 0
-1397 -168 0
-1404 -669 0
-1404 -162 0
-1404 -168 0
-669 -162 0
-669 -168 0
-162 -168 0
1363 1384 1398 1405 670 0
-1363 -1384 0
-1363 -1398 0
-1363 -1405 0
-1363 -670 0
-1384 -1398 0
-1384 -1405 0
-1384 -670 0
-1398 -1405 0
-1398 -670 0
-1405 -670 0
1406 1413 1420 1427 251 13 25 0
-1406 -1413 0
-1406 -1420 0
-1406 -1427 0
-1406 -251 0
-1406 -13 0
-1406 -25 0
-1413 -1420 0
-1413 -1427 0
-1413 -251 0
-1413 -13 0
-1413 -25 0
-1420 -1427 0
-1420 -251 0
-1420 -13 0
-1420 -25 0
-1427 -251 0
-1427 -13 0
-1427 -25 0
-251 -13 0
-251 -25 0
-13 -25 0
1407 1414 1421 1428 252 14 26 0
-1407 -1414 0
-1407 -1421 0
-1407 -1428 0
-1407 -252 0
-1407 -14 0
-1407 -26 0
-1414 -1421 0
-1414 -1428 0
-1414 -252 0
-1414 -14 0
-1414 -26 0
-1421 -1428 0
-1421 -252 0
-1421 -14 0
-1421 -26 0
-1428 -252 0
-1428 -14 0
-1428 -26 0
-252 -14 0
-252 -26 0
-14 -26 0
1408 1415 1422 1429 253 15 27 0
-1408 -1415 0
-1408 -1422 0
-1408 -1429 0
-1408 -253 0
-1408 -15 0
-1408 -27 0
-1415 -1422 0
-1415 -1429 0
-1415 -253 0
-1415 -15 0
-1415 -27 0
-1422 -1429 0
-1422 -253 0
-1422 -15 0
-1422 -27 0
-1429 -253 0
-1429 -15 0
-1429 -27 0
-253 -15 0
-253 -27 0
-15 -27 0
1409 1416 1423 1430 254 16 28 0
-1409 -1416 0
-1409 -1423 0
-1409 -1430 0
-1409 -254 0
-1409 -16 0
-1409 -28 0
-1416 -1423 0
-1416 -1430 0
-1416 -254 0
-1416 -16 0
-1416 -28 0
-1423 -1430 0
-1423 -254 0
-1423 -16 0
-1423 -28 0
-1430 -254 0
-1430 -16 0
-1430 -28 0
-254 -16 0
-254 -28 0
-16 -28 0
1410 1417 1424 1431 255 17 29 0
-1410 -1417 0
-1410 -1424 0
-1410 -1431 0
-1410 -255 0
-1410 -17 0
-1410 -29 0
-1417 -1424 0
-1417 -1431 0
-1417 -255 0
-1417 -17 0
-1417 -29 0
-1424 -1431 0
-1424 -255 0
-1424 -17 0
-1424 -29 0
-1431 -255 0
-1431 -17 0
-1431 -29 0
-255 -17 0
-255 -29 0
-17 -29 0
1411 1418 1425 1432 256 18 30 0
-1411 -1418 0
-1411 -1425 0
-1411 -1432 0
-1411 -256 0
-1411 -18 0
-1411 -30 0
-1418 -1425 0
-1418 -1432 0
-1418 -256 0
-1418 -18 0
-1418 -30 0
-1425 -1432 0
-1425 -256 0
-1425 -18 0
-1425 -30 0
-1432 -256 0
-1432 -18 0
-1432 -30 0
-256 -18 0
-256 -30 0
-18 -30 0
1412 1419 1426 1433 257 0
-1412 -1419 0
-1412 -1426 0
-1412 -1433 0
-1412 -257 0
-1419 -1426 0
-1419 -1433 0
-1419 -257 0
-1426 -1433 0
-1426 -257 0
-1433 -257 0
1406 1434 1441 1448 356 49 61 0
-1406 -1434 0
-1406 -1441 0
-1406 -1448 0
-1406 -356 0
-1406 -49 0
-1406 -61 0
-1434 -1441 0
-1434 -1448 0
-1434 -356 0
-1434 -49 0
-1434 -61 0
-1441 -1448 0
-1441 -356 0
-1441 -49 0
-1441 -61 0
-1448 -356 0
-1448 -49 0
-1448 -61 0
-356 -49 0
-356 -61 0
-49 -61 0
1407 1435 1442 1449 357 50 62 0
-1407 -1435 0
-1407 -1442 0
-1407 -1449 0
-1407 -357 0
-1407 -50 0
-1407 -62 0
-1435 -1442 0
-1435 -1449 0
-1435 -357 0
-1435 -50 0
-1435 -62 0
-1442 -1449 0
-1442 -357 0
-1442 -50 0
-1442 -62 0
-1449 -357 0
-1449 -50 0
-1449 -62 0
-357 -50 0
-357 -62 0
-50 -62 0
1408 1436 1443 1450 358 51 63 0
-1408 -1436 0
-1408 -1443 0
-1408 -1450 0
-1408 -358 0
-1408 -51 0
-1408 -63 0
-1436 -1443 0
-1436 -1450 0
-1436 -358 0
-1436 -51 0
-1436 -63 0
-1443 -1450 0
-1443 -358 0
-1443 -51 0
-1443 -63 0
-1450 -358 0
-1450 -51 0
-1450 -63 0
-358 -51 0
-358 -63 0
-51 -63 0
1409 1437 1444 1451 359 52 64 0
-1409 -1437 0
-1409 -1444 0
-1409 -1451 0
-1409 -359 0
-1409 -52 0
-1409 -64 0
-1437 -1444 0
-1437 -1451 0
-1437 -359 0
-1437 -52 0
-1437 -64 0
-1444 -1451 0
-1444 -359 0
-1444 -52 0
-1444 -64 0
-1451 -359 0
-1451 -52 0
-1451 -64 0
-359 -52 0
-359 -64 0
-52 -64 0
1410 1438 1445 1452 360 53 65 0
-1410 -1438 0
-1410 -1445 0
-1410 -1452 0
-1410 -360 0
-1410 -53 0
-1410 -65 0
-1438 -1445 0
-1438 -1452 0
-1438 -360 0
-1438 -53 0
-1438 -65 0
-1445 -1452 0
-1445 -360 0
-1445 -53 0
-1445 -65 0
-1452 -360 0
-1452 -53 0
-1452 -65 0
-360 -53 0
-360 -65 0
-53 -65 0
1411 1439 1446 1453 361 54 66 0
-1411 -1439 0
-1411 -1446 0
-1411 -1453 0
-1411 -361 0
-1411 -54 0
-1411 -66 0
-1439 -1446 0
-1439 -1453 0
-1439 -361 0
-1439 -54 0
-1439 -66 0
-1446 -1453 0
-1446 -361 0
-1446 -54 0
-1446 -66 0
-1453 -361 0
-1453 -54 0
-1453 -66 0
-361 -54 0
-361 -66 0
-54 -66 0
1412 1440 1447 1454 362 0
-1412 -1440 0
-1412 -1447 0
-1412 -1454 0
-1412 -362 0
-1440 -1447 0
-1440 -1454 0
-1440 -362 0
-1447 -1454 0
-1447 -362 0
-1454 -362 0
1413 1434 1455 1462 461 85 97 0
-1413 -1434 0
-1413 -1455 0
-1413 -1462 0
-1413 -461 0
-1413 -85 0
-1413 -97 0
-1434 -1455 0
-1434 -1462 0
-1434 -461 0
-1434 -85 0
-1434 -97 0
-1455 -1462 0
-1455 -461 0
-1455 -85 0
-1455 -97 0
-1462 -461 0
-1462 -85 0
-1462 -97 0
-461 -85 0
-461 -97 0
-85 -97 0
1414 1435 1456 1463 462 86 98 0
-1414 -1435 0
-1414 -1456 0
-1414 -1463 0
-1414 -462 0
-1414 -86 0
-1414 -98 0
-1435 -1456 0
-1435 -1463 0
-1435 -462 0
-1435 -86 0
-1435 -98 0
-1456 -1463 0
-1456 -462 0
-1456 -86 0
-1456 -98 0
-1463 -462 0
-1463 -86 0
-1463 -98 0
-462 -86 0
-462 -98 0
-86 -98 0
1415 1436 1457 1464 463 87 99 0
-1415 -1436 0
-1415 -1457 0
-1415 -1464 0
-1415 -463 0
-1415 -87 0
-1415 -99 0
-1436 -1457 0
-1436 -1464 0
-1436 -463 0
-1436 -87 0
-1436 -99 0
-1457 -1464 0
-1457 -463 0
-1457 -87 0
-1457 -99 0
-1464 -463 0
-1464 -87 0
-1464 -99 0
-463 -87 0
-463 -99 0
-87 -99 0
1416 1437 1458 1465 464 88 100 0
-1416 -1437 0
-1416 -1458 0
-1416 -1465 0
-1416 -464 0
-1416 -88 0
-1416 -100 0
-1437 -1458 0
-1437 -1465 0
-1437 -464 0
-1437 -88 0
-1437 -100 0
-1458 -1465 0
-1458 -464 0
-1458 -88 0
-1458 -100 0
-1465 -464 0
-1465 -88 0
-1465 -100 0
-464 -88 0
-464 -100 0
-88 -100 0
1417 1438 1459 1466 465 89 101 0
-1417 -1438 0
-1417 -1459 0
-1417 -1466 0
-1417 -465 0
-1417 -89 0
-1417 -101 0
-1438 -1459 0
-1438 -1466 0
-1438 -465 0
-1438 -89 0
-1438 -101 0
-1459 -1466 0
-1459 -465 0
-1459 -89 0
-1459 -101 0
-1466 -465 0
-1466 -89 0
-1466 -101 0
-465 -89 0
-465 -101 0
-89 -101 0
1418 1439 1460 1467 466 90 102 0
-1418 -1439 0
-1418 -1460 0
-1418 -1467 0
-1418 -466 0
-1418 -90 0
-1418 -102 0
-1439 -1460 0
-1439 -1467 0
-1439 -466 0
-1439 -90 0
-1439 -102 0
-1460 -1467 0
-1460 -466 0
-1460 -90 0
-1460 -102 0
-1467 -466 0
-1467 -90 0
-1467 -102 0
-466 -90 0
-466 -102 0
-90 -102 0
1419 1440 1461 1468 467 0
-1419 -1440 0
-1419 -1461 0
-1419 -1468 0
-1419 -467 0
-1440 -1461 0
-1440 -1468 0
-1440 -467 0
-1461 -1468 0
-1461 -467 0
-1468 -467 0
1420 1441 1455 1469 566 121 133 0
-1420 -1441 0
-1420 -1455 0
-1420 -1469 0
-1420 -566 0
-1420 -121 0
-1420 -133 0
-1441 -1455 0
-1441 -1469 0
-1441 -566 0
-1441 -121 0
-1441 -133 0
-1455 -1469 0
-1455 -566 0
-1455 -121 0
-1455 -133 0
-1469 -566 0
-1469 -121 0
-1469 -133 0
-566 -121 0
-566 -133 0
-121 -133 0
1421 1442 1456 1470 567 122 134 0
-1421 -1442 0
-1421 -1456 0
-1421 -1470 0
-1421 -567 0
-1421 -122 0
-1421 -134 0
-1442 -1456 0
-1442 -1470 0
-1442 -567 0
-1442 -122 0
-1442 -134 0
-1456 -1470 0
-1456 -567 0
-1456 -122 0
-1456 -134 0
-1470 -567 0
-1470 -122 0
-1470 -134 0
-567 -122 0
-567 -134 0
-122 -134 0
1422 1443 1457 1471 568 123 135 0
-1422 -1443 0
-1422 -1457 0
-1422 -1471 0
-1422 -568 0
-1422 -123 0
-1422 -135 0
-1443 -1457 0
-1443 -1471 0
-1443 -568 0
-1443 -123 0
-1443 -135 0
-1457 -1471 0
-1457 -568 0
-1457 -123 0
-1457 -135 0
-1471 -568 0
-1471 -123 0
-1471 -135 0
-568 -123 0
-568 -135 0
-123 -135 0
1423 1444 1458 1472 569 124 136 0
-1423 -1444 0
-1423 -1458 0
-1423 -1472 0
-1423 -569 0
-1423 -124 0
-1423 -136 0
-1444 -1458 0
-1444 -1472 0
-1444 -569 0
-1444 -124 0
-1444 -136 0
-1458 -1472 0
-1458 -569 0
-1458 -124 0
-1458 -136 0
-1472 -569 0
-1472 -124 0
-1472 -136 0
-569 -124 0
-569 -136 0
-124 -136 0
1424 1445 1459 1473 570 125 137 0
-1424 -1445 0
-1424 -1459 0
-1424 -1473 0
-1424 -570 0
-1424 -125 0
-1424 -137 0
-1445 -1459 0
-1445 -1473 0
-1445 -570 0
-1445 -125 0
-1445 -137 0
-1459 -1473 0
-1459 -570 0
-1459 -125 0
-1459 -137 0
-1473 -570 0
-1473 -125 0
-1473 -137 0
-570 -125 0
-570 -137 0
-125 -137 0
1425 1446 1460 1474 571 126 138 0
-1425 -1446 0
-1425 -1460 0
-1425 -1474 0
-1425 -571 0
-1425 -126 0
-1425 -138 0
-1446 -1460 0
-1446 -1474 0
-1446 -571 0
-1446 -126 0
-1446 -138 0
-1460 -1474 0
-1460 -571 0
-1460 -126 0
-1460 -138 0
-1474 -571 0
-1474 -126 0
-1474 -138 0
-571 -126 0
-571 -138 0
-126 -138 0
1426 1447 1461 1475 572 0
-1426 -1447 0
-1426 -1461 0
-1426 -1475 0
-1426 -572 0
-1447 -1461 0
-1447 -1475 0
-1447 -572 0
-1461 -1475 0
-1461 -572 0
-1475 -572 0
1427 1448 1462 1469 671 157 169 0
-1427 -1448 0
-1427 -1462 0
-1427 -1469 0
-1427 -671 0
-1427 -157 0
-1427 -169 0
-1448 -1462 0
-1448 -1469 0
-1448 -671 0
-1448 -157 0
-1448 -169 0
-1462 -1469 0
-1462 -671 0
-1462 -157 0
-1462 -169 0
-1469 -671 0
-1469 -157 0
-1469 -169 0
-671 -157 0
-671 -169 0
-157 -169 0
1428 1449 1463 1470 672 158 170 0
-1428 -1449 0
-1428 -1463 0
-1428 -1470 0
-1428 -672 0
-1428 -158 0
-1428 -170 0
-1449 -1463 0
-1449 -1470 0
-1449 -672 0
-1449 -158 0
-1449 -170 0
-1463 -1470 0
-1463 -672 0
-1463 -158 0
-1463 -170 0
-1470 -672 0
-1470 -158 0
-1470 -170 0
-672 -158 0
-672 -170 0
-158 -170 0
1429 1450 1464 1471 673 159 171 0
-1429 -1450 0
-1429 -1464 0
-1429 -1471 0
-1429 -673 0
-1429 -159 0
-1429 -171 0
-1450 -1464 0
-1450 -1471 0
-1450 -673 0
-1450 -159 0
-1450 -171 0
-1464 -1471 0
-1464 -673 0
-1464 -159 0
-1464 -171 0
-1471 -673 0
-1471 -159 0
-1471 -171 0
-673 -159 0
-673 -171 0
-159 -171 0
1430 1451 1465 1472 674 160 172 0
-1430 -1451 0
-1430 -1465 0
-1430 -1472 0
-1430 -674 0
-1430 -160 0
-1430 -172 0
-1451 -1465 0
-1451 -1472 0
-1451 -674 0
-1451 -160 0
-1451 -172 0
-1465 -1472 0
-1465 -674 0
-1465 -160 0
-1465 -172 0
-1472 -674 0
-1472 -160 0
-1472 -172 0
-674 -160 0
-674 -172 0
-160 -172 0
1431 1452 1466 1473 675 161 173 0
-1431 -1452 0
-1431 -1466 0
-1431 -1473 0
-1431 -675 0
-1431 -161 0
-1431 -173 0
-1452 -1466 0
-1452 -1473 0
-1452 -675 0
-1452 -161 0
-1452 -173 0
-1466 -1473 0
-1466 -675 0
-1466 -161 0
-1466 -173 0
-1473 -675 0
-1473 -161 0
-1473 -173 0
-675 -161 0
-675 -173 0
-161 -173 0
1432 1453 1467 1474 676 162 174 0
-1432 -1453 0
-1432 -1467 0
-1432 -1474 0
-1432 -676 0
-1432 -162 0
-1432 -174 0
-1453 -1467 0
-1453 -1474 0
-1453 -676 0
-1453 -162 0
-1453 -174 0
-1467 -1474 0
-1467 -676 0
-1467 -162 0
-1467 -174 0
-1474 -676 0
-1474 -162 0
-1474 -174 0
-676 -162 0
-676 -174 0
-162 -174 0
1433 1454 1468 1475 677 0
-1433 -1454 0
-1433 -1468 0
-1433 -1475 0
-1433 -677 0
-1454 -1468 0
-1454 -1475 0
-1454 -677 0
-1468 -1475 0
-1468 -677 0
-1475 -677 0
1476 1483 1490 1497 258 13 31 0
-1476 -1483 0
-1476 -1490 0
-1476 -1497 0
-1476 -258 0
-1476 -13 0
-1476 -31 0
-1483 -1490 0
-1483 -1497 0
-1483 -258 0
-1483 -13 0
-1483 -31 0
-1490 -1497 0
-1490 -258 0
-1490 -13 0
-1490 -31 0
-1497 -258 0
-1497 -13 0
-1497 -31 0
-258 -13 0
-258 -31 0
-13 -31 0
1477 1484 1491 1498 259 14 32 0
-1477 -1484 0
-1477 -1491 0
-1477 -1498 0
-1477 -259 0
-1477 -14 0
-1477 -32 0
-1484 -1491 0
-1484 -1498 0
-1484 -259 0
-1484 -14 0
-1484 -32 0
-1491 -1498 0
-1491 -259 0
-1491 -14 0
-1491 -32 0
-1498 -259 0
-1498 -14 0
-1498 -32 0
-259 -14 0
-259 -32 0
-14 -32 0
1478 1485 1492 1499 260 15 33 0
-1478 -1485 0
-1478 -1492 0
-1478 -1499 0
-1478 -260 0
-1478 -15 0
-1478 -33 0
-1485 -1492 0
-1485 -1499 0
-1485 -260 0
-1485 -15 0
-1485 -33 0
-1492 -1499 0
-1492 -260 0
-1492 -15 0
-1492 -33 0
-1499 -260 0
-1499 -15 0
-1499 -33 0
-260 -15 0
-260 -33 0
-15 -33 0
1479 1486 1493 1500 261 16 34 0
-1479 -1486 0
-1479 -1493 0
-1479 -1500 0
-1479 -261 0
-1479 -16 0
-1479 -34 0
-1486 -1493 0
-1486 -1500 0
-1486 -261 0
-1486 -16 0
-1486 -34 0
-1493 -1500 0
-1493 -261 0
-1493 -16 0
-1493 -34 0
-1500 -261 0
-1500 -16 0
-1500 -34 0
-261 -16 0
-261 -34 0
-16 -34 0
1480 1487 1494 1501 262 17 35 0
-1480 -1487 0
-1480 -1494 0
-1480 -1501 0
-1480 -262 0
-1480 -17 0
-1480 -35 0
-1487 -1494 0
-1487 -1501 0
-1487 -262 0
-1487 -17 0
-1487 -35 0
-1494 -1501 0
-1494 -262 0
-1494 -17 0
-1494 -35 0
-1501 -262 0
-1501 -17 0
-1501 -35 0
-262 -17 0
-262 -35 0
-17 -35 0
1481 1488 1495 1502 263 18 36 0
-1481 -1488 0
-1481 -1495 0
-1481 -1502 0
-1481 -263 0
-1481 -18 0
-1481 -36 0
-1488 -1495 0
-1488 -1502 0
-1488 -263 0
-1488 -18 0
-1488 -36 0
-1495 -1502 0
-1495 -263 0
-1495 -18 0
-1495 -36 0
-1502 -263 0
-1502 -18 0
-1502 -36 0
-263 -18 0
-263 -36 0
-18 -36 0
1482 1489 1496 1503 264 0
-1482 -1489 0
-1482 -1496 0
-1482 -1503 0
-1482 -264 0
-1489 -1496 0
-1489 -1503 0
-1489 -264 0
-1496 -1503 0
-1496 -264 0
-1503 -264 0
1476 1504 1511 1518 363 49 67 0
-1476 -1504 0
-1476 -1511 0
-1476 -1518 0
-1476 -363 0
-1476 -49 0
-1476 -67 0
-1504 -1511 0
-1504 -1518 0
-1504 -363 0
-1504 -49 0
-1504 -67 0
-1511 -1518 0
-1511 -363 0
-1511 -49 0
-1511 -67 0
-1518 -363 0
-1518 -49 0
-1518 -67 0
-363 -49 0
-363 -67 0
-49 -67 0
1477 1505 1512 1519 364 50 68 0
-1477 -1505 0
-1477 -1512 0
-1477 -1519 0
-1477 -364 0
-1477 -50 0
-1477 -68 0
-1505 -1512 0
-1505 -1519 0
-1505 -364 0
-1505 -50 0
-1505 -68 0
-1512 -1519 0
-1512 -364 0
-1512 -50 0
-1512 -68 0
-1519 -364 0
-1519 -50 0
-1519 -68 0
-364 -50 0
-364 -68 0
-50 -68 0
1478 1506 1513 1520 365 51 69 0
-1478 -1506 0
-1478 -1513 0
-1478 -1520 0
-1478 -365 0
-1478 -51 0
-1478 -69 0
-1506 -1513 0
-1506 -1520 0
-1506 -365 0
-1506 -51 0
-1506 -69 0
-1513 -1520 0
-1513 -365 0
-1513 -51 0
-1513 -69 0
-1520 -365 0
-1520 -51 0
-1520 -69 0
-365 -51 0
-365 -69 0
-51 -69 0
1479 1507 1514 1521 366 52 70 0
-1479 -1507 0
-1479 -1514 0
-1479 -1521 0
-1479 -366 0
-1479 -52 0
-1479 -70 0
-1507 -1514 0
-1507 -1521 0
-1507 -366 0
-1507 -52 0
-1507 -70 0
-1514 -1521 0
-1514 -366 0
-1514 -52 0
-1514 -70 0
-1521 -366 0
-1521 -52 0
-1521 -70 0
-366 -52 0
-366 -70 0
-52 -70 0
1480 1508 1515 1522 367 53 71 0
-1480 -1508 0
-1480 -1515 0
-1480 -1522 0
-1480 -367 0
-1480 -53 0
-1480 -71 0
-1508 -1515 0
-1508 -1522 0
-1508 -367 0
-1508 -53 0
-1508 -71 0
-1515 -1522 0
-1515 -367 0
-1515 -53 0
-1515 -71 0
-1522 -367 0
-1522 -53 0
-1522 -71 0
-367 -53 0
-367 -71 0
-53 -71 0
1481 1509 1516 1523 368 54 72 0
-1481 -1509 0
-1481 -1516 0
-1481 -1523 0
-1481 -368 0
-1481 -54 0
-1481 -72 0
-1509 -1516 0
-1509 -1523 0
-1509 -368 0
-1509 -54 0
-1509 -72 0
-1516 -1523 0
-1516 -368 0
-1516 -54 0
-1516 -72 0
-1523 -368 0
-1523 -54 0
-1523 -72 0
-368 -54 0
-368 -72 0
-54 -72 0
1482 1510 1517 1524 369 0
-1482 -1510 0
-1482 -1517 0
-1482 -1524 0
-1482 -369 0
-1510 -1517 0
-1510 -1524 0
-1510 -369 0
-1517 -1524 0
-1517 -369 0
-1524 -369 0
1483 1504 1525 1532 468 85 103 0
-1483 -1504 0
-1483 -1525 0
-1483 -1532 0
-1483 -468 0
-1483 -85 0
-1483 -103 0
-1504 -1525 0
-1504 -1532 0
-1504 -468 0
-1504 -85 0
-1504 -103 0
-1525 -1532 0
-1525 -468 0
-1525 -85 0
-1525 -103 0
-1532 -468 0
-1532 -85 0
-1532 -103 0
-468 -85 0
-468 -103 0
-85 -103 0
1484 1505 1526 1533 469 86 104 0
-1484 -1505 0
-1484 -1526 0
-1484 -1533 0
-1484 -469 0
-1484 -86 0
-1484 -104 0
-1505 -1526 0
-1505 -1533 0
-1505 -469 0
-1505 -86 0
-1505 -104 0
-1526 -1533 0
-1526 -469 0
-1526 -86 0
-1526 -104 0
-1533 -469 0
-1533 -86 0
-1533 -104 0
-469 -86 0
-469 -104 0
-86 -104 0
1485 1506 1527 1534 470 87 105 0
-1485 -1506 0
-1485 -1527 0
-1485 -1534 0
-1485 -470 0
-1485 -87 0
-1485 -105 0
-1506 -1527 0
-1506 -1534 0
-1506 -470 0
-1506 -87 0
-1506 -105 0
-1527 -1534 0
-1527 -470 0
-1527 -87 0
-1527 -105 0
-1534 -470 0
-1534 -87 0
-1534 -105 0
-470 -87 0
-470 -105 0
-87 -105 0
1486 1507 1528 1535 471 88 106 0
-1486 -1507 0
-1486 -1528 0
-1486 -1535 0
-1486 -471 0
-1486 -88 0
-1486 -106 0
-1507 -1528 0
-1507 -1535 0
-1507 -471 0
-1507 -88 0
-1507 -106 0
-1528 -1535 0
-1528 -471 0
-1528 -88 0
-1528 -106 0
-1535 -471 0
-1535 -88 0
-1535 -106 0
-471 -88 0
-471 -106 0
-88 -106 0
1487 1508 1529 1536 472 89 107 0
-1487 -1508 0
-1487 -1529 0
-1487 -1536 0
-1487 -472 0
-1487 -89 0
-1487 -107 0
-1508 -1529 0
-1508 -1536 0
-1508 -472 0
-1508 -89 0
-1508 -107 0
-1529 -1536 0
-1529 -472 0
-1529 -89 0
-1529 -107 0
-1536 -472 0
-1536 -89 0
-1536 -107 0
-472 -89 0
-472 -107 0
-89 -107 0
1488 1509 1530 1537 473 90 108 0
-1488 -1509 0
-1488 -1530 0
-1488 -1537 0
-1488 -473 0
-1488 -90 0
-1488 -108 0
-1509 -1530 0
-1509 -1537 0
-1509 -473 0
-1509 -90 0
-1509 -108 0
-1530 -1537 0
-1530 -473 0
-1530 -90 0
-1530 -108 0
-1537 -473 0
-1537 -90 0
-1537 -108 0
-473 -90 0
-473 -108 0
-90 -108 0
1489 1510 1531 1538 474 0
-1489 -1510 0
-1489 -1531 0
-1489 -1538 0
-1489 -474 0
-1510 -1531 0
-1510 -1538 0
-1510 -474 0
-1531 -1538 0
-1531 -474 0
-1538 -474 0
1490 1511 1525 1539 573 121 139 0
-1490 -1511 0
-1490 -1525 0
-1490 -1539 0
-1490 -573 0
-1490 -121 0
-1490 -139 0
-1511 -1525 0
-1511 -1539 0
-1511 -573 0
-1511 -121 0
-1511 -139 0
-1525 -1539 0
-1525 -573 0
-1525 -121 0
-1525 -139 0
-1539 -573 0
-1539 -121 0
-1539 -139 0
-573 -121 0
-573 -139 0
-121 -139 0
1491 1512 1526 1540 574 122 140 0
-1491 -1512 0
-1491 -1526 0
-1491 -1540 0
-1491 -574 0
-1491 -122 0
-1491 -140 0
-1512 -1526 0
-1512 -1540 0
-1512 -574 0
-1512 -122 0
-1512 -140 0
-1526 -1540 0
-1526 -574 0
-1526 -122 0
-1526 -140 0
-1540 -574 0
-1540 -122 0
-1540 -140 0
-574 -122 0
-574 -140 0
-122 -140 0
1492 1513 1527 1541 575 123 141 0
-1492 -1513 0
-1492 -1527 0
-1492 -1541 0
-1492 -575 0
-1492 -123 0
-1492 -141 0
-1513 -1527 0
-1513 -1541 0
-1513 -575 0
-1513 -123 0
-1513 -141 0
-1527 -1541 0
-1527 -575 0
-1527 -123 0
-1527 -141 0
-1541 -575 0
-1541 -123 0
-1541 -141 0
-575 -123 0
-575 -141 0
-123 -141 0
1493 1514 1528 1542 576 124 142 0
-1493 -1514 0
-1493 -1528 0
-1493 -1542 0
-1493 -576 0
-1493 -124 0
-1493 -142 0
-1514 -1528 0
-1514 -1542 0
-1514 -576 0
-1514 -124 0
-1514 -142 0
-1528 -1542 0
-1528 -576 0
-1528 -124 0
-1528 -142 0
-1542 -576 0
-1542 -124 0
-1542 -142 0
-576 -124 0
-576 -142 0
-124 -142 0
1494 1515 1529 1543 577 125 143 0
-1494 -1515 0
-1494 -1529 0
-1494 -1543 0
-1494 -577 0
-1494 -125 0
-1494 -143 0
-1515 -1529 0
-1515 -1543 0
-1515 -577 0
-1515 -125 0
-1515 -143 0
-1529 -1543 0
-1529 -577 0
-1529 -125 0
-1529 -143 0
-1543 -577 0
-1543 -125 0
-1543 -143 0
-577 -125 0
-577 -143 0
-125 -143 0
1495 1516 1530 1544 578 126 144 0
-1495 -1516 0
-1495 -1530 0
-1495 -1544 0
-1495 -578 0
-1495 -126 0
-1495 -144 0
-1516 -1530 0
-1516 -1544 0
-1516 -578 0
-1516 -126 0
-1516 -144 0
-1530 -1544 0
-1530 -578 0
-1530 -126 0
-1530 -144 0
-1544 -578 0
-1544 -126 0
-1544 -144 0
-578 -126 0
-578 -144 0
-126 -144 0
1496 1517 1531 1545 579 0
-1496 -1517 0
-1496 -1531 0
-1496 -1545 0
-1496 -579 0
-1517 -1531 0
-1517 -1545 0
-1517 -579 0
-1531 -1545 0
-1531 -579 0
-1545 -579 0
1497 1518 1532 1539 678 157 175 0
-1497 -1518 0
-1497 -1532 0
-1497 -1539 0
-1497 -678 0
-1497 -157 0
-1497 -175 0
-1518 -1532 0
-1518 -1539 0
-1518 -678 0
-1518 -157 0
-1518 -175 0
-1532 -1539 0
-1532 -678 0
-1532 -157 0
-1532 -175 0
-1539 -678 0
-1539 -157 0
-1539 -175 0
-678 -157 0
-678 -175 0
-157 -175 0
1498 1519 1533 1540 679 158 176 0
-1498 -1519 0
-1498 -1533 0
-1498 -1540 0
-1498 -679 0
-1498 -158 0
-1498 -176 0
-1519 -1533 0
-1519 -1540 0
-1519 -679 0
-1519 -158 0
-1519 -176 0
-1533 -1540 0
-1533 -679 0
-1533 -158 0
-1533 -176 0
-1540 -679 0
-1540 -158 0
-1540 -176 0
-679 -158 0
-679 -176 0
-158 -176 0
1499 1520 1534 1541 680 159 177 0
-1499 -1520 0
-1499 -1534 0
-1499 -1541 0
-1499 -680 0
-1499 -159 0
-1499 -177 0
-1520 -1534 0
-1520 -1541 0
-1520 -680 0
-1520 -159 0
-1520 -177 0
-1534 -1541 0
-1534 -680 0
-1534 -159 0
-1534 -177 0
-1541 -680 0
-1541 -159 0
-1541 -177 0
-680 -159 0
-680 -177 0
-159 -177 0
1500 1521 1535 1542 681 160 178 0
-1500 -1521 0
-1500 -1535 0
-1500 -1542 0
-1500 -681 0
-1500 -160 0
-1500 -178 0
-1521 -1535 0
-1521 -1542 0
-1521 -681 0
-1521 -160 0
-1521 -178 0
-1535 -1542 0
-1535 -681 0
-1535 -160 0
-1535 -178 0
-1542 -681 0
-1542 -160 0
-1542 -178 0
-681 -160 0
-681 -178 0
-160 -178 0
1501 1522 1536 1543 682 161 179 0
-1501 -1522 0
-1501 -1536 0
-1501 -1543 0
-1501 -682 0
-1501 -161 0
-1501 -179 0
-1522 -1536 0
-1522 -1543 0
-1522 -682 0
-1522 -161 0
-1522 -179 0
-1536 -1543 0
-1536 -682 0
-1536 -161 0
-1536 -179 0
-1543 -682 0
-1543 -161 0
-1543 -179 0
-682 -161 0
-682 -179 0
-161 -179 0
1502 1523 1537 1544 683 162 180 0
-1502 -1523 0
-1502 -1537 0
-1502 -1544 0
-1502 -683 0
-1502 -162 0
-1502 -180 0
-1523 -1537 0
-1523 -1544 0
-1523 -683 0
-1523 -162 0
-1523 -180 0
-1537 -1544 0
-1537 -683 0
-1537 -162 0
-1537 -180 0
-1544 -683 0
-1544 -162 0
-1544 -180 0
-683 -162 0
-683 -180 0
-162 -180 0
1503 1524 1538 1545 684 0
-1503 -1524 0
-1503 -1538 0
-1503 -1545 0
-1503 -684 0
-1524 -1538 0
-1524 -1545 0
-1524 -684 0
-1538 -1545 0
-1538 -684 0
-1545 -684 0
1546 1553 1560 1567 265 19 25 0
-1546 -1553 0
-1546 -1560 0
-1546 -1567 0
-1546 -265 0
-1546 -19 0
-1546 -25 0
-1553 -1560 0
-1553 -1567 0
-1553 -265 0
-1553 -19 0
-1553 -25 0
-1560 -1567 0
-1560 -265 0
-1560 -19 0
-1560 -25 0
-1567 -265 0
-1567 -19 0
-1567 -25 0
-265 -19 0
-265 -25 0
-19 -25 0
1547 1554 1561 1568 266 20 26 0
-1547 -1554 0
-1547 -1561 0
-1547 -1568 0
-1547 -266 0
-1547 -20 0
-1547 -26 0
-1554 -1561 0
-1554 -1568 0
-1554 -266 0
-1554 -20 0
-1554 -26 0
-1561 -1568 0
-1561 -266 0
-1561 -20 0
-1561 -26 0
-1568 -266 0
-1568 -20 0
-1568 -26 0
-266 -20 0
-266 -26 0
-20 -26 0
1548 1555 1562 1569 267 21 27 0
-1548 -1555 0
-1548 -1562 0
-1548 -1569 0
-1548 -267 0
-1548 -21 0
-1548 -27 0
-1555 -1562 0
-1555 -1569 0
-1555 -267 0
-1555 -21 0
-1555 -27 0
-1562 -1569 0
-1562 -267 0
-1562 -21 0
-1562 -27 0
-1569 -267 0
-1569 -21 0
-1569 -27 0
-267 -21 0
-267 -27 0
-21 -27 0
1549 1556 1563 1570 268 22 28 0
-1549 -1556 0
-1549 -1563 0
-1549 -1570 0
-1549 -268 0
-1549 -22 0
-1549 -28 0
-1556 -1563 0
-1556 -1570 0
-1556 -268 0
-1556 -22 0
-1556 -28 0
-1563 -1570 0
-1563 -268 0
-1563 -22 0
-1563 -28 0
-1570 -268 0
-1570 -22 0
-1570 -28 0
-268 -22 0
-268 -28 0
-22 -28 0
1550 1557 1564 1571 269 23 29 0
-1550 -1557 0
-1550 -1564 0
-1550 -1571 0
-1550 -269 0
-1550 -23 0
-1550 -29 0
-1557 -1564 0
-1557 -1571 0
-1557 -269 0
-1557 -23 0
-1557 -29 0
-1564 -1571 0
-1564 -269 0
-1564 -23 0
-1564 -29 0
-1571 -269 0
-1571 -23 0
-1571 -29 0
-269 -23 0
-269 -29 0
-23 -29 0
1551 1558 1565 1572 270 24 30 0
-1551 -1558 0
-1551 -1565 0
-1551 -1572 0
-1551 -270 0
-1551 -24 0
-1551 -30 0
-1558 -1565 0
-1558 -1572 0
-1558 -270 0
-1558 -24 0
-1558 -30 0
-1565 -1572 0
-1565 -270 0
-1565 -24 0
-1565 -30 0
-1572 -270 0
-1572 -24 0
-1572 -30 0
-270 -24 0
-270 -30 0
-24 -30 0
1552 1559 1566 1573 271 0
-1552 -1559 0
-1552 -1566 0
-1552 -1573 0
-1552 -271 0
-1559 -1566 0
-1559 -1573 0
-1559 -271 0
-1566 -1573 0
-1566 -271 0
-1573 -271 0
1546 1574 1581 1588 370 55 61 0
-1546 -1574 0
-1546 -1581 0
-1546 -1588 0
-1546 -370 0
-1546 -55 0
-1546 -61 0
-1574 -1581 0
-1574 -1588 0
-1574 -370 0
-1574 -55 0
-1574 -61 0
-1581 -1588 0
-1581 -370 0
-1581 -55 0
-1581 -61 0
-1588 -370 0
-1588 -55 0
-1588 -61 0
-370 -55 0
-370 -61 0
-55 -61 0
1547 1575 1582 1589 371 56 62 0
-1547 -1575 0
-1547 -1582 0
-1547 -1589 0
-1547 -371 0
-1547 -56 0
-1547 -62 0
-1575 -1582 0
-1575 -1589 0
-1575 -371 0
-1575 -56 0
-1575 -62 0
-1582 -1589 0
-1582 -371 0
-1582 -56 0
-1582 -62 0
-1589 -371 0
-1589 -56 0
-1589 -62 0
-371 -56 0
-371 -62 0
-56 -62 0
1548 1576 1583 1590 372 57 63 0
-1548 -1576 0
-1548 -1583 0
-1548 -1590 0
-1548 -372 0
-1548 -57 0
-1548 -63 0
-1576 -1583 0
-1576 -1590 0
-1576 -372 0
-1576 -57 0
-1576 -63 0
-1583 -1590 0
-1583 -372 0
-1583 -57 0
-1583 -63 0
-1590 -372 0
-1590 -57 0
-1590 -63 0
-372 -57 0
-372 -63 0
-57 -63 0
1549 1577 1584 1591 373 58 64 0
-1549 -1577 0
-1549 -1584 0
-1549 -1591 0
-1549 -373 0
-1549 -58 0
-1549 -64 0
-1577 -1584 0
-1577 -1591 0
-1577 -373 0
-1577 -58 0
-1577 -64 0
-1584 -1591 0
-1584 -373 0
-1584 -58 0
-1584 -64 0
-1591 -373 0
-1591 -58 0
-1591 -64 0
-373 -58 0
-373 -64 0
-58 -64 0
1550 1578 1585 1592 374 59 65 0
-1550 -1578 0
-1550 -1585 0
-1550 -1592 0
-1550 -374 0
-1550 -59 0
-1550 -65 0
-1578 -1585 0
-1578 -1592 0
-1578 -374 0
-1578 -59 0
-1578 -65 0
-1585 -1592 0
-1585 -374 0
-1585 -59 0
-1585 -65 0
-1592 -374 0
-1592 -59 0
-1592 -65 0
-374 -59 0
-374 -65 0
-59 -65 0
1551 1579 1586 1593 375 60 66 0
-1551 -1579 0
-1551 -1586 0
-1551 -1593 0
-1551 -375 0
-1551 -60 0
-1551 -66 0
-1579 -1586 0
-1579 -1593 0
-1579 -375 0
-1579 -60 0
-1579 -66 0
-1586 -1593 0
-1586 -375 0
-1586 -60 0
-1586 -66 0
-1593 -375 0
-1593 -60 0
-1593 -66 0
-375 -60 0
-375 -66 0
-60 -66 0
1552 1580 1587 1594 376 0
-1552 -1580 0
-1552 -1587 0
-1552 -1594 0
-1552 -376 0
-1580 -1587 0
-1580 -1594 0
-1580 -376 0
-1587 -1594 0
-1587 -376 0
-1594 -376 0
1553 1574 1595 1602 475 91 97 0
-1553 -1574 0
-1553 -1595 0
-1553 -1602 0
-1553 -475 0
-1553 -91 0
-1553 -97 0
-1574 -1595 0
-1574 -1602 0
-1574 -475 0
-1574 -91 0
-1574 -97 0
-1595 -1602 0
-1595 -475 0
-1595 -91 0
-1595 -97 0
-1602 -475 0
-1602 -91 0
-1602 -97 0
-475 -91 0
-475 -97 0
-91 -97 0
1554 1575 1596 1603 476 92 98 0
-1554 -1575 0
-1554 -1596 0
-1554 -1603 0
-1554 -476 0
-1554 -92 0
-1554 -98 0
-1575 -1596 0
-1575 -1603 0
-1575 -476 0
-1575 -92 0
-1575 -98 0
-1596 -1603 0
-1596 -476 0
-1596 -92 0
-1596 -98 0
-1603 -476 0
-1603 -92 0
-1603 -98 0
-476 -92 0
-476 -98 0
-92 -98 0
1555 1576 1597 1604 477 93 99 0
-1555 -1576 0
-1555 -1597 0
-1555 -1604 0
-1555 -477 0
-1555 -93 0
-1555 -99 0
-1576 -1597 0
-1576 -1604 0
-1576 -477 0
-1576 -93 0
-1576 -99 0
-1597 -1604 0
-1597 -477 0
-1597 -93 0
-1597 -99 0
-1604 -477 0
-1604 -93 0
-1604 -99 0
-477 -93 0
-477 -99 0
-93 -99 0
1556 1577 1598 1605 478 94 100 0
-1556 -1577 0
-1556 -1598 0
-1556 -1605 0
-1556 -478 0
-1556 -94 0
-1556 -100 0
-1577 -1598 0
-1577 -1605 0
-1577 -478 0
-1577 -94 0
-1577 -100 0
-1598 -1605 0
-1598 -478 0
-1598 -94 0
-1598 -100 0
-1605 -478 0
-1605 -94 0
-1605 -100 0
-478 -94 0
-478 -100 0
-94 -100 0
1557 1578 1599 1606 479 95 101 0
-1557 -1578 0
-1557 -1599 0
-1557 -1606 0
-1557 -479 0
-1557 -95 0
-1557 -101 0
-1578 -1599 0
-1578 -1606 0
-1578 -479 0
-1578 -95 0
-1578 -101 0
-1599 -1606 0
-1599 -479 0
-1599 -95 0
-1599 -101 0
-1606 -479 0
-1606 -95 0
-1606 -101 0
-479 -95 0
-479 -101 0
-95 -101 0
1558 1579 1600 1607 480 96 102 0
-1558 -1579 0
-1558 -1600 0
-1558 -1607 0
-1558 -480 0
-1558 -96 0
-1558 -102 0
-1579 -1600 0
-1579 -1607 0
-1579 -480 0
-1579 -96 0
-1579 -102 0
-1600 -1607 0
-1600 -480 0
-1600 -96 0
-1600 -102 0
-1607 -480 0
-1607 -96 0
-1607 -102 0
-480 -96 0
-480 -102 0
-96 -102 0
1559 1580 1601 1608 481 0
-1559 -1580 0
-1559 -1601 0
-1559 -1608 0
-1559 -481 0
-1580 -1601 0
-1580 -1608 0
-1580 -481 0
-1601 -1608 0
-1601 -481 0
-1608 -481 0
1560 1581 1595 1609 580 127 133 0
-1560 -1581 0
-1560 -1595 0
-1560 -1609 0
-1560 -580 0
-1560 -127 0
-1560 -133 0
-1581 -1595 0
-1581 -1609 0
-1581 -580 0
-1581 -127 0
-1581 -133 0
-1595 -1609 0
-1595 -580 0
-1595 -127 0
-1595 -133 0
-1609 -580 0
-1609 -127 0
-1609 -133 0
-580 -127 0
-580 -133 0
-127 -133 0
1561 1582 1596 1610 581 128 134 0
-1561 -1582 0
-1561 -1596 0
-1561 -1610 0
-1561 -581 0
-1561 -128 0
-1561 -134 0
-1582 -1596 0
-1582 -1610 0
-1582 -581 0
-1582 -128 0
-1582 -134 0
-1596 -1610 0
-1596 -581 0
-1596 -128 0
-1596 -134 0
-1610 -581 0
-1610 -128 0
-1610 -134 0
-581 -128 0
-581 -134 0
-128 -134 0
1562 1583 1597 1611 582 129 135 0
-1562 -1583 0
-1562 -1597 0
-1562 -1611 0
-1562 -582 0
-1562 -129 0
-1562 -135 0
-1583 -1597 0
-1583 -1611 0
-1583 -582 0
-1583 -129 0
-1583 -135 0
-1597 -1611 0
-1597 -582 0
-1597 -129 0
-1597 -135 0
-1611 -582 0
-1611 -129 0
-1611 -135 0
-582 -129 0
-582 -135 0
-129 -135 0
1563 1584 1598 1612 583 130 136 0
-1563 -1584 0
-1563 -1598 0
-1563 -1612 0
-1563 -583 0
-1563 -130 0
-1563 -136 0
-1584 -1598 0
-1584 -1612 0
-1584 -583 0
-1584 -130 0
-1584 -136 0
-1598 -1612 0
-1598 -583 0
-1598 -130 0
-1598 -136 0
-1612 -583 0
-1612 -130 0
-1612 -136 0
-583 -130 0
-583 -136 0
-130 -136 0
1564 1585 1599 1613 584 131 137 0
-1564 -1585 0
-1564 -1599 0
-1564 -1613 0
-1564 -584 0
-1564 -131 0
-1564 -137 0
-1585 -1599 0
-1585 -1613 0
-1585 -584 0
-1585 -131 0
-1585 -137 0
-1599 -1613 0
-1599 -584 0
-1599 -131 0
-1599 -137 0
-1613 -584 0
-1613 -131 0
-1613 -137 0
-584 -131 0
-584 -137 0
-131 -137 0
1565 1586 1600 1614 585 132 138 0
-1565 -1586 0
-1565 -1600 0
-1565 -1614 0
-1565 -585 0
-1565 -132 0
-1565 -138 0
-1586 -1600 0
-1586 -1614 0
-1586 -585 0
-1586 -132 0
-1586 -138 0
-1600 -1614 0
-1600 -585 0
-1600 -132 0
-1600 -138 0
-1614 -585 0
-1614 -132 0
-1614 -138 0
-585 -132 0
-585 -138 0
-132 -138 0
1566 1587 1601 1615 586 0
-1566 -1587 0
-1566 -1601 0
-1566 -1615 0
-1566 -586 0
-1587 -1601 0
-1587 -1615 0
-1587 -586 0
-1601 -1615 0
-1601 -586 0
-1615 -586 0
1567 1588 1602 1609 685 163 169 0
-1567 -1588 0
-1567 -1602 0
-1567 -1609 0
-1567 -685 0
-1567 -163 0
-1567 -169 0
-1588 -1602 0
-1588 -1609 0
-1588 -685 0
-1588 -163 0
-1588 -169 0
-1602 -1609 0
-1602 -685 0
-1602 -163 0
-1602 -169 0
-1609 -685 0
-1609 -163 0
-1609 -169 0
-685 -163 0
-685 -169 0
-163 -169 0
1568 1589 1603 1610 686 164 170 0
-1568 -1589 0
-1568 -1603 0
-1568 -1610 0
-1568 -686 0
-1568 -164 0
-1568 -170 0
-1589 -1603 0
-1589 -1610 0
-1589 -686 0
-1589 -164 0
-1589 -170 0
-1603 -1610 0
-1603 -686 0
-1603 -164 0
-1603 -170 0
-1610 -686 0
-1610 -164 0
-1610 -170 0
-686 -164 0
-686 -170 0
-164 -170 0
1569 1590 1604 1611 687 165 171 0
-1569 -1590 0
-1569 -1604 0
-1569 -1611 0
-1569 -687 0
-1569 -165 0
-1569 -171 0
-1590 -1604 0
-1590 -1611 0
-1590 -687 0
-1590 -165 0
-1590 -171 0
-1604 -1611 0
-1604 -687 0
-1604 -165 0
-1604 -171 0
-1611 -687 0
-1611 -165 0
-1611 -171 0
-687 -165 0
-687 -171 0
-165 -171 0
1570 1591 1605 1612 688 166 172 0
-1570 -1591 0
-1570 -1605 0
-1570 -1612 0
-1570 -688 0
-1570 -166 0
-1570 -172 0
-1591 -1605 0
-1591 -1612 0
-1591 -688 0
-1591 -166 0
-1591 -172 0
-1605 -1612 0
-1605 -688 0
-1605 -166 0
-1605 -172 0
-1612 -688 0
-1612 -166 0
-1612 -172 0
-688 -166 0
-688 -172 0
-166 -172 0
1571 1592 1606 1613 689 167 173 0
-1571 -1592 0
-1571 -1606 0
-1571 -1613 0
-1571 -689 0
-1571 -167 0
-1571 -173 0
-1592 -1606 0
-1592 -1613 0
-1592 -689 0
-1592 -167 0
-1592 -173 0
-1606 -1613 0
-1606 -689 0
-1606 -167 0
-1606 -173 0
-1613 -689 0
-1613 -167 0
-1613 -173 0
-689 -167 0
-689 -173 0
-167 -173 0
1572 1593 1607 1614 690 168 174 0
-1572 -1593 0
-1572 -1607 0
-1572 -1614 0
-1572 -690 0
-1572 -168 0
-1572 -174 0
-1593 -1607 0
-1593 -1614 0
-1593 -690 0
-1593 -168 0
-1593 -174 0
-1607 -1614 0
-1607 -690 0
-1607 -168 0
-1607 -174 0
-1614 -690 0
-1614 -168 0
-1614 -174 0
-690 -168 0
-690 -174 0
-168 -174 0
1573 1594 1608 1615 691 0
-1573 -1594 0
-1573 -1608 0
-1573 -1615 0
-1573 -691 0
-1594 -1608 0
-1594 -1615 0
-1594 -691 0
-1608 -1615 0
-1608 -691 0
-1615 -691 0
1616 1623 1630 1637 272 19 31 0
-1616 -1623 0
-1616 -1630 0
-1616 -1637 0
-1616 -272 0
-1616 -19 0
-1616 -31 0
-1623 -1630 0
-1623 -1637 0
-1623 -272 0
-1623 -19 0
-1623 -31 0
-1630 -1637 0
-1630 -272 0
-1630 -19 0
-1630 -31 0
-1637 -272 0
-1637 -19 0
-1637 -31 0
-272 -19 0
-272 -31 0
-19 -31 0
1617 1624 1631 1638 273 20 32 0
-1617 -1624 0
-1617 -1631 0
-1617 -1638 0
-1617 -273 0
-1617 -20 0
-1617 -32 0
-1624 -1631 0
-1624 -1638 0
-1624 -273 0
-1624 -20 0
-1624 -32 0
-1631 -1638 0
-1631 -273 0
-1631 -20 0
-1631 -32 0
-1638 -273 0
-1638 -20 0
-1638 -32 0
-273 -20 0
-273 -32 0
-20 -32 0
1618 1625 1632 1639 274 21 33 0
-1618 -1625 0
-1618 -1632 0
-1618 -1639 0
-1618 -274 0
-1618 -21 0
-1618 -33 0
-1625 -1632 0
-1625 -1639 0
-1625 -274 0
-1625 -21 0
-1625 -33 0
-1632 -1639 0
-1632 -274 0
-1632 -21 0
-1632 -33 0
-1639 -274 0
-1639 -21 0
-1639 -33 0
-274 -21 0
-274 -33 0
-21 -33 0
1619 1626 1633 1640 275 22 34 0
-1619 -1626 0
-1619 -1633 0
-1619 -1640 0
-1619 -275 0
-1619 -22 0
-1619 -34 0
-1626 -1633 0
-1626 -1640 0
-1626 -275 0
-1626 -22 0
-1626 -34 0
-1633 -1640 0
-1633 -275 0
-1633 -22 0
-1633 -34 0
-1640 -275 0
-1640 -22 0
-1640 -34 0
-275 -22 0
-275 -34 0
-22 -34 0
1620 1627 1634 1641 276 23 35 0
-1620 -1627 0
-1620 -1634 0
-1620 -1641 0
-1620 -276 0
-1620 -23 0
-1620 -35 0
-1627 -1634 0
-1627 -1641 0
-1627 -276 0
-1627 -23 0
-1627 -35 0
-1634 -1641 0
-1634 -276 0
-1634 -23 0
-1634 -35 0
-1641 -276 0
-1641 -23 0
-1641 -35 0
-276 -23 0
-276 -35 0
-23 -35 0
1621 1628 1635 1642 277 24 36 0
-1621 -1628 0
-1621 -1635 0
-1621 -1642 0
-1621 -277 0
-1621 -24 0
-1621 -36 0
-1628 -1635 0
-1628 -1642 0
-1628 -277 0
-1628 -24 0
-1628 -36 0
-1635 -1642 0
-1635 -277 0
-1635 -24 0
-1635 -36 0
-1642 -277 0
-1642 -24 0
-1642 -36 0
-277 -24 0
-277 -36 0
-24 -36 0
1622 1629 1636 1643 278 0
-1622 -1629 0
-1622 -1636 0
-1622 -1643 0
-1622 -278 0
-1629 -1636 0
-1629 -1643 0
-1629 -278 0
-1636 -1643 0
-1636 -278 0
-1643 -278 0
1616 1644 1651 1658 377 55 67 0
-1616 -1644 0
-1616 -1651 0
-1616 -1658 0
-1616 -377 0
-1616 -55 0
-1616 -67 0
-1644 -1651 0
-1644 -1658 0
-1644 -377 0
-1644 -55 0
-1644 -67 0
-1651 -1658 0
-1651 -377 0
-1651 -55 0
-1651 -67 0
-1658 -377 0
-1658 -55 0
-1658 -67 0
-377 -55 0
-377 -67 0
-55 -67 0
1617 1645 1652 1659 378 56 68 0
-1617 -1645 0
-1617 -1652 0
-1617 -1659 0
-1617 -378 0
-1617 -56 0
-1617 -68 0
-1645 -1652 0
-1645 -1659 0
-1645 -378 0
-1645 -56 0
-1645 -68 0
-1652 -1659 0
-1652 -378 0
-1652 -56 0
-1652 -68 0
-1659 -378 0
-1659 -56 0
-1659 -68 0
-378 -56 0
-378 -68 0
-56 -68 0
1618 1646 1653 1660 379 57 69 0
-1618 -1646 0
-1618 -1653 0
-1618 -1660 0
-1618 -379 0
-1618 -57 0
-1618 -69 0
-1646 -1653 0
-1646 -1660 0
-1646 -379 0
-1646 -57 0
-1646 -69 0
-1653 -1660 0
-1653 -379 0
-1653 -57 0
-1653 -69 0
-1660 -379 0
-1660 -57 0
-1660 -69 0
-379 -57 0
-379 -69 0
-57 -69 0
1619 1647 1654 1661 380 58 70 0
-1619 -1647 0
-1619 -1654 0
-1619 -1661 0
-1619 -380 0
-1619 -58 0
-1619 -70 0
-1647 -1654 0
-1647 -1661 0
-1647 -380 0
-1647 -58 0
-1647 -70 0
-1654 -1661 0
-1654 -380 0
-1654 -58 0
-1654 -70 0
-1661 -380 0
-1661 -58 0
-1661 -70 0
-380 -58 0
-380 -70 0
-58 -70 0
1620 1648 1655 1662 381 59 71 0
-1620 -1648 0
-1620 -1655 0
-1620 -1662 0
-1620 -381 0
-1620 -59 0
-1620 -71 0
-1648 -1655 0
-1648 -1662 0
-1648 -381 0
-1648 -59 0
-1648 -71 0
-1655 -1662 0
-1655 -381 0
-1655 -59 0
-1655 -71 0
-1662 -381 0
-1662 -59 0
-1662 -71 0
-381 -59 0
-381 -71 0
-59 -71 0
1621 1649 1656 1663 382 60 72 0
-1621 -1649 0
-1621 -1656 0
-1621 -1663 0
-1621 -382 0
-1621 -60 0
-1621 -72 0
-1649 -1656 0
-1649 -1663 0
-1649 -382 0
-1649 -60 0
-1649 -72 0
-1656 -1663 0
-1656 -382 0
-1656 -60 0
-1656 -72 0
-1663 -382 0
-1663 -60 0
-1663 -72 0
-382 -60 0
-382 -72 0
-60 -72 0
1622 1650 1657 1664 383 0
-1622 -1650 0
-1622 -1657 0
-1622 -1664 0
-1622 -383 0
-1650 -1657 0
-1650 -1664 0
-1650 -383 0
-1657 -1664 0
-1657 -383 0
-1664 -383 0
1623 1644 1665 1672 482 91 103 0
-1623 -1644 0
-1623 -1665 0
-1623 -1672 0
-1623 -482 0
-1623 -91 0
-1623 -103 0
-1644 -1665 0
-1644 -1672 0
-1644 -482 0
-1644 -91 0
-1644 -103 0
-1665 -1672 0
-1665 -482 0
-1665 -91 0
-1665 -103 0
-1672 -482 0
-1672 -91 0
-1672 -103 0
-482 -91 0
-482 -103 0
-91 -103 0
1624 1645 1666 1673 483 92 104 0
-1624 -1645 0
-1624 -1666 0
-1624 -1673 0
-1624 -483 0
-1624 -92 0
-1624 -104 0
-1645 -1666 0
-1645 -1673 0
-1645 -483 0
-1645 -92 0
-1645 -104 0
-1666 -1673 0
-1666 -483 0
-1666 -92 0
-1666 -104 0
-1673 -483 0
-1673 -92 0
-1673 -104 0
-483 -92 0
-483 -104 0
-92 -104 0
1625 1646 1667 1674 484 93 105 0
-1625 -1646 0
-1625 -1667 0
-1625 -1674 0
-1625 -484 0
-1625 -93 0
-1625 -105 0
-1646 -1667 0
-1646 -1674 0
-1646 -484 0
-1646 -93 0
-1646 -105 0
-1667 -1674 0
-1667 -484 0
-1667 -93 0
-1667 -105 0
-1674 -484 0
-1674 -93 0
-1674 -105 0
-484 -93 0
-484 -105 0
-93 -105 0
1626 1647 1668 1675 485 94 106 0
-1626 -1647 0
-1626 -1668 0
-1626 -1675 0
-1626 -485 0
-1626 -94 0
-1626 -106 0
-1647 -1668 0
-1647 -1675 0
-1647 -485 0
-1647 -94 0
-1647 -106 0
-1668 -1675 0
-1668 -485 0
-1668 -94 0
-1668 -106 0
-1675 -485 0
-1675 -94 0
-1675 -106 0
-485 -94 0
-485 -106 0
-94 -106 0
1627 1648 1669 1676 486 95 107 0
-1627 -1648 0
-1627 -1669 0
-1627 -1676 0
-1627 -486 0
-1627 -95 0
-1627 -107 0
-1648 -1669 0
-1648 -1676 0
-1648 -486 0
-1648 -95 0
-1648 -107 0
-1669 -1676 0
-1669 -486 0
-1669 -95 0
-1669 -107 0
-1676 -486 0
-1676 -95 0
-1676 -107 0
-486 -95 0
-486 -107 0
-95 -107 0
1628 1649 1670 1677 487 96 108 0
-1628 -1649 0
-1628 -1670 0
-1628 -1677 0
-1628 -487 0
-1628 -96 0
-1628 -108 0
-1649 -1670 0
-1649 -1677 0
-1649 -487 0
-1649 -96 0
-1649 -108 0
-1670 -1677 0
-1670 -487 0
-1670 -96 0
-1670 -108 0
-1677 -487 0
-1677 -96 0
-1677 -108 0
-487 -96 0
-487 -108 0
-96 -108 0
1629 1650 1671 1678 488 0
-1629 -1650 0
-1629 -1671 0
-1629 -1678 0
-1629 -488 0
-1650 -1671 0
-1650 -1678 0
-1650 -488 0
-1671 -1678 0
-1671 -488 0
-1678 -488 0
1630 1651 1665 1679 587 127 139 0
-1630 -1651 0
-1630 -1665 0
-1630 -1679 0
-1630 -587 0
-1630 -127 0
-1630 -139 0
-1651 -1665 0
-1651 -1679 0
-1651 -587 0
-1651 -127 0
-1651 -139 0
-1665 -1679 0
-1665 -587 0
-1665 -127 0
-1665 -139 0
-1679 -587 0
-1679 -127 0
-1679 -139 0
-587 -127 0
-587 -139 0
-127 -139 0
1631 1652 1666 1680 588 128 140 0
-1631 -1652 0
-1631 -1666 0
-1631 -1680 0
-1631 -588 0
-1631 -128 0
-1631 -140 0
-1652 -1666 0
-1652 -1680 0
-1652 -588 0
-1652 -128 0
-1652 -140 0
-1666 -1680 0
-1666 -588 0
-1666 -128 0
-1666 -140 0
-1680 -588 0
-1680 -128 0
-1680 -140 0
-588 -128 0
-588 -140 0
-128 -140 0
1632 1653 1667 1681 589 129 141 0
-1632 -1653 0
-1632 -1667 0
-1632 -1681 0
-1632 -589 0
-1632 -129 0
-1632 -141 0
-1653 -1667 0
-1653 -1681 0
-1653 -589 0
-1653 -129 0
-1653 -141 0
-1667 -1681 0
-1667 -589 0
-1667 -129 0
-1667 -141 0
-1681 -589 0
-1681 -129 0
-1681 -141 0
-589 -129 0
-589 -141 0
-129 -141 0
1633 1654 1668 1682 590 130 142 0
-1633 -1654 0
-1633 -1668 0
-1633 -1682 0
-1633 -590 0
-1633 -130 0
-1633 -142 0
-1654 -1668 0
-1654 -1682 0
-1654 -590 0
-1654 -130 0
-1654 -142 0
-1668 -1682 0
-1668 -590 0
-1668 -130 0
-1668 -142 0
-1682 -590 0
-1682 -130 0
-1682 -142 0
-590 -130 0
-590 -142 0
-130 -142 0
1634 1655 1669 1683 591 131 143 0
-1634 -1655 0
-1634 -1669 0
-1634 -1683 0
-1634 -591 0
-1634 -131 0
-1634 -143 0
-1655 -1669 0
-1655 -1683 0
-1655 -591 0
-1655 -131 0
-1655 -143 0
-1669 -1683 0
-1669 -591 0
-1669 -131 0
-1669 -143 0
-1683 -591 0
-1683 -131 0
-1683 -143 0
-591 -131 0
-591 -143 0
-131 -143 0
1635 1656 1670 1684 592 132 144 0
-1635 -1656 0
-1635 -1670 0
-1635 -1684 0
-1635 -592 0
-1635 -132 0
-1635 -144 0
-1656 -1670 0
-1656 -1684 0
-1656 -592 0
-1656 -132 0
-1656 -144 0
-1670 -1684 0
-1670 -592 0
-1670 -132 0
-1670 -144 0
-1684 -592 0
-1684 -132 0
-1684 -144 0
-592 -132 0
-592 -144 0
-132 -144 0
1636 1657 1671 1685 593 0
-1636 -1657 0
-1636 -1671 0
-1636 -1685 0
-1636 -593 0
-1657 -1671 0
-1657 -1685 0
-1657 -593 0
-1671 -1685 0
-1671 -593 0
-1685 -593 0
1637 1658 1672 1679 692 163 175 0
-1637 -1658 0
-1637 -1672 0
-1637 -1679 0
-1637 -692 0
-1637 -163 0
-1637 -175 0
-1658 -1672 0
-1658 -1679 0
-1658 -692 0
-1658 -163 0
-1658 -175 0
-1672 -1679 0
-1672 -692 0
-1672 -163 0
-1672 -175 0
-1679 -692 0
-1679 -163 0
-1679 -175 0
-692 -163 0
-692 -175 0
-163 -175 0
1638 1659 1673 1680 693 164 176 0
-1638 -1659 0
-1638 -1673 0
-1638 -1680 0
-1638 -693 0
-1638 -164 0
-1638 -176 0
-1659 -1673 0
-1659 -1680 0
-1659 -693 0
-1659 -164 0
-1659 -176 0
-1673 -1680 0
-1673 -693 0
-1673 -164 0
-1673 -176 0
-1680 -693 0
-1680 -164 0
-1680 -176 0
-693 -164 0
-693 -176 0
-164 -176 0
1639 1660 1674 1681 694 165 177 0
-1639 -1660 0
-1639 -1674 0
-1639 -1681 0
-1639 -694 0
-1639 -165 0
-1639 -177 0
-1660 -1674 0
-1660 -1681 0
-1660 -694 0
-1660 -165 0
-1660 -177 0
-1674 -1681 0
-1674 -694 0
-1674 -165 0
-1674 -177 0
-1681 -694 0
-1681 -165 0
-1681 -177 0
-694 -165 0
-694 -177 0
-165 -177 0
1640 1661 1675 1682 695 166 178 0
-1640 -1661 0
-1640 -1675 0
-1640 -1682 0
-1640 -695 0
-1640 -166 0
-1640 -178 0
-1661 -1675 0
-1661 -1682 0
-1661 -695 0
-1661 -166 0
-1661 -178 0
-1675 -1682 0
-1675 -695 0
-1675 -166 0
-1675 -178 0
-1682 -695 0
-1682 -166 0
-1682 -178 0
-695 -166 0
-695 -178 0
-166 -178 0
1641 1662 1676 1683 696 167 179 0
-1641 -1662 0
-1641 -1676 0
-1641 -1683 0
-1641 -696 0
-1641 -167 0
-1641 -179 0
-1662 -1676 0
-1662 -1683 0
-1662 -696 0
-1662 -167 0
-1662 -179 0
-1676 -1683 0
-1676 -696 0
-1676 -167 0
-1676 -179 0
-1683 -696 0
-1683 -167 0
-1683 -179 0
-696 -167 0
-696 -179 0
-167 -179 0
1642 1663 1677 1684 697 168 180 0
-1642 -1663 0
-1642 -1677 0
-1642 -1684 0
-1642 -697 0
-1642 -168 0
-1642 -180 0
-1663 -1677 0
-1663 -1684 0
-1663 -697 0
-1663 -168 0
-1663 -180 0
-1677 -1684 0
-1677 -697 0
-1677 -168 0
-1677 -180 0
-1684 -697 0
-1684 -168 0
-1684 -180 0
-697 -168 0
-697 -180 0
-168 -180 0
1643 1664 1678 1685 698 0
-1643 -1664 0
-1643 -1678 0
-1643 -1685 0
-1643 -698 0
-1664 -1678 0
-1664 -1685 0
-1664 -698 0
-1678 -1685 0
-1678 -698 0
-1685 -698 0
1686 1693 1700 1707 279 25 31 0
-1686 -1693 0
-1686 -1700 0
-1686 -1707 0
-1686 -279 0
-1686 -25 0
-1686 -31 0
-1693 -1700 0
-1693 -1707 0
-1693 -279 0
-1693 -25 0
-1693 -31 0
-1700 -1707 0
-1700 -279 0
-1700 -25 0
-1700 -31 0
-1707 -279 0
-1707 -25 0
-1707 -31 0
-279 -25 0
-279 -31 0
-25 -31 0
1687 1694 1701 1708 280 26 32 0
-1687 -1694 0
-1687 -1701 0
-1687 -1708 0
-1687 -280 0
-1687 -26 0
-1687 -32 0
-1694 -1701 0
-1694 -1708 0
-1694 -280 0
-1694 -26 0
-1694 -32 0
-1701 -1708 0
-1701 -280 0
-1701 -26 0
-1701 -32 0
-1708 -280 0
-1708 -26 0
-1708 -32 0
-280 -26 0
-280 -32 0
-26 -32 0
1688 1695 1702 1709 281 27 33 0
-1688 -1695 0
-1688 -1702 0
-1688 -1709 0
-1688 -281 0
-1688 -27 0
-1688 -33 0
-1695 -1702 0
-1695 -1709 0
-1695 -281 0
-1695 -27 0
-1695 -33 0
-1702 -1709 0
-1702 -281 0
-1702 -27 0
-1702 -33 0
-1709 -281 0
-1709 -27 0
-1709 -33 0
-281 -27 0
-281 -33 0
-27 -33 0
1689 1696 1703 1710 282 28 34 0
-1689 -1696 0
-1689 -1703 0
-1689 -1710 0
-1689 -282 0
-1689 -28 0
-1689 -34 0
-1696 -1703 0
-1696 -1710 0
-1696 -282 0
-1696 -28 0
-1696 -34 0
-1703 -1710 0
-1703 -282 0
-1703 -28 0
-1703 -34 0
-1710 -282 0
-1710 -28 0
-1710 -34 0
-282 -28 0
-282 -34 0
-28 -34 0
1690 1697 1704 1711 283 29 35 0
-1690 -1697 0
-1690 -1704 0
-1690 -1711 0
-1690 -283 0
-1690 -29 0
-1690 -35 0
-1697 -1704 0
-1697 -1711 0
-1697 -283 0
-1697 -29 0
-1697 -35 0
-1704 -1711 0
-1704 -283 0
-1704 -29 0
-1704 -35 0
-1711 -283 0
-1711 -29 0
-1711 -35 0
-283 -29 0
-283 -35 0
-29 -35 0
1691 1698 1705 1712 284 30 36 0
-1691 -1698 0
-1691 -1705 0
-1691 -1712 0
-1691 -284 0
-1691 -30 0
-1691 -36 0
-1698 -1705 0
-1698 -1712 0
-1698 -284 0
-1698 -30 0
-1698 -36 0
-1705 -1712 0
-1705 -284 0
-1705 -30 0
-1705 -36 0
-1712 -284 0
-1712 -30 0
-1712 -36 0
-284 -30 0
-284 -36 0
-30 -36 0
1692 1699 1706 1713 285 0
-1692 -1699 0
-1692 -1706 0
-1692 -1713 0
-1692 -285 0
-1699 -1706 0
-1699 -1713 0
-1699 -285 0
-1706 -1713 0
-1706 -285 0
-1713 -285 0
1686 1714 1721 1728 384 61 67 0
-1686 -1714 0
-1686 -1721 0
-1686 -1728 0
-1686 -384 0
-1686 -61 0
-1686 -67 0
-1714 -1721 0
-1714 -1728 0
-1714 -384 0
-1714 -61 0
-1714 -67 0
-1721 -1728 0
-1721 -384 0
-1721 -61 0
-1721 -67 0
-1728 -384 0
-1728 -61 0
-1728 -67 0
-384 -61 0
-384 -67 0
-61 -67 0
1687 1715 1722 1729 385 62 68 0
-1687 -1715 0
-1687 -1722 0
-1687 -1729 0
-1687 -385 0
-1687 -62 0
-1687 -68 0
-1715 -1722 0
-1715 -1729 0
-1715 -385 0
-1715 -62 0
-1715 -68 0
-1722 -1729 0
-1722 -385 0
-1722 -62 0
-1722 -68 0
-1729 -385 0
-1729 -62 0
-1729 -68 0
-385 -62 0
-385 -68 0
-62 -68 0
1688 1716 1723 1730 386 63 69 0
-1688 -1716 0
-1688 -1723 0
-1688 -1730 0
-1688 -386 0
-1688 -63 0
-1688 -69 0
-1716 -1723 0
-1716 -1730 0
-1716 -386 0
-1716 -63 0
-1716 -69 0
-1723 -1730 0
-1723 -386 0
-1723 -63 0
-1723 -69 0
-1730 -386 0
-1730 -63 0
-1730 -69 0
-386 -63 0
-386 -69 0
-63 -69 0
1689 1717 1724 1731 387 64 70 0
-1689 -1717 0
-1689 -1724 0
-1689 -1731 0
-1689 -387 0
-1689 -64 0
-1689 -70 0
-1717 -1724 0
-1717 -1731 0
-1717 -387 0
-1717 -64 0
-1717 -70 0
-1724 -1731 0
-1724 -387 0
-1724 -64 0
-1724 -70 0
-1731 -387 0
-1731 -64 0
-1731 -70 0
-387 -64 0
-387 -70 0
-64 -70 0
1690 1718 1725 1732 388 65 71 0
-1690 -1718 0
-1690 -1725 0
-1690 -1732 0
-1690 -388 0
-1690 -65 0
-1690 -71 0
-1718 -1725 0
-1718 -1732 0
-1718 -388 0
-1718 -65 0
-1718 -71 0
-1725 -1732 0
-1725 -388 0
-1725 -65 0
-1725 -71 0
-1732 -388 0
-1732 -65 0
-1732 -71 0
-388 -65 0
-388 -71 0
-65 -71 0
1691 1719 1726 1733 389 66 72 0
-1691 -1719 0
-1691 -1726 0
-1691 -1733 0
-1691 -389 0
-1691 -66 0
-1691 -72 0
-1719 -1726 0
-1719 -1733 0
-1719 -389 0
-1719 -66 0
-1719 -72 0
-1726 -1733 0
-1726 -389 0
-1726 -66 0
-1726 -72 0
-1733 -389 0
-1733 -66 0
-1733 -72 0
-389 -66 0
-389 -72 0
-66 -72 0
1692 1720 1727 1734 390 0
-1692 -1720 0
-1692 -1727 0
-1692 -1734 0
-1692 -390 0
-1720 -1727 0
-1720 -1734 0
-1720 -390 0
-1727 -1734 0
-1727 -390 0
-1734 -390 0
1693 1714 1735 1742 489 97 103 0
-1693 -1714 0
-1693 -1735 0
-1693 -1742 0
-1693 -489 0
-1693 -97 0
-1693 -103 0
-1714 -1735 0
-1714 -1742 0
-1714 -489 0
-1714 -97 0
-1714 -103 0
-1735 -1742 0
-1735 -489 0
-1735 -97 0
-1735 -103 0
-1742 -489 0
-1742 -97 0
-1742 -103 0
-489 -97 0
-489 -103 0
-97 -103 0
1694 1715 1736 1743 490 98 104 0
-1694 -1715 0
-1694 -1736 0
-1694 -1743 0
-1694 -490 0
-1694 -98 0
-1694 -104 0
-1715 -1736 0
-1715 -1743 0
-1715 -490 0
-1715 -98 0
-1715 -104 0
-1736 -1743 0
-1736 -490 0
-1736 -98 0
-1736 -104 0
-1743 -490 0
-1743 -98 0
-1743 -104 0
-490 -98 0
-490 -104 0
-98 -104 0
1695 1716 1737 1744 491 99 105 0
-1695 -1716 0
-1695 -1737 0
-1695 -1744 0
-1695 -491 0
-1695 -99 0
-1695 -105 0
-1716 -1737 0
-1716 -1744 0
-1716 -491 0
-1716 -99 0
-1716 -105 0
-1737 -1744 0
-1737 -491 0
-1737 -99 0
-1737 -105 0
-1744 -491 0
-1744 -99 0
-1744 -105 0
-491 -99 0
-491 -105 0
-99 -105 0
1696 1717 1738 1745 492 100 106 0
-1696 -1717 0
-1696 -1738 0
-1696 -1745 0
-1696 -492 0
-1696 -100 0
-1696 -106 0
-1717 -1738 0
-1717 -1745 0
-1717 -492 0
-1717 -100 0
-1717 -106 0
-1738 -1745 0
-1738 -492 0
-1738 -100 0
-1738 -106 0
-1745 -492 0
-1745 -100 0
-1745 -106 0
-492 -100 0
-492 -106 0
-100 -106 0
1697 1718 1739 1746 493 101 107 0
-1697 -1718 0
-1697 -1739 0
-1697 -1746 0
-1697 -493 0
-1697 -101 0
-1697 -107 0
-1718 -1739 0
-1718 -1746 0
-1718 -493 0
-1718 -101 0
-1718 -107 0
-1739 -1746 0
-1739 -493 0
-1739 -101 0
-1739 -107 0
-1746 -493 0
-1746 -101 0
-1746 -107 0
-493 -101 0
-493 -107 0
-101 -107 0
1698 1719 1740 1747 494 102 108 0
-1698 -1719 0
-1698 -1740 0
-1698 -1747 0
-1698 -494 0
-1698 -102 0
-1698 -108 0
-1719 -1740 0
-1719 -1747 0
-1719 -494 0
-1719 -102 0
-1719 -108 0
-1740 -1747 0
-1740 -494 0
-1740 -102 0
-1740 -108 0
-1747 -494 0
-1747 -102 0
-1747 -108 0
-494 -102 0
-494 -108 0
-102 -108 0
1699 1720 1741 1748 495 0
-1699 -1720 0
-1699 -1741 0
-1699 -1748 0
-1699 -495 0
-1720 -1741 0
-1720 -1748 0
-1720 -495 0
-1741 -1748 0
-1741 -495 0
-1748 -495 0
1700 1721 1735 1749 594 133 139 0
-1700 -1721 0
-1700 -1735 0
-1700 -1749 0
-1700 -594 0
-1700 -133 0
-1700 -139 0
-1721 -1735 0
-1721 -1749 0
-1721 -594 0
-1721 -133 0
-1721 -139 0
-1735 -1749 0
-1735 -594 0
-1735 -133 0
-1735 -139 0
-1749 -594 0
-1749 -133 0
-1749 -139 0
-594 -133 0
-594 -139 0
-133 -139 0
1701 1722 1736 1750 595 134 140 0
-1701 -1722 0
-1701 -1736 0
-1701 -1750 0
-1701 -595 0
-1701 -134 0
-1701 -140 0
-1722 -1736 0
-1722 -1750 0
-1722 -595 0
-1722 -134 0
-1722 -140 0
-1736 -1750 0
-1736 -595 0
-1736 -134 0
-1736 -140 0
-1750 -595 0
-1750 -134 0
-1750 -140 0
-595 -134 0
-595 -140 0
-134 -140 0
1702 1723 1737 1751 596 135 141 0
-1702 -1723 0
-1702 -1737 0
-1702 -1751 0
-1702 -596 0
-1702 -135 0
-1702 -141 0
-1723 -1737 0
-1723 -1751 0
-1723 -596 0
-1723 -135 0
-1723 -141 0
-1737 -1751 0
-1737 -596 0
-1737 -135 0
-1737 -141 0
-1751 -596 0
-1751 -135 0
-1751 -141 0
-596 -135 0
-596 -141 0
-135 -141 0
1703 1724 1738 1752 597 136 142 0
-1703 -1724 0
-1703 -1738 0
-1703 -1752 0
-1703 -597 0
-1703 -136 0
-1703 -142 0
-1724 -1738 0
-1724 -1752 0
-1724 -597 0
-1724 -136 0
-1724 -142 0
-1738 -1752 0
-1738 -597 0
-1738 -136 0
-1738 -142 0
-1752 -597 0
-1752 -136 0
-1752 -142 0
-597 -136 0
-597 -142 0
-136 -142 0
1704 1725 1739 1753 598 137 143 0
-1704 -1725 0
-1704 -1739 0
-1704 -1753 0
-1704 -598 0
-1704 -137 0
-1704 -143 0
-1725 -1739 0
-1725 -1753 0
-1725 -598 0
-1725 -137 0
-1725 -143 0
-1739 -1753 0
-1739 -598 0
-1739 -137 0
-1739 -143 0
-1753 -598 0
-1753 -137 0
-1753 -143 0
-598 -137 0
-598 -143 0
-137 -143 0
1705 1726 1740 1754 599 138 144 0
-1705 -1726 0
-1705 -1740 0
-1705 -1754 0
-1705 -599 0
-1705 -138 0
-1705 -144 0
-1726 -1740 0
-1726 -1754 0
-1726 -599 0
-1726 -138 0
-1726 -144 0
-1740 -1754 0
-1740 -599 0
-1740 -138 0
-1740 -144 0
-1754 -599 0
-1754 -138 0
-1754 -144 0
-599 -138 0
-599 -144 0
-138 -144 0
1706 1727 1741 1755 600 0
-1706 -1727 0
-1706 -1741 0
-1706 -1755 0
-1706 -600 0
-1727 -1741 0
-1727 -1755 0
-1727 -600 0
-1741 -1755 0
-1741 -600 0
-1755 -600 0
1707 1728 1742 1749 699 169 175 0
-1707 -1728 0
-1707 -1742 0
-1707 -1749 0
-1707 -699 0
-1707 -169 0
-1707 -175 0
-1728 -1742 0
-1728 -1749 0
-1728 -699 0
-1728 -169 0
-1728 -175 0
-1742 -1749 0
-1742 -699 0
-1742 -169 0
-1742 -175 0
-1749 -699 0
-1749 -169 0
-1749 -175 0
-699 -169 0
-699 -175 0
-169 -175 0
1708 1729 1743 1750 700 170 176 0
-1708 -1729 0
-1708 -1743 0
-1708 -1750 0
-1708 -700 0
-1708 -170 0
-1708 -176 0
-1729 -1743 0
-1729 -1750 0
-1729 -700 0
-1729 -170 0
-1729 -176 0
-1743 -1750 0
-1743 -700 0
-1743 -170 0
-1743 -176 0
-1750 -700 0
-1750 -170 0
-1750 -176 0
-700 -170 0
-700 -176 0
-170 -176 0
1709 1730 1744 1751 701 171 177 0
-1709 -1730 0
-1709 -1744 0
-1709 -1751 0
-1709 -701 0
-1709 -171 0
-1709 -177 0
-1730 -1744 0
-1730 -1751 0
-1730 -701 0
-1730 -171 0
-1730 -177 0
-1744 -1751 0
-1744 -701 0
-1744 -171 0
-1744 -177 0
-1751 -701 0
-1751 -171 0
-1751 -177 0
-701 -171 0
-701 -177 0
-171 -177 0
1710 1731 1745 1752 702 172 178 0
-1710 -1731 0
-1710 -1745 0
-1710 -1752 0
-1710 -702 0
-1710 -172 0
-1710 -178 0
-1731 -1745 0
-1731 -1752 0
-1731 -702 0
-1731 -172 0
-1731 -178 0
-1745 -1752 0
-1745 -702 0
-1745 -172 0
-1745 -178 0
-1752 -702 0
-1752 -172 0
-1752 -178 0
-702 -172 0
-702 -178 0
-172 -178 0
1711 1732 1746 1753 703 173 179 0
-1711 -1732 0
-1711 -1746 0
-1711 -1753 0
-1711 -703 0
-1711 -173 0
-1711 -179 0
-1732 -1746 0
-1732 -1753 0
-1732 -703 0
-1732 -173 0
-1732 -179 0
-1746 -1753 0
-1746 -703 0
-1746 -173 0
-1746 -179 0
-1753 -703 0
-1753 -173 0
-1753 -179 0
-703 -173 0
-703 -179 0
-173 -179 0
1712 1733 1747 1754 704 174 180 0
-1712 -1733 0
-1712 -1747 0
-1712 -1754 0
-1712 -704 0
-1712 -174 0
-1712 -180 0
-1733 -1747 0
-1733 -1754 0
-1733 -704 0
-1733 -174 0
-1733 -180 0
-1747 -1754 0
-1747 -704 0
-1747 -174 0
-1747 -180 0
-1754 -704 0
-1754 -174 0
-1754 -180 0
-704 -174 0
-704 -180 0
-174 -180 0
1713 1734 1748 1755 705 0
-1713 -1734 0
-1713 -1748 0
-1713 -1755 0
-1713 -705 0
-1734 -1748 0
-1734 -1755 0
-1734 -705 0
-1748 -1755 0
-1748 -705 0
-1755 -705 0
1756 1757 1758 1759 1760 1761 1762 0
-1756 -1757 0
-1756 -1758 0
-1756 -1759 0
-1756 -1760 0
-1756 -1761 0
-1756 -1762 0
-1757 -1758 0
-1757 -1759 0
-1757 -1760 0
-1757 -1761 0
-1757 -1762 0
-1758 -1759 0
-1758 -1760 0
-1758 -1761 0
-1758 -1762 0
-1759 -1760 0
-1759 -1761 0
-1759 -1762 0
-1760 -1761 0
-1760 -1762 0
-1761 -1762 0
1763 1764 1765 1766 1767 1768 1769 0
-1763 -1764 0
-1763 -1765 0
-1763 -1766 0
-1763 -1767 0
-1763 -1768 0
-1763 -1769 0
-1764 -1765 0
-1764 -1766 0
-1764 -1767 0
-1764 -1768 0
-1764 -1769 0
-1765 -1766 0
-1765 -1767 0
-1765 -1768 0
-1765 -1769 0
-1766 -1767 0
-1766 -1768 0
-1766 -1769 0
-1767 -1768 0
-1767 -1769 0
-1768 -1769 0
1770 1771 1772 1773 1774 1775 1776 0
-1770 -1771 0
-1770 -1772 0
-1770 -1773 0
-1770 -1774 0
-1770 -1775 0
-1770 -1776 0
-1771 -1772 0
-1771 -1773 0
-1771 -1774 0
-1771 -1775 0
-1771 -1776 0
-1772 -1773 0
-1772 -1774 0
-1772 -1775 0
-1772 -1776 0
-1773 -1774 0
-1773 -1775 0
-1773 -1776 0
-1774 -1775 0
-1774 -1776 0
-1775 -1776 0
1777 1778 1779 1780 1781 1782 1783 0
-1777 -1778 0
-1777 -1779 0
-1777 -1780 0
-1777 -1781 0
-1777 -1782 0
-1777 -1783 0
-1778 -1779 0
-1778 -1780 0
-1778 -1781 0
-1778 -1782 0
-1778 -1783 0
-1779 -1780 0
-1779 -1781 0
-1779 -1782 0
-1779 -1783 0
-1780 -1781 0
-1780 -1782 0
-1780 -1783 0
-1781 -1782 0
-1781 -1783 0
-1782 -1783 0
1784 1785 1786 1787 1788 1789 1790 0
-1784 -1785 0
-1784 -1786 0
-1784 -1787 0
-1784 -1788 0
-1784 -1789 0
-1784 -1790 0
-1785 -1786 0
-1785 -1787 0
-1785 -1788 0
-1785 -1789 0
-1785 -1790 0
-1786 -1787 0
-1786 -1788 0
-1786 -1789 0
-1786 -1790 0
-1787 -1788 0
-1787 -1789 0
-1787 -1790 0
-1788 -1789 0
-1788 -1790 0
-1789 -1790 0
1791 1792 1793 1794 1795 1796 1797 0
-1791 -1792 0
-1791 -1793 0
-1791 -1794 0
-1791 -1795 0
-1791 -1796 0
-1791 -1797 0
-1792 -1793 0
-1792 -1794 0
-1792 -1795 0
-1792 -1796 0
-1792 -1797 0
-1793 -1794 0
-1793 -1795 0
-1793 -1796 0
-1793 -1797 0
-1794 -1795 0
-1794 -1796 0
-1794 -1797 0
-1795 -1796 0
-1795 -1797 0
-1796 -1797 0
1798 1799 1800 1801 1802 1803 1804 0
-1798 -1799 0
-1798 -1800 0
-1798 -1801 0
-1798 -1802 0
-1798 -1803 0
-1798 -1804 0
-1799 -1800 0
-1799 -1801 0
-1799 -1802 0
-1799 -1803 0
-1799 -1804 0
-1800 -1801 0
-1800 -1802 0
-1800 -1803 0
-1800 -1804 0
-1801 -1802 0
-1801 -1803 0
-1801 -1804 0
-1802 -1803 0
-1802 -1804 0
-1803 -1804 0
1805 1806 1807 1808 1809 1810 1811 0
-1805 -1806 0
-1805 -1807 0
-1805 -1808 0
-1805 -1809 0
-1805 -1810 0
-1805 -1811 0
-1806 -1807 0
-1806 -1808 0
-1806 -1809 0
-1806 -1810 0
-1806 -1811 0
-1807 -1808 0
-1807 -1809 0
-1807 -1810 0
-1807 -1811 0
-1808 -1809 0
-1808 -1810 0
-1808 -1811 0
-1809 -1810 0
-1809 -1811 0
-1810 -1811 0
1812 1813 1814 1815 1816 1817 1818 0
-1812 -1813 0
-1812 -1814 0
-1812 -1815 0
-1812 -1816 0
-1812 -1817 0
-1812 -1818 0
-1813 -1814 0
-1813 -1815 0
-1813 -1816 0
-1813 -1817 0
-1813 -1818 0
-1814 -1815 0
-1814 -1816 0
-1814 -1817 0
-1814 -1818 0
-1815 -1816 0
-1815 -1817 0
-1815 -1818 0
-1816 -1817 0
-1816 -1818 0
-1817 -1818 0
1819 1820 1821 1822 1823 1824 1825 0
-1819 -1820 0
-1819 -1821 0
-1819 -1822 0
-1819 -1823 0
-1819 -1824 0
-1819 -1825 0
-1820 -1821 0
-1820 -1822 0
-1820 -1823 0
-1820 -1824 0
-1820 -1825 0
-1821 -1822 0
-1821 -1823 0
-1821 -1824 0
-1821 -1825 0
-1822 -1823 0
-1822 -1824 0
-1822 -1825 0
-1823 -1824 0
-1823 -1825 0
-1824 -1825 0
1826 1827 1828 1829 1830 1831 1832 0
-1826 -1827 0
-1826 -1828 0
-1826 -1829 0
-1826 -1830 0
-1826 -1831 0
-1826 -1832 0
-1827 -1828 0
-1827 -1829 0
-1827 -1830 0
-1827 -1831 0
-1827 -1832 0
-1828 -1829 0
-1828 -1830 0
-1828 -1831 0
-1828 -1832 0
-1829 -1830 0
-1829 -1831 0
-1829 -1832 0
-1830 -1831 0
-1830 -1832 0
-1831 -1832 0
1833 1834 1835 1836 1837 1838 1839 0
-1833 -1834 0
-1833 -1835 0
-1833 -1836 0
-1833 -1837 0
-1833 -1838 0
-1833 -1839 0
-1834 -1835 0
-1834 -1836 0
-1834 -1837 0
-1834 -1838 0
-1834 -1839 0
-1835 -1836 0
-1835 -1837 0
-1835 -1838 0
-1835 -1839 0
-1836 -1837 0
-1836 -1838 0
-1836 -1839 0
-1837 -1838 0
-1837 -1839 0
-1838 -1839 0
1840 1841 1842 1843 1844 1845 1846 0
-1840 -1841 0
-1840 -1842 0
-1840 -1843 0
-1840 -1844 0
-1840 -1845 0
-1840 -1846 0
-1841 -1842 0
-1841 -1843 0
-1841 -1844 0
-1841 -1845 0
-1841 -1846 0
-1842 -1843 0
-1842 -1844 0
-1842 -1845 0
-1842 -1846 0
-1843 -1844 0
-1843 -1845 0
-1843 -1846 0
-1844 -1845 0
-1844 -1846 0
-1845 -1846 0
1847 1848 1849 1850 1851 1852 1853 0
-1847 -1848 0
-1847 -1849 0
-1847 -1850 0
-1847 -1851 0
-1847 -1852 0
-1847 -1853 0
-1848 -1849 0
-1848 -1850 0
-1848 -1851 0
-1848 -1852 0
-1848 -1853 0
-1849 -1850 0
-1849 -1851 0
-1849 -1852 0
-1849 -1853 0
-1850 -1851 0
-1850 -1852 0
-1850 -1853 0
-1851 -1852 0
-1851 -1853 0
-1852 -1853 0
1854 1855 1856 1857 1858 1859 1860 0
-1854 -1855 0
-1854 -1856 0
-1854 -1857 0
-1854 -1858 0
-1854 -1859 0
-1854 -1860 0
-1855 -1856 0
-1855 -1857 0
-1855 -1858 0
-1855 -1859 0
-1855 -1860 0
-1856 -1857 0
-1856 -1858 0
-1856 -1859 0
-1856 -1860 0
-1857 -1858 0
-1857 -1859 0
-1857 -1860 0
-1858 -1859 0
-1858 -1860 0
-1859 -1860 0
1861 1862 1863 1864 1865 1866 1867 0
-1861 -1862 0
-1861 -1863 0
-1861 -1864 0
-1861 -1865 0
-1861 -1866 0
-1861 -1867 0
-1862 -1863 0
-1862 -1864 0
-1862 -1865 0
-1862 -1866 0
-1862 -1867 0
-1863 -1864 0
-1863 -1865 0
-1863 -1866 0
-1863 -1867 0
-1864 -1865 0
-1864 -1866 0
-1864 -1867 0
-1865 -1866 0
-1865 -1867 0
-1866 -1867 0
1868 1869 1870 1871 1872 1873 1874 0
-1868 -1869 0
-1868 -1870 0
-1868 -1871 0
-1868 -1872 0
-1868 -1873 0
-1868 -1874 0
-1869 -1870 0
-1869 -1871 0
-1869 -1872 0
-1869 -1873 0
-1869 -1874 0
-1870 -1871 0
-1870 -1872 0
-1870 -1873 0
-1870 -1874 0
-1871 -1872 0
-1871 -1873 0
-1871 -1874 0
-1872 -1873 0
-1872 -1874 0
-1873 -1874 0
1875 1876 1877 1878 1879 1880 1881 0
-1875 -1876 0
-1875 -1877 0
-1875 -1878 0
-1875 -1879 0
-1875 -1880 0
-1875 -1881 0
-1876 -1877 0
-1876 -1878 0
-1876 -1879 0
-1876 -1880 0
-1876 -1881 0
-1877 -1878 0
-1877 -1879 0
-1877 -1880 0
-1877 -1881 0
-1878 -1879 0
-1878 -1880 0
-1878 -1881 0
-1879 -1880 0
-1879 -1881 0
-1880 -1881 0
1882 1883 1884 1885 1886 1887 1888 0
-1882 -1883 0
-1882 -1884 0
-1882 -1885 0
-1882 -1886 0
-1882 -1887 0
-1882 -1888 0
-1883 -1884 0
-1883 -1885 0
-1883 -1886 0
-1883 -1887 0
-1883 -1888 0
-1884 -1885 0
-1884 -1886 0
-1884 -1887 0
-1884 -1888 0
-1885 -1886 0
-1885 -1887 0
-1885 -1888 0
-1886 -1887 0
-1886 -1888 0
-1887 -1888 0
1889 1890 1891 1892 1893 1894 1895 0
-1889 -1890 0
-1889 -1891 0
-1889 -1892 0
-1889 -1893 0
-1889 -1894 0
-1889 -1895 0
-1890 -1891 0
-1890 -1892 0
-1890 -1893 0
-1890 -1894 0
-1890 -1895 0
-1891 -1892 0
-1891 -1893 0
-1891 -1894 0
-1891 -1895 0
-1892 -1893 0
-1892 -1894 0
-1892 -1895 0
-1893 -1894 0
-1893 -1895 0
-1894 -1895 0
1896 1897 1898 1899 1900 1901 1902 0
-1896 -1897 0
-1896 -1898 0
-1896 -1899 0
-1896 -1900 0
-1896 -1901 0
-1896 -1902 0
-1897 -1898 0
-1897 -1899 0
-1897 -1900 0
-1897 -1901 0
-1897 -1902 0
-1898 -1899 0
-1898 -1900 0
-1898 -1901 0
-1898 -1902 0
-1899 -1900 0
-1899 -1901 0
-1899 -1902 0
-1900 -1901 0
-1900 -1902 0
-1901 -1902 0
1903 1904 1905 1906 1907 1908 1909 0
-1903 -1904 0
-1903 -1905 0
-1903 -1906 0
-1903 -1907 0
-1903 -1908 0
-1903 -1909 0
-1904 -1905 0
-1904 -1906 0
-1904 -1907 0
-1904 -1908 0
-1904 -1909 0
-1905 -1906 0
-1905 -1907 0
-1905 -1908 0
-1905 -1909 0
-1906 -1907 0
-1906 -1908 0
-1906 -1909 0
-1907 -1908 0
-1907 -1909 0
-1908 -1909 0
1910 1911 1912 1913 1914 1915 1916 0
-1910 -1911 0
-1910 -1912 0
-1910 -1913 0
-1910 -1914 0
-1910 -1915 0
-1910 -1916 0
-1911 -1912 0
-1911 -1913 0
-1911 -1914 0
-1911 -1915 0
-1911 -1916 0
-1912 -1913 0
-1912 -1914 0
-1912 -1915 0
-1912 -1916 0
-1913 -1914 0
-1913 -1915 0
-1913 -1916 0
-1914 -1915 0
-1914 -1916 0
-1915 -1916 0
1917 1918 1919 1920 1921 1922 1923 0
-1917 -1918 0
-1917 -1919 0
-1917 -1920 0
-1917 -1921 0
-1917 -1922 0
-1917 -1923 0
-1918 -1919 0
-1918 -1920 0
-1918 -1921 0
-1918 -1922 0
-1918 -1923 0
-1919 -1920 0
-1919 -1921 0
-1919 -1922 0
-1919 -1923 0
-1920 -1921 0
-1920 -1922 0
-1920 -1923 0
-1921 -1922 0
-1921 -1923 0
-1922 -1923 0
1924 1925 1926 1927 1928 1929 1930 0
-1924 -1925 0
-1924 -1926 0
-1924 -1927 0
-1924 -1928 0
-1924 -1929 0
-1924 -1930 0
-1925 -1926 0
-1925 -1927 0
-1925 -1928 0
-1925 -1929 0
-1925 -1930 0
-1926 -1927 0
-1926 -1928 0
-1926 -1929 0
-1926 -1930 0
-1927 -1928 0
-1927 -1929 0
-1927 -1930 0
-1928 -1929 0
-1928 -1930 0
-1929 -1930 0
1931 1932 1933 1934 1935 1936 1937 0
-1931 -1932 0
-1931 -1933 0
-1931 -1934 0
-1931 -1935 0
-1931 -1936 0
-1931 -1937 0
-1932 -1933 0
-1932 -1934 0
-1932 -1935 0
-1932 -1936 0
-1932 -1937 0
-1933 -1934 0
-1933 -1935 0
-1933 -1936 0
-1933 -1937 0
-1934 -1935 0
-1934 -1936 0
-1934 -1937 0
-1935 -1936 0
-1935 -1937 0
-1936 -1937 0
1938 1939 1940 1941 1942 1943 1944 0
-1938 -1939 0
-1938 -1940 0
-1938 -1941 0
-1938 -1942 0
-1938 -1943 0
-1938 -1944 0
-1939 -1940 0
-1939 -1941 0
-1939 -1942 0
-1939 -1943 0
-1939 -1944 0
-1940 -1941 0
-1940 -1942 0
-1940 -1943 0
-1940 -1944 0
-1941 -1942 0
-1941 -1943 0
-1941 -1944 0
-1942 -1943 0
-1942 -1944 0
-1943 -1944 0
1945 1946 1947 1948 1949 1950 1951 0
-1945 -1946 0
-1945 -1947 0
-1945 -1948 0
-1945 -1949 0
-1945 -1950 0
-1945 -1951 0
-1946 -1947 0
-1946 -1948 0
-1946 -1949 0
-1946 -1950 0
-1946 -1951 0
-1947 -1948 0
-1947 -1949 0
-1947 -1950 0
-1947 -1951 0
-1948 -1949 0
-1948 -1950 0
-1948 -1951 0
-1949 -1950 0
-1949 -1951 0
-1950 -1951 0
1952 1953 1954 1955 1956 1957 1958 0
-1952 -1953 0
-1952 -1954 0
-1952 -1955 0
-1952 -1956 0
-1952 -1957 0
-1952 -1958 0
-1953 -1954 0
-1953 -1955 0
-1953 -1956 0
-1953 -1957 0
-1953 -1958 0
-1954 -1955 0
-1954 -1956 0
-1954 -1957 0
-1954 -1958 0
-1955 -1956 0
-1955 -1957 0
-1955 -1958 0
-1956 -1957 0
-1956 -1958 0
-1957 -1958 0
1959 1960 1961 1962 1963 1964 1965 0
-1959 -1960 0
-1959 -1961 0
-1959 -1962 0
-1959 -1963 0
-1959 -1964 0
-1959 -1965 0
-1960 -1961 0
-1960 -1962 0
-1960 -1963 0
-1960 -1964 0
-1960 -1965 0
-1961 -1962 0
-1961 -1963 0
-1961 -1964 0
-1961 -1965 0
-1962 -1963 0
-1962 -1964 0
-1962 -1965 0
-1963 -1964 0
-1963 -1965 0
-1964 -1965 0
1966 1967 1968 1969 1970 1971 1972 0
-1966 -1967 0
-1966 -1968 0
-1966 -1969 0
-1966 -1970 0
-1966 -1971 0
-1966 -1972 0
-1967 -1968 0
-1967 -1969 0
-1967 -1970 0
-1967 -1971 0
-1967 -1972 0
-1968 -1969 0
-1968 -1970 0
-1968 -1971 0
-1968 -1972 0
-1969 -1970 0
-1969 -1971 0
-1969 -1972 0
-1970 -1971 0
-1970 -1972 0
-1971 -1972 0
1973 1974 1975 1976 1977 1978 1979 0
-1973 -1974 0
-1973 -1975 0
-1973 -1976 0
-1973 -1977 0
-1973 -1978 0
-1973 -1979 0
-1974 -1975 0
-1974 -1976 0
-1974 -1977 0
-1974 -1978 0
-1974 -1979 0
-1975 -1976 0
-1975 -1977 0
-1975 -1978 0
-1975 -1979 0
-1976 -1977 0
-1976 -1978 0
-1976 -1979 0
-1977 -1978 0
-1977 -1979 0
-1978 -1979 0
1980 1981 1982 1983 1984 1985 1986 0
-1980 -1981 0
-1980 -1982 0
-1980 -1983 0
-1980 -1984 0
-1980 -1985 0
-1980 -1986 0
-1981 -1982 0
-1981 -1983 0
-1981 -1984 0
-1981 -1985 0
-1981 -1986 0
-1982 -1983 0
-1982 -1984 0
-1982 -1985 0
-1982 -1986 0
-1983 -1984 0
-1983 -1985 0
-1983 -1986 0
-1984 -1985 0
-1984 -1986 0
-1985 -1986 0
1987 1988 1989 1990 1991 1992 1993 0
-1987 -1988 0
-1987 -1989 0
-1987 -1990 0
-1987 -1991 0
-1987 -1992 0
-1987 -1993 0
-1988 -1989 0
-1988 -1990 0
-1988 -1991 0
-1988 -1992 0
-1988 -1993 0
-1989 -1990 0
-1989 -1991 0
-1989 -1992 0
-1989 -1993 0
-1990 -1991 0
-1990 -1992 0
-1990 -1993 0
-1991 -1992 0
-1991 -1993 0
-1992 -1993 0
1994 1995 1996 1997 1998 1999 2000 0
-1994 -1995 0
-1994 -1996 0
-1994 -1997 0
-1994 -1998 0
-1994 -1999 0
-1994 -2000 0
-1995 -1996 0
-1995 -1997 0
-1995 -1998 0
-1995 -1999 0
-1995 -2000 0
-1996 -1997 0
-1996 -1998 0
-1996 -1999 0
-1996 -2000 0
-1997 -1998 0
-1997 -1999 0
-1997 -2000 0
-1998 -1999 0
-1998 -2000 0
-1999 -2000 0
2001 2002 2003 2004 2005 2006 2007 0
-2001 -2002 0
-2001 -2003 0
-2001 -2004 0
-2001 -2005 0
-2001 -2006 0
-2001 -2007 0
-2002 -2003 0
-2002 -2004 0
-2002 -2005 0
-2002 -2006 0
-2002 -2007 0
-2003 -2004 0
-2003 -2005 0
-2003 -2006 0
-2003 -2007 0
-2004 -2005 0
-2004 -2006 0
-2004 -2007 0
-2005 -2006 0
-2005 -2007 0
-2006 -2007 0
2008 2009 2010 2011 2012 2013 2014 0
-2008 -2009 0
-2008 -2010 0
-2008 -2011 0
-2008 -2012 0
-2008 -2013 0
-2008 -2014 0
-2009 -2010 0
-2009 -2011 0
-2009 -2012 0
-2009 -2013 0
-2009 -2014 0
-2010 -2011 0
-2010 -2012 0
-2010 -2013 0
-2010 -2014 0
-2011 -2012 0
-2011 -2013 0
-2011 -2014 0
-2012 -2013 0
-2012 -2014 0
-2013 -2014 0
2015 2016 2017 2018 2019 2020 2021 0
-2015 -2016 0
-2015 -2017 0
-2015 -2018 0
-2015 -2019 0
-2015 -2020 0
-2015 -2021 0
-2016 -2017 0
-2016 -2018 0
-2016 -2019 0
-2016 -2020 0
-2016 -2021 0
-2017 -2018 0
-2017 -2019 0
-2017 -2020 0
-2017 -2021 0
-2018 -2019 0
-2018 -2020 0
-2018 -2021 0
-2019 -2020 0
-2019 -2021 0
-2020 -2021 0
2022 2023 2024 2025 2026 2027 2028 0
-2022 -2023 0
-2022 -2024 0
-2022 -2025 0
-2022 -2026 0
-2022 -2027 0
-2022 -2028 0
-2023 -2024 0
-2023 -2025 0
-2023 -2026 0
-2023 -2027 0
-2023 -2028 0
-2024 -2025 0
-2024 -2026 0
-2024 -2027 0
-2024 -2028 0
-2025 -2026 0
-2025 -2027 0
-2025 -2028 0
-2026 -2027 0
-2026 -2028 0
-2027 -2028 0
2029 2030 2031 2032 2033 2034 2035 0
-2029 -2030 0
-2029 -2031 0
-2029 -2032 0
-2029 -2033 0
-2029 -2034 0
-2029 -2035 0
-2030 -2031 0
-2030 -2032 0
-2030 -2033 0
-2030 -2034 0
-2030 -2035 0
-2031 -2032 0
-2031 -2033 0
-2031 -2034 0
-2031 -2035 0
-2032 -2033 0
-2032 -2034 0
-2032 -2035 0
-2033 -2034 0
-2033 -2035 0
-2034 -2035 0
2036 2037 2038 2039 2040 2041 2042 0
-2036 -2037 0
-2036 -2038 0
-2036 -2039 0
-2036 -2040 0
-2036 -2041 0
-2036 -2042 0
-2037 -2038 0
-2037 -2039 0
-2037 -2040 0
-2037 -2041 0
-2037 -2042 0
-2038 -2039 0
-2038 -2040 0
-2038 -2041 0
-2038 -2042 0
-2039 -2040 0
-2039 -2041 0
-2039 -2042 0
-2040 -2041 0
-2040 -2042 0
-2041 -2042 0
2043 2044 2045 2046 2047 2048 2049 0
-2043 -2044 0
-2043 -2045 0
-2043 -2046 0
-2043 -2047 0
-2043 -2048 0
-2043 -2049 0
-2044 -2045 0
-2044 -2046 0
-2044 -2047 0
-2044 -2048 0
-2044 -2049 0
-2045 -2046 0
-2045 -2047 0
-2045 -2048 0
-2045 -2049 0
-2046 -2047 0
-2046 -2048 0
-2046 -2049 0
-2047 -2048 0
-2047 -2049 0
-2048 -2049 0
2050 2051 2052 2053 2054 2055 2056 0
-2050 -2051 0
-2050 -2052 0
-2050 -2053 0
-2050 -2054 0
-2050 -2055 0
-2050 -2056 0
-2051 -2052 0
-2051 -2053 0
-2051 -2054 0
-2051 -2055 0
-2051 -2056 0
-2052 -2053 0
-2052 -2054 0
-2052 -2055 0
-2052 -2056 0
-2053 -2054 0
-2053 -2055 0
-2053 -2056 0
-2054 -2055 0
-2054 -2056 0
-2055 -2056 0
2057 2058 2059 2060 2061 2062 2063 0
-2057 -2058 0
-2057 -2059 0
-2057 -2060 0
-2057 -2061 0
-2057 -2062 0
-2057 -2063 0
-2058 -2059 0
-2058 -2060 0
-2058 -2061 0
-2058 -2062 0
-2058 -2063 0
-2059 -2060 0
-2059 -2061 0
-2059 -2062 0
-2059 -2063 0
-2060 -2061 0
-2060 -2062 0
-2060 -2063 0
-2061 -2062 0
-2061 -2063 0
-2062 -2063 0
2064 2065 2066 2067 2068 2069 2070 0
-2064 -2065 0
-2064 -2066 0
-2064 -2067 0
-2064 -2068 0
-2064 -2069 0
-2064 -2070 0
-2065 -2066 0
-2065 -2067 0
-2065 -2068 0
-2065 -2069 0
-2065 -2070 0
-2066 -2067 0
-2066 -2068 0
-2066 -2069 0
-2066 -2070 0
-2067 -2068 0
-2067 -2069 0
-2067 -2070 0
-2068 -2069 0
-2068 -2070 0
-2069 -2070 0
2071 2072 2073 2074 2075 2076 2077 0
-2071 -2072 0
-2071 -2073 0
-2071 -2074 0
-2071 -2075 0
-2071 -2076 0
-2071 -2077 0
-2072 -2073 0
-2072 -2074 0
-2072 -2075 0
-2072 -2076 0
-2072 -2077 0
-2073 -2074 0
-2073 -2075 0
-2073 -2076 0
-2073 -2077 0
-2074 -2075 0
-2074 -2076 0
-2074 -2077 0
-2075 -2076 0
-2075 -2077 0
-2076 -2077 0
2078 2079 2080 2081 2082 2083 2084 0
-2078 -2079 0
-2078 -2080 0
-2078 -2081 0
-2078 -2082 0
-2078 -2083 0
-2078 -2084 0
-2079 -2080 0
-2079 -2081 0
-2079 -2082 0
-2079 -2083 0
-2079 -2084 0
-2080 -2081 0
-2080 -2082 0
-2080 -2083 0
-2080 -2084 0
-2081 -2082 0
-2081 -2083 0
-2081 -2084 0
-2082 -2083 0
-2082 -2084 0
-2083 -2084 0
2085 2086 2087 2088 2089 2090 2091 0
-2085 -2086 0
-2085 -2087 0
-2085 -2088 0
-2085 -2089 0
-2085 -2090 0
-2085 -2091 0
-2086 -2087 0
-2086 -2088 0
-2086 -2089 0
-2086 -2090 0
-2086 -2091 0
-2087 -2088 0
-2087 -2089 0
-2087 -2090 0
-2087 -2091 0
-2088 -2089 0
-2088 -2090 0
-2088 -2091 0
-2089 -2090 0
-2089 -2091 0
-2090 -2091 0
2092 2093 2094 2095 2096 2097 2098 0
-2092 -2093 0
-2092 -2094 0
-2092 -2095 0
-2092 -2096 0
-2092 -2097 0
-2092 -2098 0
-2093 -2094 0
-2093 -2095 0
-2093 -2096 0
-2093 -2097 0
-2093 -2098 0
-2094 -2095 0
-2094 -2096 0
-2094 -2097 0
-2094 -2098 0
-2095 -2096 0
-2095 -2097 0
-2095 -2098 0
-2096 -2097 0
-2096 -2098 0
-2097 -2098 0
2099 2100 2101 2102 2103 2104 2105 0
-2099 -2100 0
-2099 -2101 0
-2099 -2102 0
-2099 -2103 0
-2099 -2104 0
-2099 -2105 0
-2100 -2101 0
-2100 -2102 0
-2100 -2103 0
-2100 -2104 0
-2100 -2105 0
-2101 -2102 0
-2101 -2103 0
-2101 -2104 0
-2101 -2105 0
-2102 -2103 0
-2102 -2104 0
-2102 -2105 0
-2103 -2104 0
-2103 -2105 0
-2104 -2105 0
2106 2107 2108 2109 2110 2111 2112 0
-2106 -2107 0
-2106 -2108 0
-2106 -2109 0
-2106 -2110 0
-2106 -2111 0
-2106 -2112 0
-2107 -2108 0
-2107 -2109 0
-2107 -2110 0
-2107 -2111 0
-2107 -2112 0
-2108 -2109 0
-2108 -2110 0
-2108 -2111 0
-2108 -2112 0
-2109 -2110 0
-2109 -2111 0
-2109 -2112 0
-2110 -2111 0
-2110 -2112 0
-2111 -2112 0
2113 2114 2115 2116 2117 2118 2119 0
-2113 -2114 0
-2113 -2115 0
-2113 -2116 0
-2113 -2117 0
-2113 -2118 0
-2113 -2119 0
-2114 -2115 0
-2114 -2116 0
-2114 -2117 0
-2114 -2118 0
-2114 -2119 0
-2115 -2116 0
-2115 -2117 0
-2115 -2118 0
-2115 -2119 0
-2116 -2117 0
-2116 -2118 0
-2116 -2119 0
-2117 -2118 0
-2117 -2119 0
-2118 -2119 0
2120 2121 2122 2123 2124 2125 2126 0
-2120 -2121 0
-2120 -2122 0
-2120 -2123 0
-2120 -2124 0
-2120 -2125 0
-2120 -2126 0
-2121 -2122 0
-2121 -2123 0
-2121 -2124 0
-2121 -2125 0
-2121 -2126 0
-2122 -2123 0
-2122 -2124 0
-2122 -2125 0
-2122 -2126 0
-2123 -2124 0
-2123 -2125 0
-2123 -2126 0
-2124 -2125 0
-2124 -2126 0
-2125 -2126 0
2127 2128 2129 2130 2131 2132 2133 0
-2127 -2128 0
-2127 -2129 0
-2127 -2130 0
-2127 -2131 0
-2127 -2132 0
-2127 -2133 0
-2128 -2129 0
-2128 -2130 0
-2128 -2131 0
-2128 -2132 0
-2128 -2133 0
-2129 -2130 0
-2129 -2131 0
-2129 -2132 0
-2129 -2133 0
-2130 -2131 0
-2130 -2132 0
-2130 -2133 0
-2131 -2132 0
-2131 -2133 0
-2132 -2133 0
2134 2135 2136 2137 2138 2139 2140 0
-2134 -2135 0
-2134 -2136 0
-2134 -2137 0
-2134 -2138 0
-2134 -2139 0
-2134 -2140 0
-2135 -2136 0
-2135 -2137 0
-2135 -2138 0
-2135 -2139 0
-2135 -2140 0
-2136 -2137 0
-2136 -2138 0
-2136 -2139 0
-2136 -2140 0
-2137 -2138 0
-2137 -2139 0
-2137 -2140 0
-2138 -2139 0
-2138 -2140 0
-2139 -2140 0
2141 2142 2143 2144 2145 2146 2147 0
-2141 -2142 0
-2141 -2143 0
-2141 -2144 0
-2141 -2145 0
-2141 -2146 0
-2141 -2147 0
-2142 -2143 0
-2142 -2144 0
-2142 -2145 0
-2142 -2146 0
-2142 -2147 0
-2143 -2144 0
-2143 -2145 0
-2143 -2146 0
-2143 -2147 0
-2144 -2145 0
-2144 -2146 0
-2144 -2147 0
-2145 -2146 0
-2145 -2147 0
-2146 -2147 0
2148 2149 2150 2151 2152 2153 2154 0
-2148 -2149 0
-2148 -2150 0
-2148 -2151 0
-2148 -2152 0
-2148 -2153 0
-2148 -2154 0
-2149 -2150 0
-2149 -2151 0
-2149 -2152 0
-2149 -2153 0
-2149 -2154 0
-2150 -2151 0
-2150 -2152 0
-2150 -2153 0
-2150 -2154 0
-2151 -2152 0
-2151 -2153 0
-2151 -2154 0
-2152 -2153 0
-2152 -2154 0
-2153 -2154 0
2155 2156 2157 2158 2159 2160 2161 0
-2155 -2156 0
-2155 -2157 0
-2155 -2158 0
-2155 -2159 0
-2155 -2160 0
-2155 -2161 0
-2156 -2157 0
-2156 -2158 0
-2156 -2159 0
-2156 -2160 0
-2156 -2161 0
-2157 -2158 0
-2157 -2159 0
-2157 -2160 0
-2157 -2161 0
-2158 -2159 0
-2158 -2160 0
-2158 -2161 0
-2159 -2160 0
-2159 -2161 0
-2160 -2161 0
2162 2163 2164 2165 2166 2167 2168 0
-2162 -2163 0
-2162 -2164 0
-2162 -2165 0
-2162 -2166 0
-2162 -2167 0
-2162 -2168 0
-2163 -2164 0
-2163 -2165 0
-2163 -2166 0
-2163 -2167 0
-2163 -2168 0
-2164 -2165 0
-2164 -2166 0
-2164 -2167 0
-2164 -2168 0
-2165 -2166 0
-2165 -2167 0
-2165 -2168 0
-2166 -2167 0
-2166 -2168 0
-2167 -2168 0
2169 2170 2171 2172 2173 2174 2175 0
-2169 -2170 0
-2169 -2171 0
-2169 -2172 0
-2169 -2173 0
-2169 -2174 0
-2169 -2175 0
-2170 -2171 0
-2170 -2172 0
-2170 -2173 0
-2170 -2174 0
-2170 -2175 0
-2171 -2172 0
-2171 -2173 0
-2171 -2174 0
-2171 -2175 0
-2172 -2173 0
-2172 -2174 0
-2172 -2175 0
-2173 -2174 0
-2173 -2175 0
-2174 -2175 0
2176 2177 2178 2179 2180 2181 2182 0
-2176 -2177 0
-2176 -2178 0
-2176 -2179 0
-2176 -2180 0
-2176 -2181 0
-2176 -2182 0
-2177 -2178 0
-2177 -2179 0
-2177 -2180 0
-2177 -2181 0
-2177 -2182 0
-2178 -2179 0
-2178 -2180 0
-2178 -2181 0
-2178 -2182 0
-2179 -2180 0
-2179 -2181 0
-2179 -2182 0
-2180 -2181 0
-2180 -2182 0
-2181 -2182 0
2183 2184 2185 2186 2187 2188 2189 0
-2183 -2184 0
-2183 -2185 0
-2183 -2186 0
-2183 -2187 0
-2183 -2188 0
-2183 -2189 0
-2184 -2185 0
-2184 -2186 0
-2184 -2187 0
-2184 -2188 0
-2184 -2189 0
-2185 -2186 0
-2185 -2187 0
-2185 -2188 0
-2185 -2189 0
-2186 -2187 0
-2186 -2188 0
-2186 -2189 0
-2187 -2188 0
-2187 -2189 0
-2188 -2189 0
2190 2191 2192 2193 2194 2195 2196 0
-2190 -2191 0
-2190 -2192 0
-2190 -2193 0
-2190 -2194 0
-2190 -2195 0
-2190 -2196 0
-2191 -2192 0
-2191 -2193 0
-2191 -2194 0
-2191 -2195 0
-2191 -2196 0
-2192 -2193 0
-2192 -2194 0
-2192 -2195 0
-2192 -2196 0
-2193 -2194 0
-2193 -2195 0
-2193 -2196 0
-2194 -2195 0
-2194 -2196 0
-2195 -2196 0
2197 2198 2199 2200 2201 2202 2203 0
-2197 -2198 0
-2197 -2199 0
-2197 -2200 0
-2197 -2201 0
-2197 -2202 0
-2197 -2203 0
-2198 -2199 0
-2198 -2200 0
-2198 -2201 0
-2198 -2202 0
-2198 -2203 0
-2199 -2200 0
-2199 -2201 0
-2199 -2202 0
-2199 -2203 0
-2200 -2201 0
-2200 -2202 0
-2200 -2203 0
-2201 -2202 0
-2201 -2203 0
-2202 -2203 0
2204 2205 2206 2207 2208 2209 2210 0
-2204 -2205 0
-2204 -2206 0
-2204 -2207 0
-2204 -2208 0
-2204 -2209 0
-2204 -2210 0
-2205 -2206 0
-2205 -2207 0
-2205 -2208 0
-2205 -2209 0
-2205 -2210 0
-2206 -2207 0
-2206 -2208 0
-2206 -2209 0
-2206 -2210 0
-2207 -2208 0
-2207 -2209 0
-2207 -2210 0
-2208 -2209 0
-2208 -2210 0
-2209 -2210 0
2211 2212 2213 2214 2215 2216 2217 0
-2211 -2212 0
-2211 -2213 0
-2211 -2214 0
-2211 -2215 0
-2211 -2216 0
-2211 -2217 0
-2212 -2213 0
-2212 -2214 0
-2212 -2215 0
-2212 -2216 0
-2212 -2217 0
-2213 -2214 0
-2213 -2215 0
-2213 -2216 0
-2213 -2217 0
-2214 -2215 0
-2214 -2216 0
-2214 -2217 0
-2215 -2216 0
-2215 -2217 0
-2216 -2217 0
2218 2219 2220 2221 2222 2223 2224 0
-2218 -2219 0
-2218 -2220 0
-2218 -2221 0
-2218 -2222 0
-2218 -2223 0
-2218 -2224 0
-2219 -2220 0
-2219 -2221 0
-2219 -2222 0
-2219 -2223 0
-2219 -2224 0
-2220 -2221 0
-2220 -2222 0
-2220 -2223 0
-2220 -2224 0
-2221 -2222 0
-2221 -2223 0
-2221 -2224 0
-2222 -2223 0
-2222 -2224 0
-2223 -2224 0
2225 2226 2227 2228 2229 2230 2231 0
-2225 -2226 0
-2225 -2227 0
-2225 -2228 0
-2225 -2229 0
-2225 -2230 0
-2225 -2231 0
-2226 -2227 0
-2226 -2228 0
-2226 -2229 0
-2226 -2230 0
-2226 -2231 0
-2227 -2228 0
-2227 -2229 0
-2227 -2230 0
-2227 -2231 0
-2228 -2229 0
-2228 -2230 0
-2228 -2231 0
-2229 -2230 0
-2229 -2231 0
-2230 -2231 0
2232 2233 2234 2235 2236 2237 2238 0
-2232 -2233 0
-2232 -2234 0
-2232 -2235 0
-2232 -2236 0
-2232 -2237 0
-2232 -2238 0
-2233 -2234 0
-2233 -2235 0
-2233 -2236 0
-2233 -2237 0
-2233 -2238 0
-2234 -2235 0
-2234 -2236 0
-2234 -2237 0
-2234 -2238 0
-2235 -2236 0
-2235 -2237 0
-2235 -2238 0
-2236 -2237 0
-2236 -2238 0
-2237 -2238 0
2239 2240 2241 2242 2243 2244 2245 0
-2239 -2240 0
-2239 -2241 0
-2239 -2242 0
-2239 -2243 0
-2239 -2244 0
-2239 -2245 0
-2240 -2241 0
-2240 -2242 0
-2240 -2243 0
-2240 -2244 0
-2240 -2245 0
-2241 -2242 0
-2241 -2243 0
-2241 -2244 0
-2241 -2245 0
-2242 -2243 0
-2242 -2244 0
-2242 -2245 0
-2243 -2244 0
-2243 -2245 0
-2244 -2245 0
2246 2247 2248 2249 2250 2251 2252 0
-2246 -2247 0
-2246 -2248 0
-2246 -2249 0
-2246 -2250 0
-2246 -2251 0
-2246 -2252 0
-2247 -2248 0
-2247 -2249 0
-2247 -2250 0
-2247 -2251 0
-2247 -2252 0
-2248 -2249 0
-2248 -2250 0
-2248 -2251 0
-2248 -2252 0
-2249 -2250 0
-2249 -2251 0
-2249 -2252 0
-2250 -2251 0
-2250 -2252 0
-2251 -2252 0
2253 2254 2255 2256 2257 2258 2259 0
-2253 -2254 0
-2253 -2255 0
-2253 -2256 0
-2253 -2257 0
-2253 -2258 0
-2253 -2259 0
-2254 -2255 0
-2254 -2256 0
-2254 -2257 0
-2254 -2258 0
-2254 -2259 0
-2255 -2256 0
-2255 -2257 0
-2255 -2258 0
-2255 -2259 0
-2256 -2257 0
-2256 -2258 0
-2256 -2259 0
-2257 -2258 0
-2257 -2259 0
-2258 -2259 0
2260 2261 2262 2263 2264 2265 2266 0
-2260 -2261 0
-2260 -2262 0
-2260 -2263 0
-2260 -2264 0
-2260 -2265 0
-2260 -2266 0
-2261 -2262 0
-2261 -2263 0
-2261 -2264 0
-2261 -2265 0
-2261 -2266 0
-2262 -2263 0
-2262 -2264 0
-2262 -2265 0
-2262 -2266 0
-2263 -2264 0
-2263 -2265 0
-2263 -2266 0
-2264 -2265 0
-2264 -2266 0
-2265 -2266 0
2267 2268 2269 2270 2271 2272 2273 0
-2267 -2268 0
-2267 -2269 0
-2267 -2270 0
-2267 -2271 0
-2267 -2272 0
-2267 -2273 0
-2268 -2269 0
-2268 -2270 0
-2268 -2271 0
-2268 -2272 0
-2268 -2273 0
-2269 -2270 0
-2269 -2271 0
-2269 -2272 0
-2269 -2273 0
-2270 -2271 0
-2270 -2272 0
-2270 -2273 0
-2271 -2272 0
-2271 -2273 0
-2272 -2273 0
2274 2275 2276 2277 2278 2279 2280 0
-2274 -2275 0
-2274 -2276 0
-2274 -2277 0
-2274 -2278 0
-2274 -2279 0
-2274 -2280 0
-2275 -2276 0
-2275 -2277 0
-2275 -2278 0
-2275 -2279 0
-2275 -2280 0
-2276 -2277 0
-2276 -2278 0
-2276 -2279 0
-2276 -2280 0
-2277 -2278 0
-2277 -2279 0
-2277 -2280 0
-2278 -2279 0
-2278 -2280 0
-2279 -2280 0
2281 2282 2283 2284 2285 2286 2287 0
-2281 -2282 0
-2281 -2283 0
-2281 -2284 0
-2281 -2285 0
-2281 -2286 0
-2281 -2287 0
-2282 -2283 0
-2282 -2284 0
-2282 -2285 0
-2282 -2286 0
-2282 -2287 0
-2283 -2284 0
-2283 -2285 0
-2283 -2286 0
-2283 -2287 0
-2284 -2285 0
-2284 -2286 0
-2284 -2287 0
-2285 -2286 0
-2285 -2287 0
-2286 -2287 0
2288 2289 2290 2291 2292 2293 2294 0
-2288 -2289 0
-2288 -2290 0
-2288 -2291 0
-2288 -2292 0
-2288 -2293 0
-2288 -2294 0
-2289 -2290 0
-2289 -2291 0
-2289 -2292 0
-2289 -2293 0
-2289 -2294 0
-2290 -2291 0
-2290 -2292 0
-2290 -2293 0
-2290 -2294 0
-2291 -2292 0
-2291 -2293 0
-2291 -2294 0
-2292 -2293 0
-2292 -2294 0
-2293 -2294 0
2295 2296 2297 2298 2299 2300 2301 0
-2295 -2296 0
-2295 -2297 0
-2295 -2298 0
-2295 -2299 0
-2295 -2300 0
-2295 -2301 0
-2296 -2297 0
-2296 -2298 0
-2296 -2299 0
-2296 -2300 0
-2296 -2301 0
-2297 -2298 0
-2297 -2299 0
-2297 -2300 0
-2297 -2301 0
-2298 -2299 0
-2298 -2300 0
-2298 -2301 0
-2299 -2300 0
-2299 -2301 0
-2300 -2301 0
2302 2303 2304 2305 2306 2307 2308 0
-2302 -2303 0
-2302 -2304 0
-2302 -2305 0
-2302 -2306 0
-2302 -2307 0
-2302 -2308 0
-2303 -2304 0
-2303 -2305 0
-2303 -2306 0
-2303 -2307 0
-2303 -2308 0
-2304 -2305 0
-2304 -2306 0
-2304 -2307 0
-2304 -2308 0
-2305 -2306 0
-2305 -2307 0
-2305 -2308 0
-2306 -2307 0
-2306 -2308 0
-2307 -2308 0
2309 2310 2311 2312 2313 2314 2315 0
-2309 -2310 0
-2309 -2311 0
-2309 -2312 0
-2309 -2313 0
-2309 -2314 0
-2309 -2315 0
-2310 -2311 0
-2310 -2312 0
-2310 -2313 0
-2310 -2314 0
-2310 -2315 0
-2311 -2312 0
-2311 -2313 0
-2311 -2314 0
-2311 -2315 0
-2312 -2313 0
-2312 -2314 0
-2312 -2315 0
-2313 -2314 0
-2313 -2315 0
-2314 -2315 0
2316 2317 2318 2319 2320 2321 2322 0
-2316 -2317 0
-2316 -2318 0
-2316 -2319 0
-2316 -2320 0
-2316 -2321 0
-2316 -2322 0
-2317 -2318 0
-2317 -2319 0
-2317 -2320 0
-2317 -2321 0
-2317 -2322 0
-2318 -2319 0
-2318 -2320 0
-2318 -2321 0
-2318 -2322 0
-2319 -2320 0
-2319 -2321 0
-2319 -2322 0
-2320 -2321 0
-2320 -2322 0
-2321 -2322 0
2323 2324 2325 2326 2327 2328 2329 0
-2323 -2324 0
-2323 -2325 0
-2323 -2326 0
-2323 -2327 0
-2323 -2328 0
-2323 -2329 0
-2324 -2325 0
-2324 -2326 0
-2324 -2327 0
-2324 -2328 0
-2324 -2329 0
-2325 -2326 0
-2325 -2327 0
-2325 -2328 0
-2325 -2329 0
-2326 -2327 0
-2326 -2328 0
-2326 -2329 0
-2327 -2328 0
-2327 -2329 0
-2328 -2329 0
2330 2331 2332 2333 2334 2335 2336 0
-2330 -2331 0
-2330 -2332 0
-2330 -2333 0
-2330 -2334 0
-2330 -2335 0
-2330 -2336 0
-2331 -2332 0
-2331 -2333 0
-2331 -2334 0
-2331 -2335 0
-2331 -2336 0
-2332 -2333 0
-2332 -2334 0
-2332 -2335 0
-2332 -2336 0
-2333 -2334 0
-2333 -2335 0
-2333 -2336 0
-2334 -2335 0
-2334 -2336 0
-2335 -2336 0
2337 2338 2339 2340 2341 2342 2343 0
-2337 -2338 0
-2337 -2339 0
-2337 -2340 0
-2337 -2341 0
-2337 -2342 0
-2337 -2343 0
-2338 -2339 0
-2338 -2340 0
-2338 -2341 0
-2338 -2342 0
-2338 -2343 0
-2339 -2340 0
-2339 -2341 0
-2339 -2342 0
-2339 -2343 0
-2340 -2341 0
-2340 -2342 0
-2340 -2343 0
-2341 -2342 0
-2341 -2343 0
-2342 -2343 0
2344 2345 2346 2347 2348 2349 2350 0
-2344 -2345 0
-2344 -2346 0
-2344 -2347 0
-2344 -2348 0
-2344 -2349 0
-2344 -2350 0
-2345 -2346 0
-2345 -2347 0
-2345 -2348 0
-2345 -2349 0
-2345 -2350 0
-2346 -2347 0
-2346 -2348 0
-2346 -2349 0
-2346 -2350 0
-2347 -2348 0
-2347 -2349 0
-2347 -2350 0
-2348 -2349 0
-2348 -2350 0
-2349 -2350 0
2351 2352 2353 2354 2355 2356 2357 0
-2351 -2352 0
-2351 -2353 0
-2351 -2354 0
-2351 -2355 0
-2351 -2356 0
-2351 -2357 0
-2352 -2353 0
-2352 -2354 0
-2352 -2355 0
-2352 -2356 0
-2352 -2357 0
-2353 -2354 0
-2353 -2355 0
-2353 -2356 0
-2353 -2357 0
-2354 -2355 0
-2354 -2356 0
-2354 -2357 0
-2355 -2356 0
-2355 -2357 0
-2356 -2357 0
2358 2359 2360 2361 2362 2363 2364 0
-2358 -2359 0
-2358 -2360 0
-2358 -2361 0
-2358 -2362 0
-2358 -2363 0
-2358 -2364 0
-2359 -2360 0
-2359 -2361 0
-2359 -2362 0
-2359 -2363 0
-2359 -2364 0
-2360 -2361 0
-2360 -2362 0
-2360 -2363 0
-2360 -2364 0
-2361 -2362 0
-2361 -2363 0
-2361 -2364 0
-2362 -2363 0
-2362 -2364 0
-2363 -2364 0
2365 2366 2367 2368 2369 2370 2371 0
-2365 -2366 0
-2365 -2367 0
-2365 -2368 0
-2365 -2369 0
-2365 -2370 0
-2365 -2371 0
-2366 -2367 0
-2366 -2368 0
-2366 -2369 0
-2366 -2370 0
-2366 -2371 0
-2367 -2368 0
-2367 -2369 0
-2367 -2370 0
-2367 -2371 0
-2368 -2369 0
-2368 -2370 0
-2368 -2371 0
-2369 -2370 0
-2369 -2371 0
-2370 -2371 0
2372 2373 2374 2375 2376 2377 2378 0
-2372 -2373 0
-2372 -2374 0
-2372 -2375 0
-2372 -2376 0
-2372 -2377 0
-2372 -2378 0
-2373 -2374 0
-2373 -2375 0
-2373 -2376 0
-2373 -2377 0
-2373 -2378 0
-2374 -2375 0
-2374 -2376 0
-2374 -2377 0
-2374 -2378 0
-2375 -2376 0
-2375 -2377 0
-2375 -2378 0
-2376 -2377 0
-2376 -2378 0
-2377 -2378 0
2379 2380 2381 2382 2383 2384 2385 0
-2379 -2380 0
-2379 -2381 0
-2379 -2382 0
-2379 -2383 0
-2379 -2384 0
-2379 -2385 0
-2380 -2381 0
-2380 -2382 0
-2380 -2383 0
-2380 -2384 0
-2380 -2385 0
-2381 -2382 0
-2381 -2383 0
-2381 -2384 0
-2381 -2385 0
-2382 -2383 0
-2382 -2384 0
-2382 -2385 0
-2383 -2384 0
-2383 -2385 0
-2384 -2385 0
2386 2387 2388 2389 2390 2391 2392 0
-2386 -2387 0
-2386 -2388 0
-2386 -2389 0
-2386 -2390 0
-2386 -2391 0
-2386 -2392 0
-2387 -2388 0
-2387 -2389 0
-2387 -2390 0
-2387 -2391 0
-2387 -2392 0
-2388 -2389 0
-2388 -2390 0
-2388 -2391 0
-2388 -2392 0
-2389 -2390 0
-2389 -2391 0
-2389 -2392 0
-2390 -2391 0
-2390 -2392 0
-2391 -2392 0
2393 2394 2395 2396 2397 2398 2399 0
-2393 -2394 0
-2393 -2395 0
-2393 -2396 0
-2393 -2397 0
-2393 -2398 0
-2393 -2399 0
-2394 -2395 0
-2394 -2396 0
-2394 -2397 0
-2394 -2398 0
-2394 -2399 0
-2395 -2396 0
-2395 -2397 0
-2395 -2398 0
-2395 -2399 0
-2396 -2397 0
-2396 -2398 0
-2396 -2399 0
-2397 -2398 0
-2397 -2399 0
-2398 -2399 0
2400 2401 2402 2403 2404 2405 2406 0
-2400 -2401 0
-2400 -2402 0
-2400 -2403 0
-2400 -2404 0
-2400 -2405 0
-2400 -2406 0
-2401 -2402 0
-2401 -2403 0
-2401 -2404 0
-2401 -2405 0
-2401 -2406 0
-2402 -2403 0
-2402 -2404 0
-2402 -2405 0
-2402 -2406 0
-2403 -2404 0
-2403 -2405 0
-2403 -2406 0
-2404 -2405 0
-2404 -2406 0
-2405 -2406 0
2407 2408 2409 2410 2411 2412 2413 0
-2407 -2408 0
-2407 -2409 0
-2407 -2410 0
-2407 -2411 0
-2407 -2412 0
-2407 -2413 0
-2408 -2409 0
-2408 -2410 0
-2408 -2411 0
-2408 -2412 0
-2408 -2413 0
-2409 -2410 0
-2409 -2411 0
-2409 -2412 0
-2409 -2413 0
-2410 -2411 0
-2410 -2412 0
-2410 -2413 0
-2411 -2412 0
-2411 -2413 0
-2412 -2413 0
2414 2415 2416 2417 2418 2419 2420 0
-2414 -2415 0
-2414 -2416 0
-2414 -2417 0
-2414 -2418 0
-2414 -2419 0
-2414 -2420 0
-2415 -2416 0
-2415 -2417 0
-2415 -2418 0
-2415 -2419 0
-2415 -2420 0
-2416 -2417 0
-2416 -2418 0
-2416 -2419 0
-2416 -2420 0
-2417 -2418 0
-2417 -2419 0
-2417 -2420 0
-2418 -2419 0
-2418 -2420 0
-2419 -2420 0
2421 2422 2423 2424 2425 2426 2427 0
-2421 -2422 0
-2421 -2423 0
-2421 -2424 0
-2421 -2425 0
-2421 -2426 0
-2421 -2427 0
-2422 -2423 0
-2422 -2424 0
-2422 -2425 0
-2422 -2426 0
-2422 -2427 0
-2423 -2424 0
-2423 -2425 0
-2423 -2426 0
-2423 -2427 0
-2424 -2425 0
-2424 -2426 0
-2424 -2427 0
-2425 -2426 0
-2425 -2427 0
-2426 -2427 0
2428 2429 2430 2431 2432 2433 2434 0
-2428 -2429 0
-2428 -2430 0
-2428 -2431 0
-2428 -2432 0
-2428 -2433 0
-2428 -2434 0
-2429 -2430 0
-2429 -2431 0
-2429 -2432 0
-2429 -2433 0
-2429 -2434 0
-2430 -2431 0
-2430 -2432 0
-2430 -2433 0
-2430 -2434 0
-2431 -2432 0
-2431 -2433 0
-2431 -2434 0
-2432 -2433 0
-2432 -2434 0
-2433 -2434 0
2435 2436 2437 2438 2439 2440 2441 0
-2435 -2436 0
-2435 -2437 0
-2435 -2438 0
-2435 -2439 0
-2435 -2440 0
-2435 -2441 0
-2436 -2437 0
-2436 -2438 0
-2436 -2439 0
-2436 -2440 0
-2436 -2441 0
-2437 -2438 0
-2437 -2439 0
-2437 -2440 0
-2437 -2441 0
-2438 -2439 0
-2438 -2440 0
-2438 -2441 0
-2439 -2440 0
-2439 -2441 0
-2440 -2441 0
2442 2443 2444 2445 2446 2447 2448 0
-2442 -2443 0
-2442 -2444 0
-2442 -2445 0
-2442 -2446 0
-2442 -2447 0
-2442 -2448 0
-2443 -2444 0
-2443 -2445 0
-2443 -2446 0
-2443 -2447 0
-2443 -2448 0
-2444 -2445 0
-2444 -2446 0
-2444 -2447 0
-2444 -2448 0
-2445 -2446 0
-2445 -2447 0
-2445 -2448 0
-2446 -2447 0
-2446 -2448 0
-2447 -2448 0
2449 2450 2451 2452 2453 2454 2455 0
-2449 -2450 0
-2449 -2451 0
-2449 -2452 0
-2449 -2453 0
-2449 -2454 0
-2449 -2455 0
-2450 -2451 0
-2450 -2452 0
-2450 -2453 0
-2450 -2454 0
-2450 -2455 0
-2451 -2452 0
-2451 -2453 0
-2451 -2454 0
-2451 -2455 0
-2452 -2453 0
-2452 -2454 0
-2452 -2455 0
-2453 -2454 0
-2453 -2455 0
-2454 -2455 0
2456 2457 2458 2459 2460 2461 2462 0
-2456 -2457 0
-2456 -2458 0
-2456 -2459 0
-2456 -2460 0
-2456 -2461 0
-2456 -2462 0
-2457 -2458 0
-2457 -2459 0
-2457 -2460 0
-2457 -2461 0
-2457 -2462 0
-2458 -2459 0
-2458 -2460 0
-2458 -2461 0
-2458 -2462 0
-2459 -2460 0
-2459 -2461 0
-2459 -2462 0
-2460 -2461 0
-2460 -2462 0
-2461 -2462 0
2463 2464 2465 2466 2467 2468 2469 0
-2463 -2464 0
-2463 -2465 0
-2463 -2466 0
-2463 -2467 0
-2463 -2468 0
-2463 -2469 0
-2464 -2465 0
-2464 -2466 0
-2464 -2467 0
-2464 -2468 0
-2464 -2469 0
-2465 -2466 0
-2465 -2467 0
-2465 -2468 0
-2465 -2469 0
-2466 -2467 0
-2466 -2468 0
-2466 -2469 0
-2467 -2468 0
-2467 -2469 0
-2468 -2469 0
2470 2471 2472 2473 2474 2475 2476 0
-2470 -2471 0
-2470 -2472 0
-2470 -2473 0
-2470 -2474 0
-2470 -2475 0
-2470 -2476 0
-2471 -2472 0
-2471 -2473 0
-2471 -2474 0
-2471 -2475 0
-2471 -2476 0
-2472 -2473 0
-2472 -2474 0
-2472 -2475 0
-2472 -2476 0
-2473 -2474 0
-2473 -2475 0
-2473 -2476 0
-2474 -2475 0
-2474 -2476 0
-2475 -2476 0
2477 2478 2479 2480 2481 2482 2483 0
-2477 -2478 0
-2477 -2479 0
-2477 -2480 0
-2477 -2481 0
-2477 -2482 0
-2477 -2483 0
-2478 -2479 0
-2478 -2480 0
-2478 -2481 0
-2478 -2482 0
-2478 -2483 0
-2479 -2480 0
-2479 -2481 0
-2479 -2482 0
-2479 -2483 0
-2480 -2481 0
-2480 -2482 0
-2480 -2483 0
-2481 -2482 0
-2481 -2483 0
-2482 -2483 0
2484 2485 2486 2487 2488 2489 2490 0
-2484 -2485 0
-2484 -2486 0
-2484 -2487 0
-2484 -2488 0
-2484 -2489 0
-2484 -2490 0
-2485 -2486 0
-2485 -2487 0
-2485 -2488 0
-2485 -2489 0
-2485 -2490 0
-2486 -2487 0
-2486 -2488 0
-2486 -2489 0
-2486 -2490 0
-2487 -2488 0
-2487 -2489 0
-2487 -2490 0
-2488 -2489 0
-2488 -2490 0
-2489 -2490 0
2491 2492 2493 2494 2495 2496 2497 0
-2491 -2492 0
-2491 -2493 0
-2491 -2494 0
-2491 -2495 0
-2491 -2496 0
-2491 -2497 0
-2492 -2493 0
-2492 -2494 0
-2492 -2495 0
-2492 -2496 0
-2492 -2497 0
-2493 -2494 0
-2493 -2495 0
-2493 -2496 0
-2493 -2497 0
-2494 -2495 0
-2494 -2496 0
-2494 -2497 0
-2495 -2496 0
-2495 -2497 0
-2496 -2497 0
2498 2499 2500 2501 2502 2503 2504 0
-2498 -2499 0
-2498 -2500 0
-2498 -2501 0
-2498 -2502 0
-2498 -2503 0
-2498 -2504 0
-2499 -2500 0
-2499 -2501 0
-2499 -2502 0
-2499 -2503 0
-2499 -2504 0
-2500 -2501 0
-2500 -2502 0
-2500 -2503 0
-2500 -2504 0
-2501 -2502 0
-2501 -2503 0
-2501 -2504 0
-2502 -2503 0
-2502 -2504 0
-2503 -2504 0
2505 2506 2507 2508 2509 2510 2511 0
-2505 -2506 0
-2505 -2507 0
-2505 -2508 0
-2505 -2509 0
-2505 -2510 0
-2505 -2511 0
-2506 -2507 0
-2506 -2508 0
-2506 -2509 0
-2506 -2510 0
-2506 -2511 0
-2507 -2508 0
-2507 -2509 0
-2507 -2510 0
-2507 -2511 0
-2508 -2509 0
-2508 -2510 0
-2508 -2511 0
-2509 -2510 0
-2509 -2511 0
-2510 -2511 0
2512 2513 2514 2515 2516 2517 2518 0
-2512 -2513 0
-2512 -2514 0
-2512 -2515 0
-2512 -2516 0
-2512 -2517 0
-2512 -2518 0
-2513 -2514 0
-2513 -2515 0
-2513 -2516 0
-2513 -2517 0
-2513 -2518 0
-2514 -2515 0
-2514 -2516 0
-2514 -2517 0
-2514 -2518 0
-2515 -2516 0
-2515 -2517 0
-2515 -2518 0
-2516 -2517 0
-2516 -2518 0
-2517 -2518 0
2519 2520 2521 2522 2523 2524 2525 0
-2519 -2520 0
-2519 -2521 0
-2519 -2522 0
-2519 -2523 0
-2519 -2524 0
-2519 -2525 0
-2520 -2521 0
-2520 -2522 0
-2520 -2523 0
-2520 -2524 0
-2520 -2525 0
-2521 -2522 0
-2521 -2523 0
-2521 -2524 0
-2521 -2525 0
-2522 -2523 0
-2522 -2524 0
-2522 -2525 0
-2523 -2524 0
-2523 -2525 0
-2524 -2525 0
2526 2527 2528 2529 2530 2531 2532 0
-2526 -2527 0
-2526 -2528 0
-2526 -2529 0
-2526 -2530 0
-2526 -2531 0
-2526 -2532 0
-2527 -2528 0
-2527 -2529 0
-2527 -2530 0
-2527 -2531 0
-2527 -2532 0
-2528 -2529 0
-2528 -2530 0
-2528 -2531 0
-2528 -2532 0
-2529 -2530 0
-2529 -2531 0
-2529 -2532 0
-2530 -2531 0
-2530 -2532 0
-2531 -2532 0
2533 2534 2535 2536 2537 2538 2539 0
-2533 -2534 0
-2533 -2535 0
-2533 -2536 0
-2533 -2537 0
-2533 -2538 0
-2533 -2539 0
-2534 -2535 0
-2534 -2536 0
-2534 -2537 0
-2534 -2538 0
-2534 -2539 0
-2535 -2536 0
-2535 -2537 0
-2535 -2538 0
-2535 -2539 0
-2536 -2537 0
-2536 -2538 0
-2536 -2539 0
-2537 -2538 0
-2537 -2539 0
-2538 -2539 0
2540 2541 2542 2543 2544 2545 2546 0
-2540 -2541 0
-2540 -2542 0
-2540 -2543 0
-2540 -2544 0
-2540 -2545 0
-2540 -2546 0
-2541 -2542 0
-2541 -2543 0
-2541 -2544 0
-2541 -2545 0
-2541 -2546 0
-2542 -2543 0
-2542 -2544 0
-2542 -2545 0
-2542 -2546 0
-2543 -2544 0
-2543 -2545 0
-2543 -2546 0
-2544 -2545 0
-2544 -2546 0
-2545 -2546 0
2547 2548 2549 2550 2551 2552 2553 0
-2547 -2548 0
-2547 -2549 0
-2547 -2550 0
-2547 -2551 0
-2547 -2552 0
-2547 -2553 0
-2548 -2549 0
-2548 -2550 0
-2548 -2551 0
-2548 -2552 0
-2548 -2553 0
-2549 -2550 0
-2549 -2551 0
-2549 -2552 0
-2549 -2553 0
-2550 -2551 0
-2550 -2552 0
-2550 -2553 0
-2551 -2552 0
-2551 -2553 0
-2552 -2553 0
2554 2555 2556 2557 2558 2559 2560 0
-2554 -2555 0
-2554 -2556 0
-2554 -2557 0
-2554 -2558 0
-2554 -2559 0
-2554 -2560 0
-2555 -2556 0
-2555 -2557 0
-2555 -2558 0
-2555 -2559 0
-2555 -2560 0
-2556 -2557 0
-2556 -2558 0
-2556 -2559 0
-2556 -2560 0
-2557 -2558 0
-2557 -2559 0
-2557 -2560 0
-2558 -2559 0
-2558 -2560 0
-2559 -2560 0
2561 2562 2563 2564 2565 2566 2567 0
-2561 -2562 0
-2561 -2563 0
-2561 -2564 0
-2561 -2565 0
-2561 -2566 0
-2561 -2567 0
-2562 -2563 0
-2562 -2564 0
-2562 -2565 0
-2562 -2566 0
-2562 -2567 0
-2563 -2564 0
-2563 -2565 0
-2563 -2566 0
-2563 -2567 0
-2564 -2565 0
-2564 -2566 0
-2564 -2567 0
-2565 -2566 0
-2565 -2567 0
-2566 -2567 0
2568 2569 2570 2571 2572 2573 2574 0
-2568 -2569 0
-2568 -2570 0
-2568 -2571 0
-2568 -2572 0
-2568 -2573 0
-2568 -2574 0
-2569 -2570 0
-2569 -2571 0
-2569 -2572 0
-2569 -2573 0
-2569 -2574 0
-2570 -2571 0
-2570 -2572 0
-2570 -2573 0
-2570 -2574 0
-2571 -2572 0
-2571 -2573 0
-2571 -2574 0
-2572 -2573 0
-2572 -2574 0
-2573 -2574 0
2575 2576 2577 2578 2579 2580 2581 0
-2575 -2576 0
-2575 -2577 0
-2575 -2578 0
-2575 -2579 0
-2575 -2580 0
-2575 -2581 0
-2576 -2577 0
-2576 -2578 0
-2576 -2579 0
-2576 -2580 0
-2576 -2581 0
-2577 -2578 0
-2577 -2579 0
-2577 -2580 0
-2577 -2581 0
-2578 -2579 0
-2578 -2580 0
-2578 -2581 0
-2579 -2580 0
-2579 -2581 0
-2580 -2581 0
2582 2583 2584 2585 2586 2587 2588 0
-2582 -2583 0
-2582 -2584 0
-2582 -2585 0
-2582 -2586 0
-2582 -2587 0
-2582 -2588 0
-2583 -2584 0
-2583 -2585 0
-2583 -2586 0
-2583 -2587 0
-2583 -2588 0
-2584 -2585 0
-2584 -2586 0
-2584 -2587 0
-2584 -2588 0
-2585 -2586 0
-2585 -2587 0
-2585 -2588 0
-2586 -2587 0
-2586 -2588 0
-2587 -2588 0
2589 2590 2591 2592 2593 2594 2595 0
-2589 -2590 0
-2589 -2591 0
-2589 -2592 0
-2589 -2593 0
-2589 -2594 0
-2589 -2595 0
-2590 -2591 0
-2590 -2592 0
-2590 -2593 0
-2590 -2594 0
-2590 -2595 0
-2591 -2592 0
-2591 -2593 0
-2591 -2594 0
-2591 -2595 0
-2592 -2593 0
-2592 -2594 0
-2592 -2595 0
-2593 -2594 0
-2593 -2595 0
-2594 -2595 0
2596 2597 2598 2599 2600 2601 2602 0
-2596 -2597 0
-2596 -2598 0
-2596 -2599 0
-2596 -2600 0
-2596 -2601 0
-2596 -2602 0
-2597 -2598 0
-2597 -2599 0
-2597 -2600 0
-2597 -2601 0
-2597 -2602 0
-2598 -2599 0
-2598 -2600 0
-2598 -2601 0
-2598 -2602 0
-2599 -2600 0
-2599 -2601 0
-2599 -2602 0
-2600 -2601 0
-2600 -2602 0
-2601 -2602 0
2603 2604 2605 2606 2607 2608 2609 0
-2603 -2604 0
-2603 -2605 0
-2603 -2606 0
-2603 -2607 0
-2603 -2608 0
-2603 -2609 0
-2604 -2605 0
-2604 -2606 0
-2604 -2607 0
-2604 -2608 0
-2604 -2609 0
-2605 -2606 0
-2605 -2607 0
-2605 -2608 0
-2605 -2609 0
-2606 -2607 0
-2606 -2608 0
-2606 -2609 0
-2607 -2608 0
-2607 -2609 0
-2608 -2609 0
2610 2611 2612 2613 2614 2615 2616 0
-2610 -2611 0
-2610 -2612 0
-2610 -2613 0
-2610 -2614 0
-2610 -2615 0
-2610 -2616 0
-2611 -2612 0
-2611 -2613 0
-2611 -2614 0
-2611 -2615 0
-2611 -2616 0
-2612 -2613 0
-2612 -2614 0
-2612 -2615 0
-2612 -2616 0
-2613 -2614 0
-2613 -2615 0
-2613 -2616 0
-2614 -2615 0
-2614 -2616 0
-2615 -2616 0
2617 2618 2619 2620 2621 2622 2623 0
-2617 -2618 0
-2617 -2619 0
-2617 -2620 0
-2617 -2621 0
-2617 -2622 0
-2617 -2623 0
-2618 -2619 0
-2618 -2620 0
-2618 -2621 0
-2618 -2622 0
-2618 -2623 0
-2619 -2620 0
-2619 -2621 0
-2619 -2622 0
-2619 -2623 0
-2620 -2621 0
-2620 -2622 0
-2620 -2623 0
-2621 -2622 0
-2621 -2623 0
-2622 -2623 0
2624 2625 2626 2627 2628 2629 2630 0
-2624 -2625 0
-2624 -2626 0
-2624 -2627 0
-2624 -2628 0
-2624 -2629 0
-2624 -2630 0
-2625 -2626 0
-2625 -2627 0
-2625 -2628 0
-2625 -2629 0
-2625 -2630 0
-2626 -2627 0
-2626 -2628 0
-2626 -2629 0
-2626 -2630 0
-2627 -2628 0
-2627 -2629 0
-2627 -2630 0
-2628 -2629 0
-2628 -2630 0
-2629 -2630 0
2631 2632 2633 2634 2635 2636 2637 0
-2631 -2632 0
-2631 -2633 0
-2631 -2634 0
-2631 -2635 0
-2631 -2636 0
-2631 -2637 0
-2632 -2633 0
-2632 -2634 0
-2632 -2635 0
-2632 -2636 0
-2632 -2637 0
-2633 -2634 0
-2633 -2635 0
-2633 -2636 0
-2633 -2637 0
-2634 -2635 0
-2634 -2636 0
-2634 -2637 0
-2635 -2636 0
-2635 -2637 0
-2636 -2637 0
2638 2639 2640 2641 2642 2643 2644 0
-2638 -2639 0
-2638 -2640 0
-2638 -2641 0
-2638 -2642 0
-2638 -2643 0
-2638 -2644 0
-2639 -2640 0
-2639 -2641 0
-2639 -2642 0
-2639 -2643 0
-2639 -2644 0
-2640 -2641 0
-2640 -2642 0
-2640 -2643 0
-2640 -2644 0
-2641 -2642 0
-2641 -2643 0
-2641 -2644 0
-2642 -2643 0
-2642 -2644 0
-2643 -2644 0
2645 2646 2647 2648 2649 2650 2651 0
-2645 -2646 0
-2645 -2647 0
-2645 -2648 0
-2645 -2649 0
-2645 -2650 0
-2645 -2651 0
-2646 -2647 0
-2646 -2648 0
-2646 -2649 0
-2646 -2650 0
-2646 -2651 0
-2647 -2648 0
-2647 -2649 0
-2647 -2650 0
-2647 -2651 0
-2648 -2649 0
-2648 -2650 0
-2648 -2651 0
-2649 -2650 0
-2649 -2651 0
-2650 -2651 0
2652 2653 2654 2655 2656 2657 2658 0
-2652 -2653 0
-2652 -2654 0
-2652 -2655 0
-2652 -2656 0
-2652 -2657 0
-2652 -2658 0
-2653 -2654 0
-2653 -2655 0
-2653 -2656 0
-2653 -2657 0
-2653 -2658 0
-2654 -2655 0
-2654 -2656 0
-2654 -2657 0
-2654 -2658 0
-2655 -2656 0
-2655 -2657 0
-2655 -2658 0
-2656 -2657 0
-2656 -2658 0
-2657 -2658 0
2659 2660 2661 2662 2663 2664 2665 0
-2659 -2660 0
-2659 -2661 0
-2659 -2662 0
-2659 -2663 0
-2659 -2664 0
-2659 -2665 0
-2660 -2661 0
-2660 -2662 0
-2660 -2663 0
-2660 -2664 0
-2660 -2665 0
-2661 -2662 0
-2661 -2663 0
-2661 -2664 0
-2661 -2665 0
-2662 -2663 0
-2662 -2664 0
-2662 -2665 0
-2663 -2664 0
-2663 -2665 0
-2664 -2665 0
2666 2667 2668 2669 2670 2671 2672 0
-2666 -2667 0
-2666 -2668 0
-2666 -2669 0
-2666 -2670 0
-2666 -2671 0
-2666 -2672 0
-2667 -2668 0
-2667 -2669 0
-2667 -2670 0
-2667 -2671 0
-2667 -2672 0
-2668 -2669 0
-2668 -2670 0
-2668 -2671 0
-2668 -2672 0
-2669 -2670 0
-2669 -2671 0
-2669 -2672 0
-2670 -2671 0
-2670 -2672 0
-2671 -2672 0
2673 2674 2675 2676 2677 2678 2679 0
-2673 -2674 0
-2673 -2675 0
-2673 -2676 0
-2673 -2677 0
-2673 -2678 0
-2673 -2679 0
-2674 -2675 0
-2674 -2676 0
-2674 -2677 0
-2674 -2678 0
-2674 -2679 0
-2675 -2676 0
-2675 -2677 0
-2675 -2678 0
-2675 -2679 0
-2676 -2677 0
-2676 -2678 0
-2676 -2679 0
-2677 -2678 0
-2677 -2679 0
-2678 -2679 0
2680 2681 2682 2683 2684 2685 2686 0
-2680 -2681 0
-2680 -2682 0
-2680 -2683 0
-2680 -2684 0
-2680 -2685 0
-2680 -2686 0
-2681 -2682 0
-2681 -2683 0
-2681 -2684 0
-2681 -2685 0
-2681 -2686 0
-2682 -2683 0
-2682 -2684 0
-2682 -2685 0
-2682 -2686 0
-2683 -2684 0
-2683 -2685 0
-2683 -2686 0
-2684 -2685 0
-2684 -2686 0
-2685 -2686 0
2687 2688 2689 2690 2691 2692 2693 0
-2687 -2688 0
-2687 -2689 0
-2687 -2690 0
-2687 -2691 0
-2687 -2692 0
-2687 -2693 0
-2688 -2689 0
-2688 -2690 0
-2688 -2691 0
-2688 -2692 0
-2688 -2693 0
-2689 -2690 0
-2689 -2691 0
-2689 -2692 0
-2689 -2693 0
-2690 -2691 0
-2690 -2692 0
-2690 -2693 0
-2691 -2692 0
-2691 -2693 0
-2692 -2693 0
2694 2695 2696 2697 2698 2699 2700 0
-2694 -2695 0
-2694 -2696 0
-2694 -2697 0
-2694 -2698 0
-2694 -2699 0
-2694 -2700 0
-2695 -2696 0
-2695 -2697 0
-2695 -2698 0
-2695 -2699 0
-2695 -2700 0
-2696 -2697 0
-2696 -2698 0
-2696 -2699 0
-2696 -2700 0
-2697 -2698 0
-2697 -2699 0
-2697 -2700 0
-2698 -2699 0
-2698 -2700 0
-2699 -2700 0
2701 2702 2703 2704 2705 2706 2707 0
-2701 -2702 0
-2701 -2703 0
-2701 -2704 0
-2701 -2705 0
-2701 -2706 0
-2701 -2707 0
-2702 -2703 0
-2702 -2704 0
-2702 -2705 0
-2702 -2706 0
-2702 -2707 0
-2703 -2704 0
-2703 -2705 0
-2703 -2706 0
-2703 -2707 0
-2704 -2705 0
-2704 -2706 0
-2704 -2707 0
-2705 -2706 0
-2705 -2707 0
-2706 -2707 0
2708 2709 2710 2711 2712 2713 2714 0
-2708 -2709 0
-2708 -2710 0
-2708 -2711 0
-2708 -2712 0
-2708 -2713 0
-2708 -2714 0
-2709 -2710 0
-2709 -2711 0
-2709 -2712 0
-2709 -2713 0
-2709 -2714 0
-2710 -2711 0
-2710 -2712 0
-2710 -2713 0
-2710 -2714 0
-2711 -2712 0
-2711 -2713 0
-2711 -2714 0
-2712 -2713 0
-2712 -2714 0
-2713 -2714 0
2715 2716 2717 2718 2719 2720 2721 0
-2715 -2716 0
-2715 -2717 0
-2715 -2718 0
-2715 -2719 0
-2715 -2720 0
-2715 -2721 0
-2716 -2717 0
-2716 -2718 0
-2716 -2719 0
-2716 -2720 0
-2716 -2721 0
-2717 -2718 0
-2717 -2719 0
-2717 -2720 0
-2717 -2721 0
-2718 -2719 0
-2718 -2720 0
-2718 -2721 0
-2719 -2720 0
-2719 -2721 0
-2720 -2721 0
2722 2723 2724 2725 2726 2727 2728 0
-2722 -2723 0
-2722 -2724 0
-2722 -2725 0
-2722 -2726 0
-2722 -2727 0
-2722 -2728 0
-2723 -2724 0
-2723 -2725 0
-2723 -2726 0
-2723 -2727 0
-2723 -2728 0
-2724 -2725 0
-2724 -2726 0
-2724 -2727 0
-2724 -2728 0
-2725 -2726 0
-2725 -2727 0
-2725 -2728 0
-2726 -2727 0
-2726 -2728 0
-2727 -2728 0
2729 2730 2731 2732 2733 2734 2735 0
-2729 -2730 0
-2729 -2731 0
-2729 -2732 0
-2729 -2733 0
-2729 -2734 0
-2729 -2735 0
-2730 -2731 0
-2730 -2732 0
-2730 -2733 0
-2730 -2734 0
-2730 -2735 0
-2731 -2732 0
-2731 -2733 0
-2731 -2734 0
-2731 -2735 0
-2732 -2733 0
-2732 -2734 0
-2732 -2735 0
-2733 -2734 0
-2733 -2735 0
-2734 -2735 0
2736 2737 2738 2739 2740 2741 2742 0
-2736 -2737 0
-2736 -2738 0
-2736 -2739 0
-2736 -2740 0
-2736 -2741 0
-2736 -2742 0
-2737 -2738 0
-2737 -2739 0
-2737 -2740 0
-2737 -2741 0
-2737 -2742 0
-2738 -2739 0
-2738 -2740 0
-2738 -2741 0
-2738 -2742 0
-2739 -2740 0
-2739 -2741 0
-2739 -2742 0
-2740 -2741 0
-2740 -2742 0
-2741 -2742 0
2743 2744 2745 2746 2747 2748 2749 0
-2743 -2744 0
-2743 -2745 0
-2743 -2746 0
-2743 -2747 0
-2743 -2748 0
-2743 -2749 0
-2744 -2745 0
-2744 -2746 0
-2744 -2747 0
-2744 -2748 0
-2744 -2749 0
-2745 -2746 0
-2745 -2747 0
-2745 -2748 0
-2745 -2749 0
-2746 -2747 0
-2746 -2748 0
-2746 -2749 0
-2747 -2748 0
-2747 -2749 0
-2748 -2749 0
2750 2751 2752 2753 2754 2755 2756 0
-2750 -2751 0
-2750 -2752 0
-2750 -2753 0
-2750 -2754 0
-2750 -2755 0
-2750 -2756 0
-2751 -2752 0
-2751 -2753 0
-2751 -2754 0
-2751 -2755 0
-2751 -2756 0
-2752 -2753 0
-2752 -2754 0
-2752 -2755 0
-2752 -2756 0
-2753 -2754 0
-2753 -2755 0
-2753 -2756 0
-2754 -2755 0
-2754 -2756 0
-2755 -2756 0
2757 2758 2759 2760 2761 2762 2763 0
-2757 -2758 0
-2757 -2759 0
-2757 -2760 0
-2757 -2761 0
-2757 -2762 0
-2757 -2763 0
-2758 -2759 0
-2758 -2760 0
-2758 -2761 0
-2758 -2762 0
-2758 -2763 0
-2759 -2760 0
-2759 -2761 0
-2759 -2762 0
-2759 -2763 0
-2760 -2761 0
-2760 -2762 0
-2760 -2763 0
-2761 -2762 0
-2761 -2763 0
-2762 -2763 0
2764 2765 2766 2767 2768 2769 2770 0
-2764 -2765 0
-2764 -2766 0
-2764 -2767 0
-2764 -2768 0
-2764 -2769 0
-2764 -2770 0
-2765 -2766 0
-2765 -2767 0
-2765 -2768 0
-2765 -2769 0
-2765 -2770 0
-2766 -2767 0
-2766 -2768 0
-2766 -2769 0
-2766 -2770 0
-2767 -2768 0
-2767 -2769 0
-2767 -2770 0
-2768 -2769 0
-2768 -2770 0
-2769 -2770 0
2771 2772 2773 2774 2775 2776 2777 0
-2771 -2772 0
-2771 -2773 0
-2771 -2774 0
-2771 -2775 0
-2771 -2776 0
-2771 -2777 0
-2772 -2773 0
-2772 -2774 0
-2772 -2775 0
-2772 -2776 0
-2772 -2777 0
-2773 -2774 0
-2773 -2775 0
-2773 -2776 0
-2773 -2777 0
-2774 -2775 0
-2774 -2776 0
-2774 -2777 0
-2775 -2776 0
-2775 -2777 0
-2776 -2777 0
2778 2779 2780 2781 2782 2783 2784 0
-2778 -2779 0
-2778 -2780 0
-2778 -2781 0
-2778 -2782 0
-2778 -2783 0
-2778 -2784 0
-2779 -2780 0
-2779 -2781 0
-2779 -2782 0
-2779 -2783 0
-2779 -2784 0
-2780 -2781 0
-2780 -2782 0
-2780 -2783 0
-2780 -2784 0
-2781 -2782 0
-2781 -2783 0
-2781 -2784 0
-2782 -2783 0
-2782 -2784 0
-2783 -2784 0
2785 2786 2787 2788 2789 2790 2791 0
-2785 -2786 0
-2785 -2787 0
-2785 -2788 0
-2785 -2789 0
-2785 -2790 0
-2785 -2791 0
-2786 -2787 0
-2786 -2788 0
-2786 -2789 0
-2786 -2790 0
-2786 -2791 0
-2787 -2788 0
-2787 -2789 0
-2787 -2790 0
-2787 -2791 0
-2788 -2789 0
-2788 -2790 0
-2788 -2791 0
-2789 -2790 0
-2789 -2791 0
-2790 -2791 0
2792 2793 2794 2795 2796 2797 2798 0
-2792 -2793 0
-2792 -2794 0
-2792 -2795 0
-2792 -2796 0
-2792 -2797 0
-2792 -2798 0
-2793 -2794 0
-2793 -2795 0
-2793 -2796 0
-2793 -2797 0
-2793 -2798 0
-2794 -2795 0
-2794 -2796 0
-2794 -2797 0
-2794 -2798 0
-2795 -2796 0
-2795 -2797 0
-2795 -2798 0
-2796 -2797 0
-2796 -2798 0
-2797 -2798 0
2799 2800 2801 2802 2803 2804 2805 0
-2799 -2800 0
-2799 -2801 0
-2799 -2802 0
-2799 -2803 0
-2799 -2804 0
-2799 -2805 0
-2800 -2801 0
-2800 -2802 0
-2800 -2803 0
-2800 -2804 0
-2800 -2805 0
-2801 -2802 0
-2801 -2803 0
-2801 -2804 0
-2801 -2805 0
-2802 -2803 0
-2802 -2804 0
-2802 -2805 0
-2803 -2804 0
-2803 -2805 0
-2804 -2805 0
2806 2807 2808 2809 2810 2811 2812 0
-2806 -2807 0
-2806 -2808 0
-2806 -2809 0
-2806 -2810 0
-2806 -2811 0
-2806 -2812 0
-2807 -2808 0
-2807 -2809 0
-2807 -2810 0
-2807 -2811 0
-2807 -2812 0
-2808 -2809 0
-2808 -2810 0
-2808 -2811 0
-2808 -2812 0
-2809 -2810 0
-2809 -2811 0
-2809 -2812 0
-2810 -2811 0
-2810 -2812 0
-2811 -2812 0
2813 2814 2815 2816 2817 2818 2819 0
-2813 -2814 0
-2813 -2815 0
-2813 -2816 0
-2813 -2817 0
-2813 -2818 0
-2813 -2819 0
-2814 -2815 0
-2814 -2816 0
-2814 -2817 0
-2814 -2818 0
-2814 -2819 0
-2815 -2816 0
-2815 -2817 0
-2815 -2818 0
-2815 -2819 0
-2816 -2817 0
-2816 -2818 0
-2816 -2819 0
-2817 -2818 0
-2817 -2819 0
-2818 -2819 0
2820 2821 2822 2823 2824 2825 2826 0
-2820 -2821 0
-2820 -2822 0
-2820 -2823 0
-2820 -2824 0
-2820 -2825 0
-2820 -2826 0
-2821 -2822 0
-2821 -2823 0
-2821 -2824 0
-2821 -2825 0
-2821 -2826 0
-2822 -2823 0
-2822 -2824 0
-2822 -2825 0
-2822 -2826 0
-2823 -2824 0
-2823 -2825 0
-2823 -2826 0
-2824 -2825 0
-2824 -2826 0
-2825 -2826 0
2827 2828 2829 2830 2831 2832 2833 0
-2827 -2828 0
-2827 -2829 0
-2827 -2830 0
-2827 -2831 0
-2827 -2832 0
-2827 -2833 0
-2828 -2829 0
-2828 -2830 0
-2828 -2831 0
-2828 -2832 0
-2828 -2833 0
-2829 -2830 0
-2829 -2831 0
-2829 -2832 0
-2829 -2833 0
-2830 -2831 0
-2830 -2832 0
-2830 -2833 0
-2831 -2832 0
-2831 -2833 0
-2832 -2833 0
2834 2835 2836 2837 2838 2839 2840 0
-2834 -2835 0
-2834 -2836 0
-2834 -2837 0
-2834 -2838 0
-2834 -2839 0
-2834 -2840 0
-2835 -2836 0
-2835 -2837 0
-2835 -2838 0
-2835 -2839 0
-2835 -2840 0
-2836 -2837 0
-2836 -2838 0
-2836 -2839 0
-2836 -2840 0
-2837 -2838 0
-2837 -2839 0
-2837 -2840 0
-2838 -2839 0
-2838 -2840 0
-2839 -2840 0
2841 2842 2843 2844 2845 2846 2847 0
-2841 -2842 0
-2841 -2843 0
-2841 -2844 0
-2841 -2845 0
-2841 -2846 0
-2841 -2847 0
-2842 -2843 0
-2842 -2844 0
-2842 -2845 0
-2842 -2846 0
-2842 -2847 0
-2843 -2844 0
-2843 -2845 0
-2843 -2846 0
-2843 -2847 0
-2844 -2845 0
-2844 -2846 0
-2844 -2847 0
-2845 -2846 0
-2845 -2847 0
-2846 -2847 0
2848 2849 2850 2851 2852 2853 2854 0
-2848 -2849 0
-2848 -2850 0
-2848 -2851 0
-2848 -2852 0
-2848 -2853 0
-2848 -2854 0
-2849 -2850 0
-2849 -2851 0
-2849 -2852 0
-2849 -2853 0
-2849 -2854 0
-2850 -2851 0
-2850 -2852 0
-2850 -2853 0
-2850 -2854 0
-2851 -2852 0
-2851 -2853 0
-2851 -2854 0
-2852 -2853 0
-2852 -2854 0
-2853 -2854 0
2855 2856 2857 2858 2859 2860 2861 0
-2855 -2856 0
-2855 -2857 0
-2855 -2858 0
-2855 -2859 0
-2855 -2860 0
-2855 -2861 0
-2856 -2857 0
-2856 -2858 0
-2856 -2859 0
-2856 -2860 0
-2856 -2861 0
-2857 -2858 0
-2857 -2859 0
-2857 -2860 0
-2857 -2861 0
-2858 -2859 0
-2858 -2860 0
-2858 -2861 0
-2859 -2860 0
-2859 -2861 0
-2860 -2861 0
2862 2863 2864 2865 2866 2867 2868 0
-2862 -2863 0
-2862 -2864 0
-2862 -2865 0
-2862 -2866 0
-2862 -2867 0
-2862 -2868 0
-2863 -2864 0
-2863 -2865 0
-2863 -2866 0
-2863 -2867 0
-2863 -2868 0
-2864 -2865 0
-2864 -2866 0
-2864 -2867 0
-2864 -2868 0
-2865 -2866 0
-2865 -2867 0
-2865 -2868 0
-2866 -2867 0
-2866 -2868 0
-2867 -2868 0
2869 2870 2871 2872 2873 2874 2875 0
-2869 -2870 0
-2869 -2871 0
-2869 -2872 0
-2869 -2873 0
-2869 -2874 0
-2869 -2875 0
-2870 -2871 0
-2870 -2872 0
-2870 -2873 0
-2870 -2874 0
-2870 -2875 0
-2871 -2872 0
-2871 -2873 0
-2871 -2874 0
-2871 -2875 0
-2872 -2873 0
-2872 -2874 0
-2872 -2875 0
-2873 -2874 0
-2873 -2875 0
-2874 -2875 0
2876 2877 2878 2879 2880 2881 2882 0
-2876 -2877 0
-2876 -2878 0
-2876 -2879 0
-2876 -2880 0
-2876 -2881 0
-2876 -2882 0
-2877 -2878 0
-2877 -2879 0
-2877 -2880 0
-2877 -2881 0
-2877 -2882 0
-2878 -2879 0
-2878 -2880 0
-2878 -2881 0
-2878 -2882 0
-2879 -2880 0
-2879 -2881 0
-2879 -2882 0
-2880 -2881 0
-2880 -2882 0
-2881 -2882 0
2883 2884 2885 2886 2887 2888 2889 0
-2883 -2884 0
-2883 -2885 0
-2883 -2886 0
-2883 -2887 0
-2883 -2888 0
-2883 -2889 0
-2884 -2885 0
-2884 -2886 0
-2884 -2887 0
-2884 -2888 0
-2884 -2889 0
-2885 -2886 0
-2885 -2887 0
-2885 -2888 0
-2885 -2889 0
-2886 -2887 0
-2886 -2888 0
-2886 -2889 0
-2887 -2888 0
-2887 -2889 0
-2888 -2889 0
2890 2891 2892 2893 2894 2895 2896 0
-2890 -2891 0
-2890 -2892 0
-2890 -2893 0
-2890 -2894 0
-2890 -2895 0
-2890 -2896 0
-2891 -2892 0
-2891 -2893 0
-2891 -2894 0
-2891 -2895 0
-2891 -2896 0
-2892 -2893 0
-2892 -2894 0
-2892 -2895 0
-2892 -2896 0
-2893 -2894 0
-2893 -2895 0
-2893 -2896 0
-2894 -2895 0
-2894 -2896 0
-2895 -2896 0
2897 2898 2899 2900 2901 2902 2903 0
-2897 -2898 0
-2897 -2899 0
-2897 -2900 0
-2897 -2901 0
-2897 -2902 0
-2897 -2903 0
-2898 -2899 0
-2898 -2900 0
-2898 -2901 0
-2898 -2902 0
-2898 -2903 0
-2899 -2900 0
-2899 -2901 0
-2899 -2902 0
-2899 -2903 0
-2900 -2901 0
-2900 -2902 0
-2900 -2903 0
-2901 -2902 0
-2901 -2903 0
-2902 -2903 0
2904 2905 2906 2907 2908 2909 2910 0
-2904 -2905 0
-2904 -2906 0
-2904 -2907 0
-2904 -2908 0
-2904 -2909 0
-2904 -2910 0
-2905 -2906 0
-2905 -2907 0
-2905 -2908 0
-2905 -2909 0
-2905 -2910 0
-2906 -2907 0
-2906 -2908 0
-2906 -2909 0
-2906 -2910 0
-2907 -2908 0
-2907 -2909 0
-2907 -2910 0
-2908 -2909 0
-2908 -2910 0
-2909 -2910 0
2911 2912 2913 2914 2915 2916 2917 0
-2911 -2912 0
-2911 -2913 0
-2911 -2914 0
-2911 -2915 0
-2911 -2916 0
-2911 -2917 0
-2912 -2913 0
-2912 -2914 0
-2912 -2915 0
-2912 -2916 0
-2912 -2917 0
-2913 -2914 0
-2913 -2915 0
-2913 -2916 0
-2913 -2917 0
-2914 -2915 0
-2914 -2916 0
-2914 -2917 0
-2915 -2916 0
-2915 -2917 0
-2916 -2917 0
2918 2919 2920 2921 2922 2923 2924 0
-2918 -2919 0
-2918 -2920 0
-2918 -2921 0
-2918 -2922 0
-2918 -2923 0
-2918 -2924 0
-2919 -2920 0
-2919 -2921 0
-2919 -2922 0
-2919 -2923 0
-2919 -2924 0
-2920 -2921 0
-2920 -2922 0
-2920 -2923 0
-2920 -2924 0
-2921 -2922 0
-2921 -2923 0
-2921 -2924 0
-2922 -2923 0
-2922 -2924 0
-2923 -2924 0
2925 2926 2927 2928 2929 2930 2931 0
-2925 -2926 0
-2925 -2927 0
-2925 -2928 0
-2925 -2929 0
-2925 -2930 0
-2925 -2931 0
-2926 -2927 0
-2926 -2928 0
-2926 -2929 0
-2926 -2930 0
-2926 -2931 0
-2927 -2928 0
-2927 -2929 0
-2927 -2930 0
-2927 -2931 0
-2928 -2929 0
-2928 -2930 0
-2928 -2931 0
-2929 -2930 0
-2929 -2931 0
-2930 -2931 0
2932 2933 2934 2935 2936 2937 2938 0
-2932 -2933 0
-2932 -2934 0
-2932 -2935 0
-2932 -2936 0
-2932 -2937 0
-2932 -2938 0
-2933 -2934 0
-2933 -2935 0
-2933 -2936 0
-2933 -2937 0
-2933 -2938 0
-2934 -2935 0
-2934 -2936 0
-2934 -2937 0
-2934 -2938 0
-2935 -2936 0
-2935 -2937 0
-2935 -2938 0
-2936 -2937 0
-2936 -2938 0
-2937 -2938 0
2939 2940 2941 2942 2943 2944 2945 0
-2939 -2940 0
-2939 -2941 0
-2939 -2942 0
-2939 -2943 0
-2939 -2944 0
-2939 -2945 0
-2940 -2941 0
-2940 -2942 0
-2940 -2943 0
-2940 -2944 0
-2940 -2945 0
-2941 -2942 0
-2941 -2943 0
-2941 -2944 0
-2941 -2945 0
-2942 -2943 0
-2942 -2944 0
-2942 -2945 0
-2943 -2944 0
-2943 -2945 0
-2944 -2945 0
2946 2947 2948 2949 2950 2951 2952 0
-2946 -2947 0
-2946 -2948 0
-2946 -2949 0
-2946 -2950 0
-2946 -2951 0
-2946 -2952 0
-2947 -2948 0
-2947 -2949 0
-2947 -2950 0
-2947 -2951 0
-2947 -2952 0
-2948 -2949 0
-2948 -2950 0
-2948 -2951 0
-2948 -2952 0
-2949 -2950 0
-2949 -2951 0
-2949 -2952 0
-2950 -2951 0
-2950 -2952 0
-2951 -2952 0
2953 2954 2955 2956 2957 2958 2959 0
-2953 -2954 0
-2953 -2955 0
-2953 -2956 0
-2953 -2957 0
-2953 -2958 0
-2953 -2959 0
-2954 -2955 0
-2954 -2956 0
-2954 -2957 0
-2954 -2958 0
-2954 -2959 0
-2955 -2956 0
-2955 -2957 0
-2955 -2958 0
-2955 -2959 0
-2956 -2957 0
-2956 -2958 0
-2956 -2959 0
-2957 -2958 0
-2957 -2959 0
-2958 -2959 0
2960 2961 2962 2963 2964 2965 2966 0
-2960 -2961 0
-2960 -2962 0
-2960 -2963 0
-2960 -2964 0
-2960 -2965 0
-2960 -2966 0
-2961 -2962 0
-2961 -2963 0
-2961 -2964 0
-2961 -2965 0
-2961 -2966 0
-2962 -2963 0
-2962 -2964 0
-2962 -2965 0
-2962 -2966 0
-2963 -2964 0
-2963 -2965 0
-2963 -2966 0
-2964 -2965 0
-2964 -2966 0
-2965 -2966 0
2967 2968 2969 2970 2971 2972 2973 0
-2967 -2968 0
-2967 -2969 0
-2967 -2970 0
-2967 -2971 0
-2967 -2972 0
-2967 -2973 0
-2968 -2969 0
-2968 -2970 0
-2968 -2971 0
-2968 -2972 0
-2968 -2973 0
-2969 -2970 0
-2969 -2971 0
-2969 -2972 0
-2969 -2973 0
-2970 -2971 0
-2970 -2972 0
-2970 -2973 0
-2971 -2972 0
-2971 -2973 0
-2972 -2973 0
2974 2975 2976 2977 2978 2979 2980 0
-2974 -2975 0
-2974 -2976 0
-2974 -2977 0
-2974 -2978 0
-2974 -2979 0
-2974 -2980 0
-2975 -2976 0
-2975 -2977 0
-2975 -2978 0
-2975 -2979 0
-2975 -2980 0
-2976 -2977 0
-2976 -2978 0
-2976 -2979 0
-2976 -2980 0
-2977 -2978 0
-2977 -2979 0
-2977 -2980 0
-2978 -2979 0
-2978 -2980 0
-2979 -2980 0
2981 2982 2983 2984 2985 2986 2987 0
-2981 -2982 0
-2981 -2983 0
-2981 -2984 0
-2981 -2985 0
-2981 -2986 0
-2981 -2987 0
-2982 -2983 0
-2982 -2984 0
-2982 -2985 0
-2982 -2986 0
-2982 -2987 0
-2983 -2984 0
-2983 -2985 0
-2983 -2986 0
-2983 -2987 0
-2984 -2985 0
-2984 -2986 0
-2984 -2987 0
-2985 -2986 0
-2985 -2987 0
-2986 -2987 0
2988 2989 2990 2991 2992 2993 2994 0
-2988 -2989 0
-2988 -2990 0
-2988 -2991 0
-2988 -2992 0
-2988 -2993 0
-2988 -2994 0
-2989 -2990 0
-2989 -2991 0
-2989 -2992 0
-2989 -2993 0
-2989 -2994 0
-2990 -2991 0
-2990 -2992 0
-2990 -2993 0
-2990 -2994 0
-2991 -2992 0
-2991 -2993 0
-2991 -2994 0
-2992 -2993 0
-2992 -2994 0
-2993 -2994 0
2995 2996 2997 2998 2999 3000 3001 0
-2995 -2996 0
-2995 -2997 0
-2995 -2998 0
-2995 -2999 0
-2995 -3000 0
-2995 -3001 0
-2996 -2997 0
-2996 -2998 0
-2996 -2999 0
-2996 -3000 0
-2996 -3001 0
-2997 -2998 0
-2997 -2999 0
-2997 -3000 0
-2997 -3001 0
-2998 -2999 0
-2998 -3000 0
-2998 -3001 0
-2999 -3000 0
-2999 -3001 0
-3000 -3001 0
3002 3003 3004 3005 3006 3007 3008 0
-3002 -3003 0
-3002 -3004 0
-3002 -3005 0
-3002 -3006 0
-3002 -3007 0
-3002 -3008 0
-3003 -3004 0
-3003 -3005 0
-3003 -3006 0
-3003 -3007 0
-3003 -3008 0
-3004 -3005 0
-3004 -3006 0
-3004 -3007 0
-3004 -3008 0
-3005 -3006 0
-3005 -3007 0
-3005 -3008 0
-3006 -3007 0
-3006 -3008 0
-3007 -3008 0
3009 3010 3011 3012 3013 3014 3015 0
-3009 -3010 0
-3009 -3011 0
-3009 -3012 0
-3009 -3013 0
-3009 -3014 0
-3009 -3015 0
-3010 -3011 0
-3010 -3012 0
-3010 -3013 0
-3010 -3014 0
-3010 -3015 0
-3011 -3012 0
-3011 -3013 0
-3011 -3014 0
-3011 -3015 0
-3012 -3013 0
-3012 -3014 0
-3012 -3015 0
-3013 -3014 0
-3013 -3015 0
-3014 -3015 0
3016 3017 3018 3019 3020 3021 3022 0
-3016 -3017 0
-3016 -3018 0
-3016 -3019 0
-3016 -3020 0
-3016 -3021 0
-3016 -3022 0
-3017 -3018 0
-3017 -3019 0
-3017 -3020 0
-3017 -3021 0
-3017 -3022 0
-3018 -3019 0
-3018 -3020 0
-3018 -3021 0
-3018 -3022 0
-3019 -3020 0
-3019 -3021 0
-3019 -3022 0
-3020 -3021 0
-3020 -3022 0
-3021 -3022 0
3023 3024 3025 3026 3027 3028 3029 0
-3023 -3024 0
-3023 -3025 0
-3023 -3026 0
-3023 -3027 0
-3023 -3028 0
-3023 -3029 0
-3024 -3025 0
-3024 -3026 0
-3024 -3027 0
-3024 -3028 0
-3024 -3029 0
-3025 -3026 0
-3025 -3027 0
-3025 -3028 0
-3025 -3029 0
-3026 -3027 0
-3026 -3028 0
-3026 -3029 0
-3027 -3028 0
-3027 -3029 0
-3028 -3029 0
3030 3031 3032 3033 3034 3035 3036 0
-3030 -3031 0
-3030 -3032 0
-3030 -3033 0
-3030 -3034 0
-3030 -3035 0
-3030 -3036 0
-3031 -3032 0
-3031 -3033 0
-3031 -3034 0
-3031 -3035 0
-3031 -3036 0
-3032 -3033 0
-3032 -3034 0
-3032 -3035 0
-3032 -3036 0
-3033 -3034 0
-3033 -3035 0
-3033 -3036 0
-3034 -3035 0
-3034 -3036 0
-3035 -3036 0
3037 3038 3039 3040 3041 3042 3043 0
-3037 -3038 0
-3037 -3039 0
-3037 -3040 0
-3037 -3041 0
-3037 -3042 0
-3037 -3043 0
-3038 -3039 0
-3038 -3040 0
-3038 -3041 0
-3038 -3042 0
-3038 -3043 0
-3039 -3040 0
-3039 -3041 0
-3039 -3042 0
-3039 -3043 0
-3040 -3041 0
-3040 -3042 0
-3040 -3043 0
-3041 -3042 0
-3041 -3043 0
-3042 -3043 0
3044 3045 3046 3047 3048 3049 3050 0
-3044 -3045 0
-3044 -3046 0
-3044 -3047 0
-3044 -3048 0
-3044 -3049 0
-3044 -3050 0
-3045 -3046 0
-3045 -3047 0
-3045 -3048 0
-3045 -3049 0
-3045 -3050 0
-3046 -3047 0
-3046 -3048 0
-3046 -3049 0
-3046 -3050 0
-3047 -3048 0
-3047 -3049 0
-3047 -3050 0
-3048 -3049 0
-3048 -3050 0
-3049 -3050 0
3051 3052 3053 3054 3055 3056 3057 0
-3051 -3052 0
-3051 -3053 0
-3051 -3054 0
-3051 -3055 0
-3051 -3056 0
-3051 -3057 0
-3052 -3053 0
-3052 -3054 0
-3052 -3055 0
-3052 -3056 0
-3052 -3057 0
-3053 -3054 0
-3053 -3055 0
-3053 -3056 0
-3053 -3057 0
-3054 -3055 0
-3054 -3056 0
-3054 -3057 0
-3055 -3056 0
-3055 -3057 0
-3056 -3057 0
3058 3059 3060 3061 3062 3063 3064 0
-3058 -3059 0
-3058 -3060 0
-3058 -3061 0
-3058 -3062 0
-3058 -3063 0
-3058 -3064 0
-3059 -3060 0
-3059 -3061 0
-3059 -3062 0
-3059 -3063 0
-3059 -3064 0
-3060 -3061 0
-3060 -3062 0
-3060 -3063 0
-3060 -3064 0
-3061 -3062 0
-3061 -3063 0
-3061 -3064 0
-3062 -3063 0
-3062 -3064 0
-3063 -3064 0
3065 3066 3067 3068 3069 3070 3071 0
-3065 -3066 0
-3065 -3067 0
-3065 -3068 0
-3065 -3069 0
-3065 -3070 0
-3065 -3071 0
-3066 -3067 0
-3066 -3068 0
-3066 -3069 0
-3066 -3070 0
-3066 -3071 0
-3067 -3068 0
-3067 -3069 0
-3067 -3070 0
-3067 -3071 0
-3068 -3069 0
-3068 -3070 0
-3068 -3071 0
-3069 -3070 0
-3069 -3071 0
-3070 -3071 0
3072 3073 3074 3075 3076 3077 3078 0
-3072 -3073 0
-3072 -3074 0
-3072 -3075 0
-3072 -3076 0
-3072 -3077 0
-3072 -3078 0
-3073 -3074 0
-3073 -3075 0
-3073 -3076 0
-3073 -3077 0
-3073 -3078 0
-3074 -3075 0
-3074 -3076 0
-3074 -3077 0
-3074 -3078 0
-3075 -3076 0
-3075 -3077 0
-3075 -3078 0
-3076 -3077 0
-3076 -3078 0
-3077 -3078 0
3079 3080 3081 3082 3083 3084 3085 0
-3079 -3080 0
-3079 -3081 0
-3079 -3082 0
-3079 -3083 0
-3079 -3084 0
-3079 -3085 0
-3080 -3081 0
-3080 -3082 0
-3080 -3083 0
-3080 -3084 0
-3080 -3085 0
-3081 -3082 0
-3081 -3083 0
-3081 -3084 0
-3081 -3085 0
-3082 -3083 0
-3082 -3084 0
-3082 -3085 0
-3083 -3084 0
-3083 -3085 0
-3084 -3085 0
3086 3087 3088 3089 3090 3091 3092 0
-3086 -3087 0
-3086 -3088 0
-3086 -3089 0
-3086 -3090 0
-3086 -3091 0
-3086 -3092 0
-3087 -3088 0
-3087 -3089 0
-3087 -3090 0
-3087 -3091 0
-3087 -3092 0
-3088 -3089 0
-3088 -3090 0
-3088 -3091 0
-3088 -3092 0
-3089 -3090 0
-3089 -3091 0
-3089 -3092 0
-3090 -3091 0
-3090 -3092 0
-3091 -3092 0
3093 3094 3095 3096 3097 3098 3099 0
-3093 -3094 0
-3093 -3095 0
-3093 -3096 0
-3093 -3097 0
-3093 -3098 0
-3093 -3099 0
-3094 -3095 0
-3094 -3096 0
-3094 -3097 0
-3094 -3098 0
-3094 -3099 0
-3095 -3096 0
-3095 -3097 0
-3095 -3098 0
-3095 -3099 0
-3096 -3097 0
-3096 -3098 0
-3096 -3099 0
-3097 -3098 0
-3097 -3099 0
-3098 -3099 0
3100 3101 3102 3103 3104 3105 3106 0
-3100 -3101 0
-3100 -3102 0
-3100 -3103 0
-3100 -3104 0
-3100 -3105 0
-3100 -3106 0
-3101 -3102 0
-3101 -3103 0
-3101 -3104 0
-3101 -3105 0
-3101 -3106 0
-3102 -3103 0
-3102 -3104 0
-3102 -3105 0
-3102 -3106 0
-3103 -3104 0
-3103 -3105 0
-3103 -3106 0
-3104 -3105 0
-3104 -3106 0
-3105 -3106 0
3107 3108 3109 3110 3111 3112 3113 0
-3107 -3108 0
-3107 -3109 0
-3107 -3110 0
-3107 -3111 0
-3107 -3112 0
-3107 -3113 0
-3108 -3109 0
-3108 -3110 0
-3108 -3111 0
-3108 -3112 0
-3108 -3113 0
-3109 -3110 0
-3109 -3111 0
-3109 -3112 0
-3109 -3113 0
-3110 -3111 0
-3110 -3112 0
-3110 -3113 0
-3111 -3112 0
-3111 -3113 0
-3112 -3113 0
3114 3115 3116 3117 3118 3119 3120 0
-3114 -3115 0
-3114 -3116 0
-3114 -3117 0
-3114 -3118 0
-3114 -3119 0
-3114 -3120 0
-3115 -3116 0
-3115 -3117 0
-3115 -3118 0
-3115 -3119 0
-3115 -3120 0
-3116 -3117 0
-3116 -3118 0
-3116 -3119 0
-3116 -3120 0
-3117 -3118 0
-3117 -3119 0
-3117 -3120 0
-3118 -3119 0
-3118 -3120 0
-3119 -3120 0
3121 3122 3123 3124 3125 3126 3127 0
-3121 -3122 0
-3121 -3123 0
-3121 -3124 0
-3121 -3125 0
-3121 -3126 0
-3121 -3127 0
-3122 -3123 0
-3122 -3124 0
-3122 -3125 0
-3122 -3126 0
-3122 -3127 0
-3123 -3124 0
-3123 -3125 0
-3123 -3126 0
-3123 -3127 0
-3124 -3125 0
-3124 -3126 0
-3124 -3127 0
-3125 -3126 0
-3125 -3127 0
-3126 -3127 0
3128 3129 3130 3131 3132 3133 3134 0
-3128 -3129 0
-3128 -3130 0
-3128 -3131 0
-3128 -3132 0
-3128 -3133 0
-3128 -3134 0
-3129 -3130 0
-3129 -3131 0
-3129 -3132 0
-3129 -3133 0
-3129 -3134 0
-3130 -3131 0
-3130 -3132 0
-3130 -3133 0
-3130 -3134 0
-3131 -3132 0
-3131 -3133 0
-3131 -3134 0
-3132 -3133 0
-3132 -3134 0
-3133 -3134 0
3135 3136 3137 3138 3139 3140 3141 0
-3135 -3136 0
-3135 -3137 0
-3135 -3138 0
-3135 -3139 0
-3135 -3140 0
-3135 -3141 0
-3136 -3137 0
-3136 -3138 0
-3136 -3139 0
-3136 -3140 0
-3136 -3141 0
-3137 -3138 0
-3137 -3139 0
-3137 -3140 0
-3137 -3141 0
-3138 -3139 0
-3138 -3140 0
-3138 -3141 0
-3139 -3140 0
-3139 -3141 0
-3140 -3141 0
3142 3143 3144 3145 3146 3147 3148 0
-3142 -3143 0
-3142 -3144 0
-3142 -3145 0
-3142 -3146 0
-3142 -3147 0
-3142 -3148 0
-3143 -3144 0
-3143 -3145 0
-3143 -3146 0
-3143 -3147 0
-3143 -3148 0
-3144 -3145 0
-3144 -3146 0
-3144 -3147 0
-3144 -3148 0
-3145 -3146 0
-3145 -3147 0
-3145 -3148 0
-3146 -3147 0
-3146 -3148 0
-3147 -3148 0
3149 3150 3151 3152 3153 3154 3155 0
-3149 -3150 0
-3149 -3151 0
-3149 -3152 0
-3149 -3153 0
-3149 -3154 0
-3149 -3155 0
-3150 -3151 0
-3150 -3152 0
-3150 -3153 0
-3150 -3154 0
-3150 -3155 0
-3151 -3152 0
-3151 -3153 0
-3151 -3154 0
-3151 -3155 0
-3152 -3153 0
-3152 -3154 0
-3152 -3155 0
-3153 -3154 0
-3153 -3155 0
-3154 -3155 0
1756 1763 1770 1777 706 181 286 0
-1756 -1763 0
-1756 -1770 0
-1756 -1777 0
-1756 -706 0
-1756 -181 0
-1756 -286 0
-1763 -1770 0
-1763 -1777 0
-1763 -706 0
-1763 -181 0
-1763 -286 0
-1770 -1777 0
-1770 -706 0
-1770 -181 0
-1770 -286 0
-1777 -706 0
-1777 -181 0
-1777 -286 0
-706 -181 0
-706 -286 0
-181 -286 0
1757 1764 1771 1778 707 182 287 0
-1757 -1764 0
-1757 -1771 0
-1757 -1778 0
-1757 -707 0
-1757 -182 0
-1757 -287 0
-1764 -1771 0
-1764 -1778 0
-1764 -707 0
-1764 -182 0
-1764 -287 0
-1771 -1778 0
-1771 -707 0
-1771 -182 0
-1771 -287 0
-1778 -707 0
-1778 -182 0
-1778 -287 0
-707 -182 0
-707 -287 0
-182 -287 0
1758 1765 1772 1779 708 183 288 0
-1758 -1765 0
-1758 -1772 0
-1758 -1779 0
-1758 -708 0
-1758 -183 0
-1758 -288 0
-1765 -1772 0
-1765 -1779 0
-1765 -708 0
-1765 -183 0
-1765 -288 0
-1772 -1779 0
-1772 -708 0
-1772 -183 0
-1772 -288 0
-1779 -708 0
-1779 -183 0
-1779 -288 0
-708 -183 0
-708 -288 0
-183 -288 0
1759 1766 1773 1780 709 184 289 0
-1759 -1766 0
-1759 -1773 0
-1759 -1780 0
-1759 -709 0
-1759 -184 0
-1759 -289 0
-1766 -1773 0
-1766 -1780 0
-1766 -709 0
-1766 -184 0
-1766 -289 0
-1773 -1780 0
-1773 -709 0
-1773 -184 0
-1773 -289 0
-1780 -709 0
-1780 -184 0
-1780 -289 0
-709 -184 0
-709 -289 0
-184 -289 0
1760 1767 1774 1781 710 185 290 0
-1760 -1767 0
-1760 -1774 0
-1760 -1781 0
-1760 -710 0
-1760 -185 0
-1760 -290 0
-1767 -1774 0
-1767 -1781 0
-1767 -710 0
-1767 -185 0
-1767 -290 0
-1774 -1781 0
-1774 -710 0
-1774 -185 0
-1774 -290 0
-1781 -710 0
-1781 -185 0
-1781 -290 0
-710 -185 0
-710 -290 0
-185 -290 0
1761 1768 1775 1782 711 186 291 0
-1761 -1768 0
-1761 -1775 0
-1761 -1782 0
-1761 -711 0
-1761 -186 0
-1761 -291 0
-1768 -1775 0
-1768 -1782 0
-1768 -711 0
-1768 -186 0
-1768 -291 0
-1775 -1782 0
-1775 -711 0
-1775 -186 0
-1775 -291 0
-1782 -711 0
-1782 -186 0
-1782 -291 0
-711 -186 0
-711 -291 0
-186 -291 0
1762 1769 1776 1783 712 187 292 0
-1762 -1769 0
-1762 -1776 0
-1762 -1783 0
-1762 -712 0
-1762 -187 0
-1762 -292 0
-1769 -1776 0
-1769 -1783 0
-1769 -712 0
-1769 -187 0
-1769 -292 0
-1776 -1783 0
-1776 -712 0
-1776 -187 0
-1776 -292 0
-1783 -712 0
-1783 -187 0
-1783 -292 0
-712 -187 0
-712 -292 0
-187 -292 0
1756 1784 1791 1798 776 188 293 0
-1756 -1784 0
-1756 -1791 0
-1756 -1798 0
-1756 -776 0
-1756 -188 0
-1756 -293 0
-1784 -1791 0
-1784 -1798 0
-1784 -776 0
-1784 -188 0
-1784 -293 0
-1791 -1798 0
-1791 -776 0
-1791 -188 0
-1791 -293 0
-1798 -776 0
-1798 -188 0
-1798 -293 0
-776 -188 0
-776 -293 0
-188 -293 0
1757 1785 1792 1799 777 189 294 0
-1757 -1785 0
-1757 -1792 0
-1757 -1799 0
-1757 -777 0
-1757 -189 0
-1757 -294 0
-1785 -1792 0
-1785 -1799 0
-1785 -777 0
-1785 -189 0
-1785 -294 0
-1792 -1799 0
-1792 -777 0
-1792 -189 0
-1792 -294 0
-1799 -777 0
-1799 -189 0
-1799 -294 0
-777 -189 0
-777 -294 0
-189 -294 0
1758 1786 1793 1800 778 190 295 0
-1758 -1786 0
-1758 -1793 0
-1758 -1800 0
-1758 -778 0
-1758 -190 0
-1758 -295 0
-1786 -1793 0
-1786 -1800 0
-1786 -778 0
-1786 -190 0
-1786 -295 0
-1793 -1800 0
-1793 -778 0
-1793 -190 0
-1793 -295 0
-1800 -778 0
-1800 -190 0
-1800 -295 0
-778 -190 0
-778 -295 0
-190 -295 0
1759 1787 1794 1801 779 191 296 0
-1759 -1787 0
-1759 -1794 0
-1759 -1801 0
-1759 -779 0
-1759 -191 0
-1759 -296 0
-1787 -1794 0
-1787 -1801 0
-1787 -779 0
-1787 -191 0
-1787 -296 0
-1794 -1801 0
-1794 -779 0
-1794 -191 0
-1794 -296 0
-1801 -779 0
-1801 -191 0
-1801 -296 0
-779 -191 0
-779 -296 0
-191 -296 0
1760 1788 1795 1802 780 192 297 0
-1760 -1788 0
-1760 -1795 0
-1760 -1802 0
-1760 -780 0
-1760 -192 0
-1760 -297 0
-1788 -1795 0
-1788 -1802 0
-1788 -780 0
-1788 -192 0
-1788 -297 0
-1795 -1802 0
-1795 -780 0
-1795 -192 0
-1795 -297 0
-1802 -780 0
-1802 -192 0
-1802 -297 0
-780 -192 0
-780 -297 0
-192 -297 0
1761 1789 1796 1803 781 193 298 0
-1761 -1789 0
-1761 -1796 0
-1761 -1803 0
-1761 -781 0
-1761 -193 0
-1761 -298 0
-1789 -1796 0
-1789 -1803 0
-1789 -781 0
-1789 -193 0
-1789 -298 0
-1796 -1803 0
-1796 -781 0
-1796 -193 0
-1796 -298 0
-1803 -781 0
-1803 -193 0
-1803 -298 0
-781 -193 0
-781 -298 0
-193 -298 0
1762 1790 1797 1804 782 194 299 0
-1762 -1790 0
-1762 -1797 0
-1762 -1804 0
-1762 -782 0
-1762 -194 0
-1762 -299 0
-1790 -1797 0
-1790 -1804 0
-1790 -782 0
-1790 -194 0
-1790 -299 0
-1797 -1804 0
-1797 -782 0
-1797 -194 0
-1797 -299 0
-1804 -782 0
-1804 -194 0
-1804 -299 0
-782 -194 0
-782 -299 0
-194 -299 0
1763 1784 1805 1812 846 195 300 0
-1763 -1784 0
-1763 -1805 0
-1763 -1812 0
-1763 -846 0
-1763 -195 0
-1763 -300 0
-1784 -1805 0
-1784 -1812 0
-1784 -846 0
-1784 -195 0
-1784 -300 0
-1805 -1812 0
-1805 -846 0
-1805 -195 0
-1805 -300 0
-1812 -846 0
-1812 -195 0
-1812 -300 0
-846 -195 0
-846 -300 0
-195 -300 0
1764 1785 1806 1813 847 196 301 0
-1764 -1785 0
-1764 -1806 0
-1764 -1813 0
-1764 -847 0
-1764 -196 0
-1764 -301 0
-1785 -1806 0
-1785 -1813 0
-1785 -847 0
-1785 -196 0
-1785 -301 0
-1806 -1813 0
-1806 -847 0
-1806 -196 0
-1806 -301 0
-1813 -847 0
-1813 -196 0
-1813 -301 0
-847 -196 0
-847 -301 0
-196 -301 0
1765 1786 1807 1814 848 197 302 0
-1765 -1786 0
-1765 -1807 0
-1765 -1814 0
-1765 -848 0
-1765 -197 0
-1765 -302 0
-1786 -1807 0
-1786 -1814 0
-1786 -848 0
-1786 -197 0
-1786 -302 0
-1807 -1814 0
-1807 -848 0
-1807 -197 0
-1807 -302 0
-1814 -848 0
-1814 -197 0
-1814 -302 0
-848 -197 0
-848 -302 0
-197 -302 0
1766 1787 1808 1815 849 198 303 0
-1766 -1787 0
-1766 -1808 0
-1766 -1815 0
-1766 -849 0
-1766 -198 0
-1766 -303 0
-1787 -1808 0
-1787 -1815 0
-1787 -849 0
-1787 -198 0
-1787 -303 0
-1808 -1815 0
-1808 -849 0
-1808 -198 0
-1808 -303 0
-1815 -849 0
-1815 -198 0
-1815 -303 0
-849 -198 0
-849 -303 0
-198 -303 0
1767 1788 1809 1816 850 199 304 0
-1767 -1788 0
-1767 -1809 0
-1767 -1816 0
-1767 -850 0
-1767 -199 0
-1767 -304 0
-1788 -1809 0
-1788 -1816 0
-1788 -850 0
-1788 -199 0
-1788 -304 0
-1809 -1816 0
-1809 -850 0
-1809 -199 0
-1809 -304 0
-1816 -850 0
-1816 -199 0
-1816 -304 0
-850 -199 0
-850 -304 0
-199 -304 0
1768 1789 1810 1817 851 200 305 0
-1768 -1789 0
-1768 -1810 0
-1768 -1817 0
-1768 -851 0
-1768 -200 0
-1768 -305 0
-1789 -1810 0
-1789 -1817 0
-1789 -851 0
-1789 -200 0
-1789 -305 0
-1810 -1817 0
-1810 -851 0
-1810 -200 0
-1810 -305 0
-1817 -851 0
-1817 -200 0
-1817 -305 0
-851 -200 0
-851 -305 0
-200 -305 0
1769 1790 1811 1818 852 201 306 0
-1769 -1790 0
-1769 -1811 0
-1769 -1818 0
-1769 -852 0
-1769 -201 0
-1769 -306 0
-1790 -1811 0
-1790 -1818 0
-1790 -852 0
-1790 -201 0
-1790 -306 0
-1811 -1818 0
-1811 -852 0
-1811 -201 0
-1811 -306 0
-1818 -852 0
-1818 -201 0
-1818 -306 0
-852 -201 0
-852 -306 0
-201 -306 0
1770 1791 1805 1819 916 202 307 0
-1770 -1791 0
-1770 -1805 0
-1770 -1819 0
-1770 -916 0
-1770 -202 0
-1770 -307 0
-1791 -1805 0
-1791 -1819 0
-1791 -916 0
-1791 -202 0
-1791 -307 0
-1805 -1819 0
-1805 -916 0
-1805 -202 0
-1805 -307 0
-1819 -916 0
-1819 -202 0
-1819 -307 0
-916 -202 0
-916 -307 0
-202 -307 0
1771 1792 1806 1820 917 203 308 0
-1771 -1792 0
-1771 -1806 0
-1771 -1820 0
-1771 -917 0
-1771 -203 0
-1771 -308 0
-1792 -1806 0
-1792 -1820 0
-1792 -917 0
-1792 -203 0
-1792 -308 0
-1806 -1820 0
-1806 -917 0
-1806 -203 0
-1806 -308 0
-1820 -917 0
-1820 -203 0
-1820 -308 0
-917 -203 0
-917 -308 0
-203 -308 0
1772 1793 1807 1821 918 204 309 0
-1772 -1793 0
-1772 -1807 0
-1772 -1821 0
-1772 -918 0
-1772 -204 0
-1772 -309 0
-1793 -1807 0
-1793 -1821 0
-1793 -918 0
-1793 -204 0
-1793 -309 0
-1807 -1821 0
-1807 -918 0
-1807 -204 0
-1807 -309 0
-1821 -918 0
-1821 -204 0
-1821 -309 0
-918 -204 0
-918 -309 0
-204 -309 0
1773 1794 1808 1822 919 205 310 0
-1773 -1794 0
-1773 -1808 0
-1773 -1822 0
-1773 -919 0
-1773 -205 0
-1773 -310 0
-1794 -1808 0
-1794 -1822 0
-1794 -919 0
-1794 -205 0
-1794 -310 0
-1808 -1822 0
-1808 -919 0
-1808 -205 0
-1808 -310 0
-1822 -919 0
-1822 -205 0
-1822 -310 0
-919 -205 0
-919 -310 0
-205 -310 0
1774 1795 1809 1823 920 206 311 0
-1774 -1795 0
-1774 -1809 0
-1774 -1823 0
-1774 -920 0
-1774 -206 0
-1774 -311 0
-1795 -1809 0
-1795 -1823 0
-1795 -920 0
-1795 -206 0
-1795 -311 0
-1809 -1823 0
-1809 -920 0
-1809 -206 0
-1809 -311 0
-1823 -920 0
-1823 -206 0
-1823 -311 0
-920 -206 0
-920 -311 0
-206 -311 0
1775 1796 1810 1824 921 207 312 0
-1775 -1796 0
-1775 -1810 0
-1775 -1824 0
-1775 -921 0
-1775 -207 0
-1775 -312 0
-1796 -1810 0
-1796 -1824 0
-1796 -921 0
-1796 -207 0
-1796 -312 0
-1810 -1824 0
-1810 -921 0
-1810 -207 0
-1810 -312 0
-1824 -921 0
-1824 -207 0
-1824 -312 0
-921 -207 0
-921 -312 0
-207 -312 0
1776 1797 1811 1825 922 208 313 0
-1776 -1797 0
-1776 -1811 0
-1776 -1825 0
-1776 -922 0
-1776 -208 0
-1776 -313 0
-1797 -1811 0
-1797 -1825 0
-1797 -922 0
-1797 -208 0
-1797 -313 0
-1811 -1825 0
-1811 -922 0
-1811 -208 0
-1811 -313 0
-1825 -922 0
-1825 -208 0
-1825 -313 0
-922 -208 0
-922 -313 0
-208 -313 0
1777 1798 1812 1819 986 209 314 0
-1777 -1798 0
-1777 -1812 0
-1777 -1819 0
-1777 -986 0
-1777 -209 0
-1777 -314 0
-1798 -1812 0
-1798 -1819 0
-1798 -986 0
-1798 -209 0
-1798 -314 0
-1812 -1819 0
-1812 -986 0
-1812 -209 0
-1812 -314 0
-1819 -986 0
-1819 -209 0
-1819 -314 0
-986 -209 0
-986 -314 0
-209 -314 0
1778 1799 1813 1820 987 210 315 0
-1778 -1799 0
-1778 -1813 0
-1778 -1820 0
-1778 -987 0
-1778 -210 0
-1778 -315 0
-1799 -1813 0
-1799 -1820 0
-1799 -987 0
-1799 -210 0
-1799 -315 0
-1813 -1820 0
-1813 -987 0
-1813 -210 0
-1813 -315 0
-1820 -987 0
-1820 -210 0
-1820 -315 0
-987 -210 0
-987 -315 0
-210 -315 0
1779 1800 1814 1821 988 211 316 0
-1779 -1800 0
-1779 -1814 0
-1779 -1821 0
-1779 -988 0
-1779 -211 0
-1779 -316 0
-1800 -1814 0
-1800 -1821 0
-1800 -988 0
-1800 -211 0
-1800 -316 0
-1814 -1821 0
-1814 -988 0
-1814 -211 0
-1814 -316 0
-1821 -988 0
-1821 -211 0
-1821 -316 0
-988 -211 0
-988 -316 0
-211 -316 0
1780 1801 1815 1822 989 212 317 0
-1780 -1801 0
-1780 -1815 0
-1780 -1822 0
-1780 -989 0
-1780 -212 0
-1780 -317 0
-1801 -1815 0
-1801 -1822 0
-1801 -989 0
-1801 -212 0
-1801 -317 0
-1815 -1822 0
-1815 -989 0
-1815 -212 0
-1815 -317 0
-1822 -989 0
-1822 -212 0
-1822 -317 0
-989 -212 0
-989 -317 0
-212 -317 0
1781 1802 1816 1823 990 213 318 0
-1781 -1802 0
-1781 -1816 0
-1781 -1823 0
-1781 -990 0
-1781 -213 0
-1781 -318 0
-1802 -1816 0
-1802 -1823 0
-1802 -990 0
-1802 -213 0
-1802 -318 0
-1816 -1823 0
-1816 -990 0
-1816 -213 0
-1816 -318 0
-1823 -990 0
-1823 -213 0
-1823 -318 0
-990 -213 0
-990 -318 0
-213 -318 0
1782 1803 1817 1824 991 214 319 0
-1782 -1803 0
-1782 -1817 0
-1782 -1824 0
-1782 -991 0
-1782 -214 0
-1782 -319 0
-1803 -1817 0
-1803 -1824 0
-1803 -991 0
-1803 -214 0
-1803 -319 0
-1817 -1824 0
-1817 -991 0
-1817 -214 0
-1817 -319 0
-1824 -991 0
-1824 -214 0
-1824 -319 0
-991 -214 0
-991 -319 0
-214 -319 0
1783 1804 1818 1825 992 215 320 0
-1783 -1804 0
-1783 -1818 0
-1783 -1825 0
-1783 -992 0
-1783 -215 0
-1783 -320 0
-1804 -1818 0
-1804 -1825 0
-1804 -992 0
-1804 -215 0
-1804 -320 0
-1818 -1825 0
-1818 -992 0
-1818 -215 0
-1818 -320 0
-1825 -992 0
-1825 -215 0
-1825 -320 0
-992 -215 0
-992 -320 0
-215 -320 0
1756 1826 1833 1840 1056 216 321 0
-1756 -1826 0
-1756 -1833 0
-1756 -1840 0
-1756 -1056 0
-1756 -216 0
-1756 -321 0
-1826 -1833 0
-1826 -1840 0
-1826 -1056 0
-1826 -216 0
-1826 -321 0
-1833 -1840 0
-1833 -1056 0
-1833 -216 0
-1833 -321 0
-1840 -1056 0
-1840 -216 0
-1840 -321 0
-1056 -216 0
-1056 -321 0
-216 -321 0
1757 1827 1834 1841 1057 217 322 0
-1757 -1827 0
-1757 -1834 0
-1757 -1841 0
-1757 -1057 0
-1757 -217 0
-1757 -322 0
-1827 -1834 0
-1827 -1841 0
-1827 -1057 0
-1827 -217 0
-1827 -322 0
-1834 -1841 0
-1834 -1057 0
-1834 -217 0
-1834 -322 0
-1841 -1057 0
-1841 -217 0
-1841 -322 0
-1057 -217 0
-1057 -322 0
-217 -322 0
1758 1828 1835 1842 1058 218 323 0
-1758 -1828 0
-1758 -1835 0
-1758 -1842 0
-1758 -1058 0
-1758 -218 0
-1758 -323 0
-1828 -1835 0
-1828 -1842 0
-1828 -1058 0
-1828 -218 0
-1828 -323 0
-1835 -1842 0
-1835 -1058 0
-1835 -218 0
-1835 -323 0
-1842 -1058 0
-1842 -218 0
-1842 -323 0
-1058 -218 0
-1058 -323 0
-218 -323 0
1759 1829 1836 1843 1059 219 324 0
-1759 -1829 0
-1759 -1836 0
-1759 -1843 0
-1759 -1059 0
-1759 -219 0
-1759 -324 0
-1829 -1836 0
-1829 -1843 0
-1829 -1059 0
-1829 -219 0
-1829 -324 0
-1836 -1843 0
-1836 -1059 0
-1836 -219 0
-1836 -324 0
-1843 -1059 0
-1843 -219 0
-1843 -324 0
-1059 -219 0
-1059 -324 0
-219 -324 0
1760 1830 1837 1844 1060 220 325 0
-1760 -1830 0
-1760 -1837 0
-1760 -1844 0
-1760 -1060 0
-1760 -220 0
-1760 -325 0
-1830 -1837 0
-1830 -1844 0
-1830 -1060 0
-1830 -220 0
-1830 -325 0
-1837 -1844 0
-1837 -1060 0
-1837 -220 0
-1837 -325 0
-1844 -1060 0
-1844 -220 0
-1844 -325 0
-1060 -220 0
-1060 -325 0
-220 -325 0
1761 1831 1838 1845 1061 221 326 0
-1761 -1831 0
-1761 -1838 0
-1761 -1845 0
-1761 -1061 0
-1761 -221 0
-1761 -326 0
-1831 -1838 0
-1831 -1845 0
-1831 -1061 0
-1831 -221 0
-1831 -326 0
-1838 -1845 0
-1838 -1061 0
-1838 -221 0
-1838 -326 0
-1845 -1061 0
-1845 -221 0
-1845 -326 0
-1061 -221 0
-1061 -326 0
-221 -326 0
1762 1832 1839 1846 1062 222 327 0
-1762 -1832 0
-1762 -1839 0
-1762 -1846 0
-1762 -1062 0
-1762 -222 0
-1762 -327 0
-1832 -1839 0
-1832 -1846 0
-1832 -1062 0
-1832 -222 0
-1832 -327 0
-1839 -1846 0
-1839 -1062 0
-1839 -222 0
-1839 -327 0
-1846 -1062 0
-1846 -222 0
-1846 -327 0
-1062 -222 0
-1062 -327 0
-222 -327 0
1763 1826 1847 1854 1126 223 328 0
-1763 -1826 0
-1763 -1847 0
-1763 -1854 0
-1763 -1126 0
-1763 -223 0
-1763 -328 0
-1826 -1847 0
-1826 -1854 0
-1826 -1126 0
-1826 -223 0
-1826 -328 0
-1847 -1854 0
-1847 -1126 0
-1847 -223 0
-1847 -328 0
-1854 -1126 0
-1854 -223 0
-1854 -328 0
-1126 -223 0
-1126 -328 0
-223 -328 0
1764 1827 1848 1855 1127 224 329 0
-1764 -1827 0
-1764 -1848 0
-1764 -1855 0
-1764 -1127 0
-1764 -224 0
-1764 -329 0
-1827 -1848 0
-1827 -1855 0
-1827 -1127 0
-1827 -224 0
-1827 -329 0
-1848 -1855 0
-1848 -1127 0
-1848 -224 0
-1848 -329 0
-1855 -1127 0
-1855 -224 0
-1855 -329 0
-1127 -224 0
-1127 -329 0
-224 -329 0
1765 1828 1849 1856 1128 225 330 0
-1765 -1828 0
-1765 -1849 0
-1765 -1856 0
-1765 -1128 0
-1765 -225 0
-1765 -330 0
-1828 -1849 0
-1828 -1856 0
-1828 -1128 0
-1828 -225 0
-1828 -330 0
-1849 -1856 0
-1849 -1128 0
-1849 -225 0
-1849 -330 0
-1856 -1128 0
-1856 -225 0
-1856 -330 0
-1128 -225 0
-1128 -330 0
-225 -330 0
1766 1829 1850 1857 1129 226 331 0
-1766 -1829 0
-1766 -1850 0
-1766 -1857 0
-1766 -1129 0
-1766 -226 0
-1766 -331 0
-1829 -1850 0
-1829 -1857 0
-1829 -1129 0
-1829 -226 0
-1829 -331 0
-1850 -1857 0
-1850 -1129 0
-1850 -226 0
-1850 -331 0
-1857 -1129 0
-1857 -226 0
-1857 -331 0
-1129 -226 0
-1129 -331 0
-226 -331 0
1767 1830 1851 1858 1130 227 332 0
-1767 -1830 0
-1767 -1851 0
-1767 -1858 0
-1767 -1130 0
-1767 -227 0
-1767 -332 0
-1830 -1851 0
-1830 -1858 0
-1830 -1130 0
-1830 -227 0
-1830 -332 0
-1851 -1858 0
-1851 -1130 0
-1851 -227 0
-1851 -332 0
-1858 -1130 0
-1858 -227 0
-1858 -332 0
-1130 -227 0
-1130 -332 0
-227 -332 0
1768 1831 1852 1859 1131 228 333 0
-1768 -1831 0
-1768 -1852 0
-1768 -1859 0
-1768 -1131 0
-1768 -228 0
-1768 -333 0
-1831 -1852 0
-1831 -1859 0
-1831 -1131 0
-1831 -228 0
-1831 -333 0
-1852 -1859 0
-1852 -1131 0
-1852 -228 0
-1852 -333 0
-1859 -1131 0
-1859 -228 0
-1859 -333 0
-1131 -228 0
-1131 -333 0
-228 -333 0
1769 1832 1853 1860 1132 229 334 0
-1769 -1832 0
-1769 -1853 0
-1769 -1860 0
-1769 -1132 0
-1769 -229 0
-1769 -334 0
-1832 -1853 0
-1832 -1860 0
-1832 -1132 0
-1832 -229 0
-1832 -334 0
-1853 -1860 0
-1853 -1132 0
-1853 -229 0
-1853 -334 0
-1860 -1132 0
-1860 -229 0
-1860 -334 0
-1132 -229 0
-1132 -334 0
-229 -334 0
1770 1833 1847 1861 1196 230 335 0
-1770 -1833 0
-1770 -1847 0
-1770 -1861 0
-1770 -1196 0
-1770 -230 0
-1770 -335 0
-1833 -1847 0
-1833 -1861 0
-1833 -1196 0
-1833 -230 0
-1833 -335 0
-1847 -1861 0
-1847 -1196 0
-1847 -230 0
-1847 -335 0
-1861 -1196 0
-1861 -230 0
-1861 -335 0
-1196 -230 0
-1196 -335 0
-230 -335 0
1771 1834 1848 1862 1197 231 336 0
-1771 -1834 0
-1771 -1848 0
-1771 -1862 0
-1771 -1197 0
-1771 -231 0
-1771 -336 0
-1834 -1848 0
-1834 -1862 0
-1834 -1197 0
-1834 -231 0
-1834 -336 0
-1848 -1862 0
-1848 -1197 0
-1848 -231 0
-1848 -336 0
-1862 -1197 0
-1862 -231 0
-1862 -336 0
-1197 -231 0
-1197 -336 0
-231 -336 0
1772 1835 1849 1863 1198 232 337 0
-1772 -1835 0
-1772 -1849 0
-1772 -1863 0
-1772 -1198 0
-1772 -232 0
-1772 -337 0
-1835 -1849 0
-1835 -1863 0
-1835 -1198 0
-1835 -232 0
-1835 -337 0
-1849 -1863 0
-1849 -1198 0
-1849 -232 0
-1849 -337 0
-1863 -1198 0
-1863 -232 0
-1863 -337 0
-1198 -232 0
-1198 -337 0
-232 -337 0
1773 1836 1850 1864 1199 233 338 0
-1773 -1836 0
-1773 -1850 0
-1773 -1864 0
-1773 -1199 0
-1773 -233 0
-1773 -338 0
-1836 -1850 0
-1836 -1864 0
-1836 -1199 0
-1836 -233 0
-1836 -338 0
-1850 -1864 0
-1850 -1199 0
-1850 -233 0
-1850 -338 0
-1864 -1199 0
-1864 -233 0
-1864 -338 0
-1199 -233 0
-1199 -338 0
-233 -338 0
1774 1837 1851 1865 1200 234 339 0
-1774 -1837 0
-1774 -1851 0
-1774 -1865 0
-1774 -1200 0
-1774 -234 0
-1774 -339 0
-1837 -1851 0
-1837 -1865 0
-1837 -1200 0
-1837 -234 0
-1837 -339 0
-1851 -1865 0
-1851 -1200 0
-1851 -234 0
-1851 -339 0
-1865 -1200 0
-1865 -234 0
-1865 -339 0
-1200 -234 0
-1200 -339 0
-234 -339 0
1775 1838 1852 1866 1201 235 340 0
-1775 -1838 0
-1775 -1852 0
-1775 -1866 0
-1775 -1201 0
-1775 -235 0
-1775 -340 0
-1838 -1852 0
-1838 -1866 0
-1838 -1201 0
-1838 -235 0
-1838 -340 0
-1852 -1866 0
-1852 -1201 0
-1852 -235 0
-1852 -340 0
-1866 -1201 0
-1866 -235 0
-1866 -340 0
-1201 -235 0
-1201 -340 0
-235 -340 0
1776 1839 1853 1867 1202 236 341 0
-1776 -1839 0
-1776 -1853 0
-1776 -1867 0
-1776 -1202 0
-1776 -236 0
-1776 -341 0
-1839 -1853 0
-1839 -1867 0
-1839 -1202 0
-1839 -236 0
-1839 -341 0
-1853 -1867 0
-1853 -1202 0
-1853 -236 0
-1853 -341 0
-1867 -1202 0
-1867 -236 0
-1867 -341 0
-1202 -236 0
-1202 -341 0
-236 -341 0
1777 1840 1854 1861 1266 237 342 0
-1777 -1840 0
-1777 -1854 0
-1777 -1861 0
-1777 -1266 0
-1777 -237 0
-1777 -342 0
-1840 -1854 0
-1840 -1861 0
-1840 -1266 0
-1840 -237 0
-1840 -342 0
-1854 -1861 0
-1854 -1266 0
-1854 -237 0
-1854 -342 0
-1861 -1266 0
-1861 -237 0
-1861 -342 0
-1266 -237 0
-1266 -342 0
-237 -342 0
1778 1841 1855 1862 1267 238 343 0
-1778 -1841 0
-1778 -1855 0
-1778 -1862 0
-1778 -1267 0
-1778 -238 0
-1778 -343 0
-1841 -1855 0
-1841 -1862 0
-1841 -1267 0
-1841 -238 0
-1841 -343 0
-1855 -1862 0
-1855 -1267 0
-1855 -238 0
-1855 -343 0
-1862 -1267 0
-1862 -238 0
-1862 -343 0
-1267 -238 0
-1267 -343 0
-238 -343 0
1779 1842 1856 1863 1268 239 344 0
-1779 -1842 0
-1779 -1856 0
-1779 -1863 0
-1779 -1268 0
-1779 -239 0
-1779 -344 0
-1842 -1856 0
-1842 -1863 0
-1842 -1268 0
-1842 -239 0
-1842 -344 0
-1856 -1863 0
-1856 -1268 0
-1856 -239 0
-1856 -344 0
-1863 -1268 0
-1863 -239 0
-1863 -344 0
-1268 -239 0
-1268 -344 0
-239 -344 0
1780 1843 1857 1864 1269 240 345 0
-1780 -1843 0
-1780 -1857 0
-1780 -1864 0
-1780 -1269 0
-1780 -240 0
-1780 -345 0
-1843 -1857 0
-1843 -1864 0
-1843 -1269 0
-1843 -240 0
-1843 -345 0
-1857 -1864 0
-1857 -1269 0
-1857 -240 0
-1857 -345 0
-1864 -1269 0
-1864 -240 0
-1864 -345 0
-1269 -240 0
-1269 -345 0
-240 -345 0
1781 1844 1858 1865 1270 241 346 0
-1781 -1844 0
-1781 -1858 0
-1781 -1865 0
-1781 -1270 0
-1781 -241 0
-1781 -346 0
-1844 -1858 0
-1844 -1865 0
-1844 -1270 0
-1844 -241 0
-1844 -346 0
-1858 -1865 0
-1858 -1270 0
-1858 -241 0
-1858 -346 0
-1865 -1270 0
-1865 -241 0
-1865 -346 0
-1270 -241 0
-1270 -346 0
-241 -346 0
1782 1845 1859 1866 1271 242 347 0
-1782 -1845 0
-1782 -1859 0
-1782 -1866 0
-1782 -1271 0
-1782 -242 0
-1782 -347 0
-1845 -1859 0
-1845 -1866 0
-1845 -1271 0
-1845 -242 0
-1845 -347 0
-1859 -1866 0
-1859 -1271 0
-1859 -242 0
-1859 -347 0
-1866 -1271 0
-1866 -242 0
-1866 -347 0
-1271 -242 0
-1271 -347 0
-242 -347 0
1783 1846 1860 1867 1272 243 348 0
-1783 -1846 0
-1783 -1860 0
-1783 -1867 0
-1783 -1272 0
-1783 -243 0
-1783 -348 0
-1846 -1860 0
-1846 -1867 0
-1846 -1272 0
-1846 -243 0
-1846 -348 0
-1860 -1867 0
-1860 -1272 0
-1860 -243 0
-1860 -348 0
-1867 -1272 0
-1867 -243 0
-1867 -348 0
-1272 -243 0
-1272 -348 0
-243 -348 0
1784 1826 1868 1875 1336 244 349 0
-1784 -1826 0
-1784 -1868 0
-1784 -1875 0
-1784 -1336 0
-1784 -244 0
-1784 -349 0
-1826 -1868 0
-1826 -1875 0
-1826 -1336 0
-1826 -244 0
-1826 -349 0
-1868 -1875 0
-1868 -1336 0
-1868 -244 0
-1868 -349 0
-1875 -1336 0
-1875 -244 0
-1875 -349 0
-1336 -244 0
-1336 -349 0
-244 -349 0
1785 1827 1869 1876 1337 245 350 0
-1785 -1827 0
-1785 -1869 0
-1785 -1876 0
-1785 -1337 0
-1785 -245 0
-1785 -350 0
-1827 -1869 0
-1827 -1876 0
-1827 -1337 0
-1827 -245 0
-1827 -350 0
-1869 -1876 0
-1869 -1337 0
-1869 -245 0
-1869 -350 0
-1876 -1337 0
-1876 -245 0
-1876 -350 0
-1337 -245 0
-1337 -350 0
-245 -350 0
1786 1828 1870 1877 1338 246 351 0
-1786 -1828 0
-1786 -1870 0
-1786 -1877 0
-1786 -1338 0
-1786 -246 0
-1786 -351 0
-1828 -1870 0
-1828 -1877 0
-1828 -1338 0
-1828 -246 0
-1828 -351 0
-1870 -1877 0
-1870 -1338 0
-1870 -246 0
-1870 -351 0
-1877 -1338 0
-1877 -246 0
-1877 -351 0
-1338 -246 0
-1338 -351 0
-246 -351 0
1787 1829 1871 1878 1339 247 352 0
-1787 -1829 0
-1787 -1871 0
-1787 -1878 0
-1787 -1339 0
-1787 -247 0
-1787 -352 0
-1829 -1871 0
-1829 -1878 0
-1829 -1339 0
-1829 -247 0
-1829 -352 0
-1871 -1878 0
-1871 -1339 0
-1871 -247 0
-1871 -352 0
-1878 -1339 0
-1878 -247 0
-1878 -352 0
-1339 -247 0
-1339 -352 0
-247 -352 0
1788 1830 1872 1879 1340 248 353 0
-1788 -1830 0
-1788 -1872 0
-1788 -1879 0
-1788 -1340 0
-1788 -248 0
-1788 -353 0
-1830 -1872 0
-1830 -1879 0
-1830 -1340 0
-1830 -248 0
-1830 -353 0
-1872 -1879 0
-1872 -1340 0
-1872 -248 0
-1872 -353 0
-1879 -1340 0
-1879 -248 0
-1879 -353 0
-1340 -248 0
-1340 -353 0
-248 -353 0
1789 1831 1873 1880 1341 249 354 0
-1789 -1831 0
-1789 -1873 0
-1789 -1880 0
-1789 -1341 0
-1789 -249 0
-1789 -354 0
-1831 -1873 0
-1831 -1880 0
-1831 -1341 0
-1831 -249 0
-1831 -354 0
-1873 -1880 0
-1873 -1341 0
-1873 -249 0
-1873 -354 0
-1880 -1341 0
-1880 -249 0
-1880 -354 0
-1341 -249 0
-1341 -354 0
-249 -354 0
1790 1832 1874 1881 1342 250 355 0
-1790 -1832 0
-1790 -1874 0
-1790 -1881 0
-1790 -1342 0
-1790 -250 0
-1790 -355 0
-1832 -1874 0
-1832 -1881 0
-1832 -1342 0
-1832 -250 0
-1832 -355 0
-1874 -1881 0
-1874 -1342 0
-1874 -250 0
-1874 -355 0
-1881 -1342 0
-1881 -250 0
-1881 -355 0
-1342 -250 0
-1342 -355 0
-250 -355 0
1791 1833 1868 1882 1406 251 356 0
-1791 -1833 0
-1791 -1868 0
-1791 -1882 0
-1791 -1406 0
-1791 -251 0
-1791 -356 0
-1833 -1868 0
-1833 -1882 0
-1833 -1406 0
-1833 -251 0
-1833 -356 0
-1868 -1882 0
-1868 -1406 0
-1868 -251 0
-1868 -356 0
-1882 -1406 0
-1882 -251 0
-1882 -356 0
-1406 -251 0
-1406 -356 0
-251 -356 0
1792 1834 1869 1883 1407 252 357 0
-1792 -1834 0
-1792 -1869 0
-1792 -1883 0
-1792 -1407 0
-1792 -252 0
-1792 -357 0
-1834 -1869 0
-1834 -1883 0
-1834 -1407 0
-1834 -252 0
-1834 -357 0
-1869 -1883 0
-1869 -1407 0
-1869 -252 0
-1869 -357 0
-1883 -1407 0
-1883 -252 0
-1883 -357 0
-1407 -252 0
-1407 -357 0
-252 -357 0
1793 1835 1870 1884 1408 253 358 0
-1793 -1835 0
-1793 -1870 0
-1793 -1884 0
-1793 -1408 0
-1793 -253 0
-1793 -358 0
-1835 -1870 0
-1835 -1884 0
-1835 -1408 0
-1835 -253 0
-1835 -358 0
-1870 -1884 0
-1870 -1408 0
-1870 -253 0
-1870 -358 0
-1884 -1408 0
-1884 -253 0
-1884 -358 0
-1408 -253 0
-1408 -358 0
-253 -358 0
1794 1836 1871 1885 1409 254 359 0
-1794 -1836 0
-1794 -1871 0
-1794 -1885 0
-1794 -1409 0
-1794 -254 0
-1794 -359 0
-1836 -1871 0
-1836 -1885 0
-1836 -1409 0
-1836 -254 0
-1836 -359 0
-1871 -1885 0
-1871 -1409 0
-1871 -254 0
-1871 -359 0
-1885 -1409 0
-1885 -254 0
-1885 -359 0
-1409 -254 0
-1409 -359 0
-254 -359 0
1795 1837 1872 1886 1410 255 360 0
-1795 -1837 0
-1795 -1872 0
-1795 -1886 0
-1795 -1410 0
-1795 -255 0
-1795 -360 0
-1837 -1872 0
-1837 -1886 0
-1837 -1410 0
-1837 -255 0
-1837 -360 0
-1872 -1886 0
-1872 -1410 0
-1872 -255 0
-1872 -360 0
-1886 -1410 0
-1886 -255 0
-1886 -360 0
-1410 -255 0
-1410 -360 0
-255 -360 0
1796 1838 1873 1887 1411 256 361 0
-1796 -1838 0
-1796 -1873 0
-1796 -1887 0
-1796 -1411 0
-1796 -256 0
-1796 -361 0
-1838 -1873 0
-1838 -1887 0
-1838 -1411 0
-1838 -256 0
-1838 -361 0
-1873 -1887 0
-1873 -1411 0
-1873 -256 0
-1873 -361 0
-1887 -1411 0
-1887 -256 0
-1887 -361 0
-1411 -256 0
-1411 -361 0
-256 -361 0
1797 1839 1874 1888 1412 257 362 0
-1797 -1839 0
-1797 -1874 0
-1797 -1888 0
-1797 -1412 0
-1797 -257 0
-1797 -362 0
-1839 -1874 0
-1839 -1888 0
-1839 -1412 0
-1839 -257 0
-1839 -362 0
-1874 -1888 0
-1874 -1412 0
-1874 -257 0
-1874 -362 0
-1888 -1412 0
-1888 -257 0
-1888 -362 0
-1412 -257 0
-1412 -362 0
-257 -362 0
1798 1840 1875 1882 1476 258 363 0
-1798 -1840 0
-1798 -1875 0
-1798 -1882 0
-1798 -1476 0
-1798 -258 0
-1798 -363 0
-1840 -1875 0
-1840 -1882 0
-1840 -1476 0
-1840 -258 0
-1840 -363 0
-1875 -1882 0
-1875 -1476 0
-1875 -258 0
-1875 -363 0
-1882 -1476 0
-1882 -258 0
-1882 -363 0
-1476 -258 0
-1476 -363 0
-258 -363 0
1799 1841 1876 1883 1477 259 364 0
-1799 -1841 0
-1799 -1876 0
-1799 -1883 0
-1799 -1477 0
-1799 -259 0
-1799 -364 0
-1841 -1876 0
-1841 -1883 0
-1841 -1477 0
-1841 -259 0
-1841 -364 0
-1876 -1883 0
-1876 -1477 0
-1876 -259 0
-1876 -364 0
-1883 -1477 0
-1883 -259 0
-1883 -364 0
-1477 -259 0
-1477 -364 0
-259 -364 0
1800 1842 1877 1884 1478 260 365 0
-1800 -1842 0
-1800 -1877 0
-1800 -1884 0
-1800 -1478 0
-1800 -260 0
-1800 -365 0
-1842 -1877 0
-1842 -1884 0
-1842 -1478 0
-1842 -260 0
-1842 -365 0
-1877 -1884 0
-1877 -1478 0
-1877 -260 0
-1877 -365 0
-1884 -1478 0
-1884 -260 0
-1884 -365 0
-1478 -260 0
-1478 -365 0
-260 -365 0
1801 1843 1878 1885 1479 261 366 0
-1801 -1843 0
-1801 -1878 0
-1801 -1885 0
-1801 -1479 0
-1801 -261 0
-1801 -366 0
-1843 -1878 0
-1843 -1885 0
-1843 -1479 0
-1843 -261 0
-1843 -366 0
-1878 -1885 0
-1878 -1479 0
-1878 -261 0
-1878 -366 0
-1885 -1479 0
-1885 -261 0
-1885 -366 0
-1479 -261 0
-1479 -366 0
-261 -366 0
1802 1844 1879 1886 1480 262 367 0
-1802 -1844 0
-1802 -1879 0
-1802 -1886 0
-1802 -1480 0
-1802 -262 0
-1802 -367 0
-1844 -1879 0
-1844 -1886 0
-1844 -1480 0
-1844 -262 0
-1844 -367 0
-1879 -1886 0
-1879 -1480 0
-1879 -262 0
-1879 -367 0
-1886 -1480 0
-1886 -262 0
-1886 -367 0
-1480 -262 0
-1480 -367 0
-262 -367 0
1803 1845 1880 1887 1481 263 368 0
-1803 -1845 0
-1803 -1880 0
-1803 -1887 0
-1803 -1481 0
-1803 -263 0
-1803 -368 0
-1845 -1880 0
-1845 -1887 0
-1845 -1481 0
-1845 -263 0
-1845 -368 0
-1880 -1887 0
-1880 -1481 0
-1880 -263 0
-1880 -368 0
-1887 -1481 0
-1887 -263 0
-1887 -368 0
-1481 -263 0
-1481 -368 0
-263 -368 0
1804 1846 1881 1888 1482 264 369 0
-1804 -1846 0
-1804 -1881 0
-1804 -1888 0
-1804 -1482 0
-1804 -264 0
-1804 -369 0
-1846 -1881 0
-1846 -1888 0
-1846 -1482 0
-1846 -264 0
-1846 -369 0
-1881 -1888 0
-1881 -1482 0
-1881 -264 0
-1881 -369 0
-1888 -1482 0
-1888 -264 0
-1888 -369 0
-1482 -264 0
-1482 -369 0
-264 -369 0
1805 1847 1868 1889 1546 265 370 0
-1805 -1847 0
-1805 -1868 0
-1805 -1889 0
-1805 -1546 0
-1805 -265 0
-1805 -370 0
-1847 -1868 0
-1847 -1889 0
-1847 -1546 0
-1847 -265 0
-1847 -370 0
-1868 -1889 0
-1868 -1546 0
-1868 -265 0
-1868 -370 0
-1889 -1546 0
-1889 -265 0
-1889 -370 0
-1546 -265 0
-1546 -370 0
-265 -370 0
1806 1848 1869 1890 1547 266 371 0
-1806 -1848 0
-1806 -1869 0
-1806 -1890 0
-1806 -1547 0
-1806 -266 0
-1806 -371 0
-1848 -1869 0
-1848 -1890 0
-1848 -1547 0
-1848 -266 0
-1848 -371 0
-1869 -1890 0
-1869 -1547 0
-1869 -266 0
-1869 -371 0
-1890 -1547 0
-1890 -266 0
-1890 -371 0
-1547 -266 0
-1547 -371 0
-266 -371 0
1807 1849 1870 1891 1548 267 372 0
-1807 -1849 0
-1807 -1870 0
-1807 -1891 0
-1807 -1548 0
-1807 -267 0
-1807 -372 0
-1849 -1870 0
-1849 -1891 0
-1849 -1548 0
-1849 -267 0
-1849 -372 0
-1870 -1891 0
-1870 -1548 0
-1870 -267 0
-1870 -372 0
-1891 -1548 0
-1891 -267 0
-1891 -372 0
-1548 -267 0
-1548 -372 0
-267 -372 0
1808 1850 1871 1892 1549 268 373 0
-1808 -1850 0
-1808 -1871 0
-1808 -1892 0
-1808 -1549 0
-1808 -268 0
-1808 -373 0
-1850 -1871 0
-1850 -1892 0
-1850 -1549 0
-1850 -268 0
-1850 -373 0
-1871 -1892 0
-1871 -1549 0
-1871 -268 0
-1871 -373 0
-1892 -1549 0
-1892 -268 0
-1892 -373 0
-1549 -268 0
-1549 -373 0
-268 -373 0
1809 1851 1872 1893 1550 269 374 0
-1809 -1851 0
-1809 -1872 0
-1809 -1893 0
-1809 -1550 0
-1809 -269 0
-1809 -374 0
-1851 -1872 0
-1851 -1893 0
-1851 -1550 0
-1851 -269 0
-1851 -374 0
-1872 -1893 0
-1872 -1550 0
-1872 -269 0
-1872 -374 0
-1893 -1550 0
-1893 -269 0
-1893 -374 0
-1550 -269 0
-1550 -374 0
-269 -374 0
1810 1852 1873 1894 1551 270 375 0
-1810 -1852 0
-1810 -1873 0
-1810 -1894 0
-1810 -1551 0
-1810 -270 0
-1810 -375 0
-1852 -1873 0
-1852 -1894 0
-1852 -1551 0
-1852 -270 0
-1852 -375 0
-1873 -1894 0
-1873 -1551 0
-1873 -270 0
-1873 -375 0
-1894 -1551 0
-1894 -270 0
-1894 -375 0
-1551 -270 0
-1551 -375 0
-270 -375 0
1811 1853 1874 1895 1552 271 376 0
-1811 -1853 0
-1811 -1874 0
-1811 -1895 0
-1811 -1552 0
-1811 -271 0
-1811 -376 0
-1853 -1874 0
-1853 -1895 0
-1853 -1552 0
-1853 -271 0
-1853 -376 0
-1874 -1895 0
-1874 -1552 0
-1874 -271 0
-1874 -376 0
-1895 -1552 0
-1895 -271 0
-1895 -376 0
-1552 -271 0
-1552 -376 0
-271 -376 0
1812 1854 1875 1889 1616 272 377 0
-1812 -1854 0
-1812 -1875 0
-1812 -1889 0
-1812 -1616 0
-1812 -272 0
-1812 -377 0
-1854 -1875 0
-1854 -1889 0
-1854 -1616 0
-1854 -272 0
-1854 -377 0
-1875 -1889 0
-1875 -1616 0
-1875 -272 0
-1875 -377 0
-1889 -1616 0
-1889 -272 0
-1889 -377 0
-1616 -272 0
-1616 -377 0
-272 -377 0
1813 1855 1876 1890 1617 273 378 0
-1813 -1855 0
-1813 -1876 0
-1813 -1890 0
-1813 -1617 0
-1813 -273 0
-1813 -378 0
-1855 -1876 0
-1855 -1890 0
-1855 -1617 0
-1855 -273 0
-1855 -378 0
-1876 -1890 0
-1876 -1617 0
-1876 -273 0
-1876 -378 0
-1890 -1617 0
-1890 -273 0
-1890 -378 0
-1617 -273 0
-1617 -378 0
-273 -378 0
1814 1856 1877 1891 1618 274 379 0
-1814 -1856 0
-1814 -1877 0
-1814 -1891 0
-1814 -1618 0
-1814 -274 0
-1814 -379 0
-1856 -1877 0
-1856 -1891 0
-1856 -1618 0
-1856 -274 0
-1856 -379 0
-1877 -1891 0
-1877 -1618 0
-1877 -274 0
-1877 -379 0
-1891 -1618 0
-1891 -274 0
-1891 -379 0
-1618 -274 0
-1618 -379 0
-274 -379 0
1815 1857 1878 1892 1619 275 380 0
-1815 -1857 0
-1815 -1878 0
-1815 -1892 0
-1815 -1619 0
-1815 -275 0
-1815 -380 0
-1857 -1878 0
-1857 -1892 0
-1857 -1619 0
-1857 -275 0
-1857 -380 0
-1878 -1892 0
-1878 -1619 0
-1878 -275 0
-1878 -380 0
-1892 -1619 0
-1892 -275 0
-1892 -380 0
-1619 -275 0
-1619 -380 0
-275 -380 0
1816 1858 1879 1893 1620 276 381 0
-1816 -1858 0
-1816 -1879 0
-1816 -1893 0
-1816 -1620 0
-1816 -276 0
-1816 -381 0
-1858 -1879 0
-1858 -1893 0
-1858 -1620 0
-1858 -276 0
-1858 -381 0
-1879 -1893 0
-1879 -1620 0
-1879 -276 0
-1879 -381 0
-1893 -1620 0
-1893 -276 0
-1893 -381 0
-1620 -276 0
-1620 -381 0
-276 -381 0
1817 1859 1880 1894 1621 277 382 0
-1817 -1859 0
-1817 -1880 0
-1817 -1894 0
-1817 -1621 0
-1817 -277 0
-1817 -382 0
-1859 -1880 0
-1859 -1894 0
-1859 -1621 0
-1859 -277 0
-1859 -382 0
-1880 -1894 0
-1880 -1621 0
-1880 -277 0
-1880 -382 0
-1894 -1621 0
-1894 -277 0
-1894 -382 0
-1621 -277 0
-1621 -382 0
-277 -382 0
1818 1860 1881 1895 1622 278 383 0
-1818 -1860 0
-1818 -1881 0
-1818 -1895 0
-1818 -1622 0
-1818 -278 0
-1818 -383 0
-1860 -1881 0
-1860 -1895 0
-1860 -1622 0
-1860 -278 0
-1860 -383 0
-1881 -1895 0
-1881 -1622 0
-1881 -278 0
-1881 -383 0
-1895 -1622 0
-1895 -278 0
-1895 -383 0
-1622 -278 0
-1622 -383 0
-278 -383 0
1819 1861 1882 1889 1686 279 384 0
-1819 -1861 0
-1819 -1882 0
-1819 -1889 0
-1819 -1686 0
-1819 -279 0
-1819 -384 0
-1861 -1882 0
-1861 -1889 0
-1861 -1686 0
-1861 -279 0
-1861 -384 0
-1882 -1889 0
-1882 -1686 0
-1882 -279 0
-1882 -384 0
-1889 -1686 0
-1889 -279 0
-1889 -384 0
-1686 -279 0
-1686 -384 0
-279 -384 0
1820 1862 1883 1890 1687 280 385 0
-1820 -1862 0
-1820 -1883 0
-1820 -1890 0
-1820 -1687 0
-1820 -280 0
-1820 -385 0
-1862 -1883 0
-1862 -1890 0
-1862 -1687 0
-1862 -280 0
-1862 -385 0
-1883 -1890 0
-1883 -1687 0
-1883 -280 0
-1883 -385 0
-1890 -1687 0
-1890 -280 0
-1890 -385 0
-1687 -280 0
-1687 -385 0
-280 -385 0
1821 1863 1884 1891 1688 281 386 0
-1821 -1863 0
-1821 -1884 0
-1821 -1891 0
-1821 -1688 0
-1821 -281 0
-1821 -386 0
-1863 -1884 0
-1863 -1891 0
-1863 -1688 0
-1863 -281 0
-1863 -386 0
-1884 -1891 0
-1884 -1688 0
-1884 -281 0
-1884 -386 0
-1891 -1688 0
-1891 -281 0
-1891 -386 0
-1688 -281 0
-1688 -386 0
-281 -386 0
1822 1864 1885 1892 1689 282 387 0
-1822 -1864 0
-1822 -1885 0
-1822 -1892 0
-1822 -1689 0
-1822 -282 0
-1822 -387 0
-1864 -1885 0
-1864 -1892 0
-1864 -1689 0
-1864 -282 0
-1864 -387 0
-1885 -1892 0
-1885 -1689 0
-1885 -282 0
-1885 -387 0
-1892 -1689 0
-1892 -282 0
-1892 -387 0
-1689 -282 0
-1689 -387 0
-282 -387 0
1823 1865 1886 1893 1690 283 388 0
-1823 -1865 0
-1823 -1886 0
-1823 -1893 0
-1823 -1690 0
-1823 -283 0
-1823 -388 0
-1865 -1886 0
-1865 -1893 0
-1865 -1690 0
-1865 -283 0
-1865 -388 0
-1886 -1893 0
-1886 -1690 0
-1886 -283 0
-1886 -388 0
-1893 -1690 0
-1893 -283 0
-1893 -388 0
-1690 -283 0
-1690 -388 0
-283 -388 0
1824 1866 1887 1894 1691 284 389 0
-1824 -1866 0
-1824 -1887 0
-1824 -1894 0
-1824 -1691 0
-1824 -284 0
-1824 -389 0
-1866 -1887 0
-1866 -1894 0
-1866 -1691 0
-1866 -284 0
-1866 -389 0
-1887 -1894 0
-1887 -1691 0
-1887 -284 0
-1887 -389 0
-1894 -1691 0
-1894 -284 0
-1894 -389 0
-1691 -284 0
-1691 -389 0
-284 -389 0
1825 1867 1888 1895 1692 285 390 0
-1825 -1867 0
-1825 -1888 0
-1825 -1895 0
-1825 -1692 0
-1825 -285 0
-1825 -390 0
-1867 -1888 0
-1867 -1895 0
-1867 -1692 0
-1867 -285 0
-1867 -390 0
-1888 -1895 0
-1888 -1692 0
-1888 -285 0
-1888 -390 0
-1895 -1692 0
-1895 -285 0
-1895 -390 0
-1692 -285 0
-1692 -390 0
-285 -390 0
1896 1903 1910 1917 713 181 391 0
-1896 -1903 0
-1896 -1910 0
-1896 -1917 0
-1896 -713 0
-1896 -181 0
-1896 -391 0
-1903 -1910 0
-1903 -1917 0
-1903 -713 0
-1903 -181 0
-1903 -391 0
-1910 -1917 0
-1910 -713 0
-1910 -181 0
-1910 -391 0
-1917 -713 0
-1917 -181 0
-1917 -391 0
-713 -181 0
-713 -391 0
-181 -391 0
1897 1904 1911 1918 714 182 392 0
-1897 -1904 0
-1897 -1911 0
-1897 -1918 0
-1897 -714 0
-1897 -182 0
-1897 -392 0
-1904 -1911 0
-1904 -1918 0
-1904 -714 0
-1904 -182 0
-1904 -392 0
-1911 -1918 0
-1911 -714 0
-1911 -182 0
-1911 -392 0
-1918 -714 0
-1918 -182 0
-1918 -392 0
-714 -182 0
-714 -392 0
-182 -392 0
1898 1905 1912 1919 715 183 393 0
-1898 -1905 0
-1898 -1912 0
-1898 -1919 0
-1898 -715 0
-1898 -183 0
-1898 -393 0
-1905 -1912 0
-1905 -1919 0
-1905 -715 0
-1905 -183 0
-1905 -393 0
-1912 -1919 0
-1912 -715 0
-1912 -183 0
-1912 -393 0
-1919 -715 0
-1919 -183 0
-1919 -393 0
-715 -183 0
-715 -393 0
-183 -393 0
1899 1906 1913 1920 716 184 394 0
-1899 -1906 0
-1899 -1913 0
-1899 -1920 0
-1899 -716 0
-1899 -184 0
-1899 -394 0
-1906 -1913 0
-1906 -1920 0
-1906 -716 0
-1906 -184 0
-1906 -394 0
-1913 -1920 0
-1913 -716 0
-1913 -184 0
-1913 -394 0
-1920 -716 0
-1920 -184 0
-1920 -394 0
-716 -184 0
-716 -394 0
-184 -394 0
1900 1907 1914 1921 717 185 395 0
-1900 -1907 0
-1900 -1914 0
-1900 -1921 0
-1900 -717 0
-1900 -185 0
-1900 -395 0
-1907 -1914 0
-1907 -1921 0
-1907 -717 0
-1907 -185 0
-1907 -395 0
-1914 -1921 0
-1914 -717 0
-1914 -185 0
-1914 -395 0
-1921 -717 0
-1921 -185 0
-1921 -395 0
-717 -185 0
-717 -395 0
-185 -395 0
1901 1908 1915 1922 718 186 396 0
-1901 -1908 0
-1901 -1915 0
-1901 -1922 0
-1901 -718 0
-1901 -186 0
-1901 -396 0
-1908 -1915 0
-1908 -1922 0
-1908 -718 0
-1908 -186 0
-1908 -396 0
-1915 -1922 0
-1915 -718 0
-1915 -186 0
-1915 -396 0
-1922 -718 0
-1922 -186 0
-1922 -396 0
-718 -186 0
-718 -396 0
-186 -396 0
1902 1909 1916 1923 719 187 397 0
-1902 -1909 0
-1902 -1916 0
-1902 -1923 0
-1902 -719 0
-1902 -187 0
-1902 -397 0
-1909 -1916 0
-1909 -1923 0
-1909 -719 0
-1909 -187 0
-1909 -397 0
-1916 -1923 0
-1916 -719 0
-1916 -187 0
-1916 -397 0
-1923 -719 0
-1923 -187 0
-1923 -397 0
-719 -187 0
-719 -397 0
-187 -397 0
1896 1924 1931 1938 783 188 398 0
-1896 -1924 0
-1896 -1931 0
-1896 -1938 0
-1896 -783 0
-1896 -188 0
-1896 -398 0
-1924 -1931 0
-1924 -1938 0
-1924 -783 0
-1924 -188 0
-1924 -398 0
-1931 -1938 0
-1931 -783 0
-1931 -188 0
-1931 -398 0
-1938 -783 0
-1938 -188 0
-1938 -398 0
-783 -188 0
-783 -398 0
-188 -398 0
1897 1925 1932 1939 784 189 399 0
-1897 -1925 0
-1897 -1932 0
-1897 -1939 0
-1897 -784 0
-1897 -189 0
-1897 -399 0
-1925 -1932 0
-1925 -1939 0
-1925 -784 0
-1925 -189 0
-1925 -399 0
-1932 -1939 0
-1932 -784 0
-1932 -189 0
-1932 -399 0
-1939 -784 0
-1939 -189 0
-1939 -399 0
-784 -189 0
-784 -399 0
-189 -399 0
1898 1926 1933 1940 785 190 400 0
-1898 -1926 0
-1898 -1933 0
-1898 -1940 0
-1898 -785 0
-1898 -190 0
-1898 -400 0
-1926 -1933 0
-1926 -1940 0
-1926 -785 0
-1926 -190 0
-1926 -400 0
-1933 -1940 0
-1933 -785 0
-1933 -190 0
-1933 -400 0
-1940 -785 0
-1940 -190 0
-1940 -400 0
-785 -190 0
-785 -400 0
-190 -400 0
1899 1927 1934 1941 786 191 401 0
-1899 -1927 0
-1899 -1934 0
-1899 -1941 0
-1899 -786 0
-1899 -191 0
-1899 -401 0
-1927 -1934 0
-1927 -1941 0
-1927 -786 0
-1927 -191 0
-1927 -401 0
-1934 -1941 0
-1934 -786 0
-1934 -191 0
-1934 -401 0
-1941 -786 0
-1941 -191 0
-1941 -401 0
-786 -191 0
-786 -401 0
-191 -401 0
1900 1928 1935 1942 787 192 402 0
-1900 -1928 0
-1900 -1935 0
-1900 -1942 0
-1900 -787 0
-1900 -192 0
-1900 -402 0
-1928 -1935 0
-1928 -1942 0
-1928 -787 0
-1928 -192 0
-1928 -402 0
-1935 -1942 0
-1935 -787 0
-1935 -192 0
-1935 -402 0
-1942 -787 0
-1942 -192 0
-1942 -402 0
-787 -192 0
-787 -402 0
-192 -402 0
1901 1929 1936 1943 788 193 403 0
-1901 -1929 0
-1901 -1936 0
-1901 -1943 0
-1901 -788 0
-1901 -193 0
-1901 -403 0
-1929 -1936 0
-1929 -1943 0
-1929 -788 0
-1929 -193 0
-1929 -403 0
-1936 -1943 0
-1936 -788 0
-1936 -193 0
-1936 -403 0
-1943 -788 0
-1943 -193 0
-1943 -403 0
-788 -193 0
-788 -403 0
-193 -403 0
1902 1930 1937 1944 789 194 404 0
-1902 -1930 0
-1902 -1937 0
-1902 -1944 0
-1902 -789 0
-1902 -194 0
-1902 -404 0
-1930 -1937 0
-1930 -1944 0
-1930 -789 0
-1930 -194 0
-1930 -404 0
-1937 -1944 0
-1937 -789 0
-1937 -194 0
-1937 -404 0
-1944 -789 0
-1944 -194 0
-1944 -404 0
-789 -194 0
-789 -404 0
-194 -404 0
1903 1924 1945 1952 853 195 405 0
-1903 -1924 0
-1903 -1945 0
-1903 -1952 0
-1903 -853 0
-1903 -195 0
-1903 -405 0
-1924 -1945 0
-1924 -1952 0
-1924 -853 0
-1924 -195 0
-1924 -405 0
-1945 -1952 0
-1945 -853 0
-1945 -195 0
-1945 -405 0
-1952 -853 0
-1952 -195 0
-1952 -405 0
-853 -195 0
-853 -405 0
-195 -405 0
1904 1925 1946 1953 854 196 406 0
-1904 -1925 0
-1904 -1946 0
-1904 -1953 0
-1904 -854 0
-1904 -196 0
-1904 -406 0
-1925 -1946 0
-1925 -1953 0
-1925 -854 0
-1925 -196 0
-1925 -406 0
-1946 -1953 0
-1946 -854 0
-1946 -196 0
-1946 -406 0
-1953 -854 0
-1953 -196 0
-1953 -406 0
-854 -196 0
-854 -406 0
-196 -406 0
1905 1926 1947 1954 855 197 407 0
-1905 -1926 0
-1905 -1947 0
-1905 -1954 0
-1905 -855 0
-1905 -197 0
-1905 -407 0
-1926 -1947 0
-1926 -1954 0
-1926 -855 0
-1926 -197 0
-1926 -407 0
-1947 -1954 0
-1947 -855 0
-1947 -197 0
-1947 -407 0
-1954 -855 0
-1954 -197 0
-1954 -407 0
-855 -197 0
-855 -407 0
-197 -407 0
1906 1927 1948 1955 856 198 408 0
-1906 -1927 0
-1906 -1948 0
-1906 -1955 0
-1906 -856 0
-1906 -198 0
-1906 -408 0
-1927 -1948 0
-1927 -1955 0
-1927 -856 0
-1927 -198 0
-1927 -408 0
-1948 -1955 0
-1948 -856 0
-1948 -198 0
-1948 -408 0
-1955 -856 0
-1955 -198 0
-1955 -408 0
-856 -198 0
-856 -408 0
-198 -408 0
1907 1928 1949 1956 857 199 409 0
-1907 -1928 0
-1907 -1949 0
-1907 -1956 0
-1907 -857 0
-1907 -199 0
-1907 -409 0
-1928 -1949 0
-1928 -1956 0
-1928 -857 0
-1928 -199 0
-1928 -409 0
-1949 -1956 0
-1949 -857 0
-1949 -199 0
-1949 -409 0
-1956 -857 0
-1956 -199 0
-1956 -409 0
-857 -199 0
-857 -409 0
-199 -409 0
1908 1929 1950 1957 858 200 410 0
-1908 -1929 0
-1908 -1950 0
-1908 -1957 0
-1908 -858 0
-1908 -200 0
-1908 -410 0
-1929 -1950 0
-1929 -1957 0
-1929 -858 0
-1929 -200 0
-1929 -410 0
-1950 -1957 0
-1950 -858 0
-1950 -200 0
-1950 -410 0
-1957 -858 0
-1957 -200 0
-1957 -410 0
-858 -200 0
-858 -410 0
-200 -410 0
1909 1930 1951 1958 859 201 411 0
-1909 -1930 0
-1909 -1951 0
-1909 -1958 0
-1909 -859 0
-1909 -201 0
-1909 -411 0
-1930 -1951 0
-1930 -1958 0
-1930 -859 0
-1930 -201 0
-1930 -411 0
-1951 -1958 0
-1951 -859 0
-1951 -201 0
-1951 -411 0
-1958 -859 0
-1958 -201 0
-1958 -411 0
-859 -201 0
-859 -411 0
-201 -411 0
1910 1931 1945 1959 923 202 412 0
-1910 -1931 0
-1910 -1945 0
-1910 -1959 0
-1910 -923 0
-1910 -202 0
-1910 -412 0
-1931 -1945 0
-1931 -1959 0
-1931 -923 0
-1931 -202 0
-1931 -412 0
-1945 -1959 0
-1945 -923 0
-1945 -202 0
-1945 -412 0
-1959 -923 0
-1959 -202 0
-1959 -412 0
-923 -202 0
-923 -412 0
-202 -412 0
1911 1932 1946 1960 924 203 413 0
-1911 -1932 0
-1911 -1946 0
-1911 -1960 0
-1911 -924 0
-1911 -203 0
-1911 -413 0
-1932 -1946 0
-1932 -1960 0
-1932 -924 0
-1932 -203 0
-1932 -413 0
-1946 -1960 0
-1946 -924 0
-1946 -203 0
-1946 -413 0
-1960 -924 0
-1960 -203 0
-1960 -413 0
-924 -203 0
-924 -413 0
-203 -413 0
1912 1933 1947 1961 925 204 414 0
-1912 -1933 0
-1912 -1947 0
-1912 -1961 0
-1912 -925 0
-1912 -204 0
-1912 -414 0
-1933 -1947 0
-1933 -1961 0
-1933 -925 0
-1933 -204 0
-1933 -414 0
-1947 -1961 0
-1947 -925 0
-1947 -204 0
-1947 -414 0
-1961 -925 0
-1961 -204 0
-1961 -414 0
-925 -204 0
-925 -414 0
-204 -414 0
1913 1934 1948 1962 926 205 415 0
-1913 -1934 0
-1913 -1948 0
-1913 -1962 0
-1913 -926 0
-1913 -205 0
-1913 -415 0
-1934 -1948 0
-1934 -1962 0
-1934 -926 0
-1934 -205 0
-1934 -415 0
-1948 -1962 0
-1948 -926 0
-1948 -205 0
-1948 -415 0
-1962 -926 0
-1962 -205 0
-1962 -415 0
-926 -205 0
-926 -415 0
-205 -415 0
1914 1935 1949 1963 927 206 416 0
-1914 -1935 0
-1914 -1949 0
-1914 -1963 0
-1914 -927 0
-1914 -206 0
-1914 -416 0
-1935 -1949 0
-1935 -1963 0
-1935 -927 0
-1935 -206 0
-1935 -416 0
-1949 -1963 0
-1949 -927 0
-1949 -206 0
-1949 -416 0
-1963 -927 0
-1963 -206 0
-1963 -416 0
-927 -206 0
-927 -416 0
-206 -416 0
1915 1936 1950 1964 928 207 417 0
-1915 -1936 0
-1915 -1950 0
-1915 -1964 0
-1915 -928 0
-1915 -207 0
-1915 -417 0
-1936 -1950 0
-1936 -1964 0
-1936 -928 0
-1936 -207 0
-1936 -417 0
-1950 -1964 0
-1950 -928 0
-1950 -207 0
-1950 -417 0
-1964 -928 0
-1964 -207 0
-1964 -417 0
-928 -207 0
-928 -417 0
-207 -417 0
1916 1937 1951 1965 929 208 418 0
-1916 -1937 0
-1916 -1951 0
-1916 -1965 0
-1916 -929 0
-1916 -208 0
-1916 -418 0
-1937 -1951 0
-1937 -1965 0
-1937 -929 0
-1937 -208 0
-1937 -418 0
-1951 -1965 0
-1951 -929 0
-1951 -208 0
-1951 -418 0
-1965 -929 0
-1965 -208 0
-1965 -418 0
-929 -208 0
-929 -418 0
-208 -418 0
1917 1938 1952 1959 993 209 419 0
-1917 -1938 0
-1917 -1952 0
-1917 -1959 0
-1917 -993 0
-1917 -209 0
-1917 -419 0
-1938 -1952 0
-1938 -1959 0
-1938 -993 0
-1938 -209 0
-1938 -419 0
-1952 -1959 0
-1952 -993 0
-1952 -209 0
-1952 -419 0
-1959 -993 0
-1959 -209 0
-1959 -419 0
-993 -209 0
-993 -419 0
-209 -419 0
1918 1939 1953 1960 994 210 420 0
-1918 -1939 0
-1918 -1953 0
-1918 -1960 0
-1918 -994 0
-1918 -210 0
-1918 -420 0
-1939 -1953 0
-1939 -1960 0
-1939 -994 0
-1939 -210 0
-1939 -420 0
-1953 -1960 0
-1953 -994 0
-1953 -210 0
-1953 -420 0
-1960 -994 0
-1960 -210 0
-1960 -420 0
-994 -210 0
-994 -420 0
-210 -420 0
1919 1940 1954 1961 995 211 421 0
-1919 -1940 0
-1919 -1954 0
-1919 -1961 0
-1919 -995 0
-1919 -211 0
-1919 -421 0
-1940 -1954 0
-1940 -1961 0
-1940 -995 0
-1940 -211 0
-1940 -421 0
-1954 -1961 0
-1954 -995 0
-1954 -211 0
-1954 -421 0
-1961 -995 0
-1961 -211 0
-1961 -421 0
-995 -211 0
-995 -421 0
-211 -421 0
1920 1941 1955 1962 996 212 422 0
-1920 -1941 0
-1920 -1955 0
-1920 -1962 0
-1920 -996 0
-1920 -212 0
-1920 -422 0
-1941 -1955 0
-1941 -1962 0
-1941 -996 0
-1941 -212 0
-1941 -422 0
-1955 -1962 0
-1955 -996 0
-1955 -212 0
-1955 -422 0
-1962 -996 0
-1962 -212 0
-1962 -422 0
-996 -212 0
-996 -422 0
-212 -422 0
1921 1942 1956 1963 997 213 423 0
-1921 -1942 0
-1921 -1956 0
-1921 -1963 0
-1921 -997 0
-1921 -213 0
-1921 -423 0
-1942 -1956 0
-1942 -1963 0
-1942 -997 0
-1942 -213 0
-1942 -423 0
-1956 -1963 0
-1956 -997 0
-1956 -213 0
-1956 -423 0
-1963 -997 0
-1963 -213 0
-1963 -423 0
-997 -213 0
-997 -423 0
-213 -423 0
1922 1943 1957 1964 998 214 424 0
-1922 -1943 0
-1922 -1957 0
-1922 -1964 0
-1922 -998 0
-1922 -214 0
-1922 -424 0
-1943 -1957 0
-1943 -1964 0
-1943 -998 0
-1943 -214 0
-1943 -424 0
-1957 -1964 0
-1957 -998 0
-1957 -214 0
-1957 -424 0
-1964 -998 0
-1964 -214 0
-1964 -424 0
-998 -214 0
-998 -424 0
-214 -424 0
1923 1944 1958 1965 999 215 425 0
-1923 -1944 0
-1923 -1958 0
-1923 -1965 0
-1923 -999 0
-1923 -215 0
-1923 -425 0
-1944 -1958 0
-1944 -1965 0
-1944 -999 0
-1944 -215 0
-1944 -425 0
-1958 -1965 0
-1958 -999 0
-1958 -215 0
-1958 -425 0
-1965 -999 0
-1965 -215 0
-1965 -425 0
-999 -215 0
-999 -425 0
-215 -425 0
1896 1966 1973 1980 1063 216 426 0
-1896 -1966 0
-1896 -1973 0
-1896 -1980 0
-1896 -1063 0
-1896 -216 0
-1896 -426 0
-1966 -1973 0
-1966 -1980 0
-1966 -1063 0
-1966 -216 0
-1966 -426 0
-1973 -1980 0
-1973 -1063 0
-1973 -216 0
-1973 -426 0
-1980 -1063 0
-1980 -216 0
-1980 -426 0
-1063 -216 0
-1063 -426 0
-216 -426 0
1897 1967 1974 1981 1064 217 427 0
-1897 -1967 0
-1897 -1974 0
-1897 -1981 0
-1897 -1064 0
-1897 -217 0
-1897 -427 0
-1967 -1974 0
-1967 -1981 0
-1967 -1064 0
-1967 -217 0
-1967 -427 0
-1974 -1981 0
-1974 -1064 0
-1974 -217 0
-1974 -427 0
-1981 -1064 0
-1981 -217 0
-1981 -427 0
-1064 -217 0
-1064 -427 0
-217 -427 0
1898 1968 1975 1982 1065 218 428 0
-1898 -1968 0
-1898 -1975 0
-1898 -1982 0
-1898 -1065 0
-1898 -218 0
-1898 -428 0
-1968 -1975 0
-1968 -1982 0
-1968 -1065 0
-1968 -218 0
-1968 -428 0
-1975 -1982 0
-1975 -1065 0
-1975 -218 0
-1975 -428 0
-1982 -1065 0
-1982 -218 0
-1982 -428 0
-1065 -218 0
-1065 -428 0
-218 -428 0
1899 1969 1976 1983 1066 219 429 0
-1899 -1969 0
-1899 -1976 0
-1899 -1983 0
-1899 -1066 0
-1899 -219 0
-1899 -429 0
-1969 -1976 0
-1969 -1983 0
-1969 -1066 0
-1969 -219 0
-1969 -429 0
-1976 -1983 0
-1976 -1066 0
-1976 -219 0
-1976 -429 0
-1983 -1066 0
-1983 -219 0
-1983 -429 0
-1066 -219 0
-1066 -429 0
-219 -429 0
1900 1970 1977 1984 1067 220 430 0
-1900 -1970 0
-1900 -1977 0
-1900 -1984 0
-1900 -1067 0
-1900 -220 0
-1900 -430 0
-1970 -1977 0
-1970 -1984 0
-1970 -1067 0
-1970 -220 0
-1970 -430 0
-1977 -1984 0
-1977 -1067 0
-1977 -220 0
-1977 -430 0
-1984 -1067 0
-1984 -220 0
-1984 -430 0
-1067 -220 0
-1067 -430 0
-220 -430 0
1901 1971 1978 1985 1068 221 431 0
-1901 -1971 0
-1901 -1978 0
-1901 -1985 0
-1901 -1068 0
-1901 -221 0
-1901 -431 0
-1971 -1978 0
-1971 -1985 0
-1971 -1068 0
-1971 -221 0
-1971 -431 0
-1978 -1985 0
-1978 -1068 0
-1978 -221 0
-1978 -431 0
-1985 -1068 0
-1985 -221 0
-1985 -431 0
-1068 -221 0
-1068 -431 0
-221 -431 0
1902 1972 1979 1986 1069 222 432 0
-1902 -1972 0
-1902 -1979 0
-1902 -1986 0
-1902 -1069 0
-1902 -222 0
-1902 -432 0
-1972 -1979 0
-1972 -1986 0
-1972 -1069 0
-1972 -222 0
-1972 -432 0
-1979 -1986 0
-1979 -1069 0
-1979 -222 0
-1979 -432 0
-1986 -1069 0
-1986 -222 0
-1986 -432 0
-1069 -222 0
-1069 -432 0
-222 -432 0
1903 1966 1987 1994 1133 223 433 0
-1903 -1966 0
-1903 -1987 0
-1903 -1994 0
-1903 -1133 0
-1903 -223 0
-1903 -433 0
-1966 -1987 0
-1966 -1994 0
-1966 -1133 0
-1966 -223 0
-1966 -433 0
-1987 -1994 0
-1987 -1133 0
-1987 -223 0
-1987 -433 0
-1994 -1133 0
-1994 -223 0
-1994 -433 0
-1133 -223 0
-1133 -433 0
-223 -433 0
1904 1967 1988 1995 1134 224 434 0
-1904 -1967 0
-1904 -1988 0
-1904 -1995 0
-1904 -1134 0
-1904 -224 0
-1904 -434 0
-1967 -1988 0
-1967 -1995 0
-1967 -1134 0
-1967 -224 0
-1967 -434 0
-1988 -1995 0
-1988 -1134 0
-1988 -224 0
-1988 -434 0
-1995 -1134 0
-1995 -224 0
-1995 -434 0
-1134 -224 0
-1134 -434 0
-224 -434 0
1905 1968 1989 1996 1135 225 435 0
-1905 -1968 0
-1905 -1989 0
-1905 -1996 0
-1905 -1135 0
-1905 -225 0
-1905 -435 0
-1968 -1989 0
-1968 -1996 0
-1968 -1135 0
-1968 -225 0
-1968 -435 0
-1989 -1996 0
-1989 -1135 0
-1989 -225 0
-1989 -435 0
-1996 -1135 0
-1996 -225 0
-1996 -435 0
-1135 -225 0
-1135 -435 0
-225 -435 0
1906 1969 1990 1997 1136 226 436 0
-1906 -1969 0
-1906 -1990 0
-1906 -1997 0
-1906 -1136 0
-1906 -226 0
-1906 -436 0
-1969 -1990 0
-1969 -1997 0
-1969 -1136 0
-1969 -226 0
-1969 -436 0
-1990 -1997 0
-1990 -1136 0
-1990 -226 0
-1990 -436 0
-1997 -1136 0
-1997 -226 0
-1997 -436 0
-1136 -226 0
-1136 -436 0
-226 -436 0
1907 1970 1991 1998 1137 227 437 0
-1907 -1970 0
-1907 -1991 0
-1907 -1998 0
-1907 -1137 0
-1907 -227 0
-1907 -437 0
-1970 -1991 0
-1970 -1998 0
-1970 -1137 0
-1970 -227 0
-1970 -437 0
-1991 -1998 0
-1991 -1137 0
-1991 -227 0
-1991 -437 0
-1998 -1137 0
-1998 -227 0
-1998 -437 0
-1137 -227 0
-1137 -437 0
-227 -437 0
1908 1971 1992 1999 1138 228 438 0
-1908 -1971 0
-1908 -1992 0
-1908 -1999 0
-1908 -1138 0
-1908 -228 0
-1908 -438 0
-1971 -1992 0
-1971 -1999 0
-1971 -1138 0
-1971 -228 0
-1971 -438 0
-1992 -1999 0
-1992 -1138 0
-1992 -228 0
-1992 -438 0
-1999 -1138 0
-1999 -228 0
-1999 -438 0
-1138 -228 0
-1138 -438 0
-228 -438 0
1909 1972 1993 2000 1139 229 439 0
-1909 -1972 0
-1909 -1993 0
-1909 -2000 0
-1909 -1139 0
-1909 -229 0
-1909 -439 0
-1972 -1993 0
-1972 -2000 0
-1972 -1139 0
-1972 -229 0
-1972 -439 0
-1993 -2000 0
-1993 -1139 0
-1993 -229 0
-1993 -439 0
-2000 -1139 0
-2000 -229 0
-2000 -439 0
-1139 -229 0
-1139 -439 0
-229 -439 0
1910 1973 1987 2001 1203 230 440 0
-1910 -1973 0
-1910 -1987 0
-1910 -2001 0
-1910 -1203 0
-1910 -230 0
-1910 -440 0
-1973 -1987 0
-1973 -2001 0
-1973 -1203 0
-1973 -230 0
-1973 -440 0
-1987 -2001 0
-1987 -1203 0
-1987 -230 0
-1987 -440 0
-2001 -1203 0
-2001 -230 0
-2001 -440 0
-1203 -230 0
-1203 -440 0
-230 -440 0
1911 1974 1988 2002 1204 231 441 0
-1911 -1974 0
-1911 -1988 0
-1911 -2002 0
-1911 -1204 0
-1911 -231 0
-1911 -441 0
-1974 -1988 0
-1974 -2002 0
-1974 -1204 0
-1974 -231 0
-1974 -441 0
-1988 -2002 0
-1988 -1204 0
-1988 -231 0
-1988 -441 0
-2002 -1204 0
-2002 -231 0
-2002 -441 0
-1204 -231 0
-1204 -441 0
-231 -441 0
1912 1975 1989 2003 1205 232 442 0
-1912 -1975 0
-1912 -1989 0
-1912 -2003 0
-1912 -1205 0
-1912 -232 0
-1912 -442 0
-1975 -1989 0
-1975 -2003 0
-1975 -1205 0
-1975 -232 0
-1975 -442 0
-1989 -2003 0
-1989 -1205 0
-1989 -232 0
-1989 -442 0
-2003 -1205 0
-2003 -232 0
-2003 -442 0
-1205 -232 0
-1205 -442 0
-232 -442 0
1913 1976 1990 2004 1206 233 443 0
-1913 -1976 0
-1913 -1990 0
-1913 -2004 0
-1913 -1206 0
-1913 -233 0
-1913 -443 0
-1976 -1990 0
-1976 -2004 0
-1976 -1206 0
-1976 -233 0
-1976 -443 0
-1990 -2004 0
-1990 -1206 0
-1990 -233 0
-1990 -443 0
-2004 -1206 0
-2004 -233 0
-2004 -443 0
-1206 -233 0
-1206 -443 0
-233 -443 0
1914 1977 1991 2005 1207 234 444 0
-1914 -1977 0
-1914 -1991 0
-1914 -2005 0
-1914 -1207 0
-1914 -234 0
-1914 -444 0
-1977 -1991 0
-1977 -2005 0
-1977 -1207 0
-1977 -234 0
-1977 -444 0
-1991 -2005 0
-1991 -1207 0
-1991 -234 0
-1991 -444 0
-2005 -1207 0
-2005 -234 0
-2005 -444 0
-1207 -234 0
-1207 -444 0
-234 -444 0
1915 1978 1992 2006 1208 235 445 0
-1915 -1978 0
-1915 -1992 0
-1915 -2006 0
-1915 -1208 0
-1915 -235 0
-1915 -445 0
-1978 -1992 0
-1978 -2006 0
-1978 -1208 0
-1978 -235 0
-1978 -445 0
-1992 -2006 0
-1992 -1208 0
-1992 -235 0
-1992 -445 0
-2006 -1208 0
-2006 -235 0
-2006 -445 0
-1208 -235 0
-1208 -445 0
-235 -445 0
1916 1979 1993 2007 1209 236 446 0
-1916 -1979 0
-1916 -1993 0
-1916 -2007 0
-1916 -1209 0
-1916 -236 0
-1916 -446 0
-1979 -1993 0
-1979 -2007 0
-1979 -1209 0
-1979 -236 0
-1979 -446 0
-1993 -2007 0
-1993 -1209 0
-1993 -236 0
-1993 -446 0
-2007 -1209 0
-2007 -236 0
-2007 -446 0
-1209 -236 0
-1209 -446 0
-236 -446 0
1917 1980 1994 2001 1273 237 447 0
-1917 -1980 0
-1917 -1994 0
-1917 -2001 0
-1917 -1273 0
-1917 -237 0
-1917 -447 0
-1980 -1994 0
-1980 -2001 0
-1980 -1273 0
-1980 -237 0
-1980 -447 0
-1994 -2001 0
-1994 -1273 0
-1994 -237 0
-1994 -447 0
-2001 -1273 0
-2001 -237 0
-2001 -447 0
-1273 -237 0
-1273 -447 0
-237 -447 0
1918 1981 1995 2002 1274 238 448 0
-1918 -1981 0
-1918 -1995 0
-1918 -2002 0
-1918 -1274 0
-1918 -238 0
-1918 -448 0
-1981 -1995 0
-1981 -2002 0
-1981 -1274 0
-1981 -238 0
-1981 -448 0
-1995 -2002 0
-1995 -1274 0
-1995 -238 0
-1995 -448 0
-2002 -1274 0
-2002 -238 0
-2002 -448 0
-1274 -238 0
-1274 -448 0
-238 -448 0
1919 1982 1996 2003 1275 239 449 0
-1919 -1982 0
-1919 -1996 0
-1919 -2003 0
-1919 -1275 0
-1919 -239 0
-1919 -449 0
-1982 -1996 0
-1982 -2003 0
-1982 -1275 0
-1982 -239 0
-1982 -449 0
-1996 -2003 0
-1996 -1275 0
-1996 -239 0
-1996 -449 0
-2003 -1275 0
-2003 -239 0
-2003 -449 0
-1275 -239 0
-1275 -449 0
-239 -449 0
1920 1983 1997 2004 1276 240 450 0
-1920 -1983 0
-1920 -1997 0
-1920 -2004 0
-1920 -1276 0
-1920 -240 0
-1920 -450 0
-1983 -1997 0
-1983 -2004 0
-1983 -1276 0
-1983 -240 0
-1983 -450 0
-1997 -2004 0
-1997 -1276 0
-1997 -240 0
-1997 -450 0
-2004 -1276 0
-2004 -240 0
-2004 -450 0
-1276 -240 0
-1276 -450 0
-240 -450 0
1921 1984 1998 2005 1277 241 451 0
-1921 -1984 0
-1921 -1998 0
-1921 -2005 0
-1921 -1277 0
-1921 -241 0
-1921 -451 0
-1984 -1998 0
-1984 -2005 0
-1984 -1277 0
-1984 -241 0
-1984 -451 0
-1998 -2005 0
-1998 -1277 0
-1998 -241 0
-1998 -451 0
-2005 -1277 0
-2005 -241 0
-2005 -451 0
-1277 -241 0
-1277 -451 0
-241 -451 0
1922 1985 1999 2006 1278 242 452 0
-1922 -1985 0
-1922 -1999 0
-1922 -2006 0
-1922 -1278 0
-1922 -242 0
-1922 -452 0
-1985 -1999 0
-1985 -2006 0
-1985 -1278 0
-1985 -242 0
-1985 -452 0
-1999 -2006 0
-1999 -1278 0
-1999 -242 0
-1999 -452 0
-2006 -1278 0
-2006 -242 0
-2006 -452 0
-1278 -242 0
-1278 -452 0
-242 -452 0
1923 1986 2000 2007 1279 243 453 0
-1923 -1986 0
-1923 -2000 0
-1923 -2007 0
-1923 -1279 0
-1923 -243 0
-1923 -453 0
-1986 -2000 0
-1986 -2007 0
-1986 -1279 0
-1986 -243 0
-1986 -453 0
-2000 -2007 0
-2000 -1279 0
-2000 -243 0
-2000 -453 0
-2007 -1279 0
-2007 -243 0
-2007 -453 0
-1279 -243 0
-1279 -453 0
-243 -453 0
1924 1966 2008 2015 1343 244 454 0
-1924 -1966 0
-1924 -2008 0
-1924 -2015 0
-1924 -1343 0
-1924 -244 0
-1924 -454 0
-1966 -2008 0
-1966 -2015 0
-1966 -1343 0
-1966 -244 0
-1966 -454 0
-2008 -2015 0
-2008 -1343 0
-2008 -244 0
-2008 -454 0
-2015 -1343 0
-2015 -244 0
-2015 -454 0
-1343 -244 0
-1343 -454 0
-244 -454 0
1925 1967 2009 2016 1344 245 455 0
-1925 -1967 0
-1925 -2009 0
-1925 -2016 0
-1925 -1344 0
-1925 -245 0
-1925 -455 0
-1967 -2009 0
-1967 -2016 0
-1967 -1344 0
-1967 -245 0
-1967 -455 0
-2009 -2016 0
-2009 -1344 0
-2009 -245 0
-2009 -455 0
-2016 -1344 0
-2016 -245 0
-2016 -455 0
-1344 -245 0
-1344 -455 0
-245 -455 0
1926 1968 2010 2017 1345 246 456 0
-1926 -1968 0
-1926 -2010 0
-1926 -2017 0
-1926 -1345 0
-1926 -246 0
-1926 -456 0
-1968 -2010 0
-1968 -2017 0
-1968 -1345 0
-1968 -246 0
-1968 -456 0
-2010 -2017 0
-2010 -1345 0
-2010 -246 0
-2010 -456 0
-2017 -1345 0
-2017 -246 0
-2017 -456 0
-1345 -246 0
-1345 -456 0
-246 -456 0
1927 1969 2011 2018 1346 247 457 0
-1927 -1969 0
-1927 -2011 0
-1927 -2018 0
-1927 -1346 0
-1927 -247 0
-1927 -457 0
-1969 -2011 0
-1969 -2018 0
-1969 -1346 0
-1969 -247 0
-1969 -457 0
-2011 -2018 0
-2011 -1346 0
-2011 -247 0
-2011 -457 0
-2018 -1346 0
-2018 -247 0
-2018 -457 0
-1346 -247 0
-1346 -457 0
-247 -457 0
1928 1970 2012 2019 1347 248 458 0
-1928 -1970 0
-1928 -2012 0
-1928 -2019 0
-1928 -1347 0
-1928 -248 0
-1928 -458 0
-1970 -2012 0
-1970 -2019 0
-1970 -1347 0
-1970 -248 0
-1970 -458 0
-2012 -2019 0
-2012 -1347 0
-2012 -248 0
-2012 -458 0
-2019 -1347 0
-2019 -248 0
-2019 -458 0
-1347 -248 0
-1347 -458 0
-248 -458 0
1929 1971 2013 2020 1348 249 459 0
-1929 -1971 0
-1929 -2013 0
-1929 -2020 0
-1929 -1348 0
-1929 -249 0
-1929 -459 0
-1971 -2013 0
-1971 -2020 0
-1971 -1348 0
-1971 -249 0
-1971 -459 0
-2013 -2020 0
-2013 -1348 0
-2013 -249 0
-2013 -459 0
-2020 -1348 0
-2020 -249 0
-2020 -459 0
-1348 -249 0
-1348 -459 0
-249 -459 0
1930 1972 2014 2021 1349 250 460 0
-1930 -1972 0
-1930 -2014 0
-1930 -2021 0
-1930 -1349 0
-1930 -250 0
-1930 -460 0
-1972 -2014 0
-1972 -2021 0
-1972 -1349 0
-1972 -250 0
-1972 -460 0
-2014 -2021 0
-2014 -1349 0
-2014 -250 0
-2014 -460 0
-2021 -1349 0
-2021 -250 0
-2021 -460 0
-1349 -250 0
-1349 -460 0
-250 -460 0
1931 1973 2008 2022 1413 251 461 0
-1931 -1973 0
-1931 -2008 0
-1931 -2022 0
-1931 -1413 0
-1931 -251 0
-1931 -461 0
-1973 -2008 0
-1973 -2022 0
-1973 -1413 0
-1973 -251 0
-1973 -461 0
-2008 -2022 0
-2008 -1413 0
-2008 -251 0
-2008 -461 0
-2022 -1413 0
-2022 -251 0
-2022 -461 0
-1413 -251 0
-1413 -461 0
-251 -461 0
1932 1974 2009 2023 1414 252 462 0
-1932 -1974 0
-1932 -2009 0
-1932 -2023 0
-1932 -1414 0
-1932 -252 0
-1932 -462 0
-1974 -2009 0
-1974 -2023 0
-1974 -1414 0
-1974 -252 0
-1974 -462 0
-2009 -2023 0
-2009 -1414 0
-2009 -252 0
-2009 -462 0
-2023 -1414 0
-2023 -252 0
-2023 -462 0
-1414 -252 0
-1414 -462 0
-252 -462 0
1933 1975 2010 2024 1415 253 463 0
-1933 -1975 0
-1933 -2010 0
-1933 -2024 0
-1933 -1415 0
-1933 -253 0
-1933 -463 0
-1975 -2010 0
-1975 -2024 0
-1975 -1415 0
-1975 -253 0
-1975 -463 0
-2010 -2024 0
-2010 -1415 0
-2010 -253 0
-2010 -463 0
-2024 -1415 0
-2024 -253 0
-2024 -463 0
-1415 -253 0
-1415 -463 0
-253 -463 0
1934 1976 2011 2025 1416 254 464 0
-1934 -1976 0
-1934 -2011 0
-1934 -2025 0
-1934 -1416 0
-1934 -254 0
-1934 -464 0
-1976 -2011 0
-1976 -2025 0
-1976 -1416 0
-1976 -254 0
-1976 -464 0
-2011 -2025 0
-2011 -1416 0
-2011 -254 0
-2011 -464 0
-2025 -1416 0
-2025 -254 0
-2025 -464 0
-1416 -254 0
-1416 -464 0
-254 -464 0
1935 1977 2012 2026 1417 255 465 0
-1935 -1977 0
-1935 -2012 0
-1935 -2026 0
-1935 -1417 0
-1935 -255 0
-1935 -465 0
-1977 -2012 0
-1977 -2026 0
-1977 -1417 0
-1977 -255 0
-1977 -465 0
-2012 -2026 0
-2012 -1417 0
-2012 -255 0
-2012 -465 0
-2026 -1417 0
-2026 -255 0
-2026 -465 0
-1417 -255 0
-1417 -465 0
-255 -465 0
1936 1978 2013 2027 1418 256 466 0
-1936 -1978 0
-1936 -2013 0
-1936 -2027 0
-1936 -1418 0
-1936 -256 0
-1936 -466 0
-1978 -2013 0
-1978 -2027 0
-1978 -1418 0
-1978 -256 0
-1978 -466 0
-2013 -2027 0
-2013 -1418 0
-2013 -256 0
-2013 -466 0
-2027 -1418 0
-2027 -256 0
-2027 -466 0
-1418 -256 0
-1418 -466 0
-256 -466 0
1937 1979 2014 2028 1419 257 467 0
-1937 -1979 0
-1937 -2014 0
-1937 -2028 0
-1937 -1419 0
-1937 -257 0
-1937 -467 0
-1979 -2014 0
-1979 -2028 0
-1979 -1419 0
-1979 -257 0
-1979 -467 0
-2014 -2028 0
-2014 -1419 0
-2014 -257 0
-2014 -467 0
-2028 -1419 0
-2028 -257 0
-2028 -467 0
-1419 -257 0
-1419 -467 0
-257 -467 0
1938 1980 2015 2022 1483 258 468 0
-1938 -1980 0
-1938 -2015 0
-1938 -2022 0
-1938 -1483 0
-1938 -258 0
-1938 -468 0
-1980 -2015 0
-1980 -2022 0
-1980 -1483 0
-1980 -258 0
-1980 -468 0
-2015 -2022 0
-2015 -1483 0
-2015 -258 0
-2015 -468 0
-2022 -1483 0
-2022 -258 0
-2022 -468 0
-1483 -258 0
-1483 -468 0
-258 -468 0
1939 1981 2016 2023 1484 259 469 0
-1939 -1981 0
-1939 -2016 0
-1939 -2023 0
-1939 -1484 0
-1939 -259 0
-1939 -469 0
-1981 -2016 0
-1981 -2023 0
-1981 -1484 0
-1981 -259 0
-1981 -469 0
-2016 -2023 0
-2016 -1484 0
-2016 -259 0
-2016 -469 0
-2023 -1484 0
-2023 -259 0
-2023 -469 0
-1484 -259 0
-1484 -469 0
-259 -469 0
1940 1982 2017 2024 1485 260 470 0
-1940 -1982 0
-1940 -2017 0
-1940 -2024 0
-1940 -1485 0
-1940 -260 0
-1940 -470 0
-1982 -2017 0
-1982 -2024 0
-1982 -1485 0
-1982 -260 0
-1982 -470 0
-2017 -2024 0
-2017 -1485 0
-2017 -260 0
-2017 -470 0
-2024 -1485 0
-2024 -260 0
-2024 -470 0
-1485 -260 0
-1485 -470 0
-260 -470 0
1941 1983 2018 2025 1486 261 471 0
-1941 -1983 0
-1941 -2018 0
-1941 -2025 0
-1941 -1486 0
-1941 -261 0
-1941 -471 0
-1983 -2018 0
-1983 -2025 0
-1983 -1486 0
-1983 -261 0
-1983 -471 0
-2018 -2025 0
-2018 -1486 0
-2018 -261 0
-2018 -471 0
-2025 -1486 0
-2025 -261 0
-2025 -471 0
-1486 -261 0
-1486 -471 0
-261 -471 0
1942 1984 2019 2026 1487 262 472 0
-1942 -1984 0
-1942 -2019 0
-1942 -2026 0
-1942 -1487 0
-1942 -262 0
-1942 -472 0
-1984 -2019 0
-1984 -2026 0
-1984 -1487 0
-1984 -262 0
-1984 -472 0
-2019 -2026 0
-2019 -1487 0
-2019 -262 0
-2019 -472 0
-2026 -1487 0
-2026 -262 0
-2026 -472 0
-1487 -262 0
-1487 -472 0
-262 -472 0
1943 1985 2020 2027 1488 263 473 0
-1943 -1985 0
-1943 -2020 0
-1943 -2027 0
-1943 -1488 0
-1943 -263 0
-1943 -473 0
-1985 -2020 0
-1985 -2027 0
-1985 -1488 0
-1985 -263 0
-1985 -473 0
-2020 -2027 0
-2020 -1488 0
-2020 -263 0
-2020 -473 0
-2027 -1488 0
-2027 -263 0
-2027 -473 0
-1488 -263 0
-1488 -473 0
-263 -473 0
1944 1986 2021 2028 1489 264 474 0
-1944 -1986 0
-1944 -2021 0
-1944 -2028 0
-1944 -1489 0
-1944 -264 0
-1944 -474 0
-1986 -2021 0
-1986 -2028 0
-1986 -1489 0
-1986 -264 0
-1986 -474 0
-2021 -2028 0
-2021 -1489 0
-2021 -264 0
-2021 -474 0
-2028 -1489 0
-2028 -264 0
-2028 -474 0
-1489 -264 0
-1489 -474 0
-264 -474 0
1945 1987 2008 2029 1553 265 475 0
-1945 -1987 0
-1945 -2008 0
-1945 -2029 0
-1945 -1553 0
-1945 -265 0
-1945 -475 0
-1987 -2008 0
-1987 -2029 0
-1987 -1553 0
-1987 -265 0
-1987 -475 0
-2008 -2029 0
-2008 -1553 0
-2008 -265 0
-2008 -475 0
-2029 -1553 0
-2029 -265 0
-2029 -475 0
-1553 -265 0
-1553 -475 0
-265 -475 0
1946 1988 2009 2030 1554 266 476 0
-1946 -1988 0
-1946 -2009 0
-1946 -2030 0
-1946 -1554 0
-1946 -266 0
-1946 -476 0
-1988 -2009 0
-1988 -2030 0
-1988 -1554 0
-1988 -266 0
-1988 -476 0
-2009 -2030 0
-2009 -1554 0
-2009 -266 0
-2009 -476 0
-2030 -1554 0
-2030 -266 0
-2030 -476 0
-1554 -266 0
-1554 -476 0
-266 -476 0
1947 1989 2010 2031 1555 267 477 0
-1947 -1989 0
-1947 -2010 0
-1947 -2031 0
-1947 -1555 0
-1947 -267 0
-1947 -477 0
-1989 -2010 0
-1989 -2031 0
-1989 -1555 0
-1989 -267 0
-1989 -477 0
-2010 -2031 0
-2010 -1555 0
-2010 -267 0
-2010 -477 0
-2031 -1555 0
-2031 -267 0
-2031 -477 0
-1555 -267 0
-1555 -477 0
-267 -477 0
1948 1990 2011 2032 1556 268 478 0
-1948 -1990 0
-1948 -2011 0
-1948 -2032 0
-1948 -1556 0
-1948 -268 0
-1948 -478 0
-1990 -2011 0
-1990 -2032 0
-1990 -1556 0
-1990 -268 0
-1990 -478 0
-2011 -2032 0
-2011 -1556 0
-2011 -268 0
-2011 -478 0
-2032 -1556 0
-2032 -268 0
-2032 -478 0
-1556 -268 0
-1556 -478 0
-268 -478 0
1949 1991 2012 2033 1557 269 479 0
-1949 -1991 0
-1949 -2012 0
-1949 -2033 0
-1949 -1557 0
-1949 -269 0
-1949 -479 0
-1991 -2012 0
-1991 -2033 0
-1991 -1557 0
-1991 -269 0
-1991 -479 0
-2012 -2033 0
-2012 -1557 0
-2012 -269 0
-2012 -479 0
-2033 -1557 0
-2033 -269 0
-2033 -479 0
-1557 -269 0
-1557 -479 0
-269 -479 0
1950 1992 2013 2034 1558 270 480 0
-1950 -1992 0
-1950 -2013 0
-1950 -2034 0
-1950 -1558 0
-1950 -270 0
-1950 -480 0
-1992 -2013 0
-1992 -2034 0
-1992 -1558 0
-1992 -270 0
-1992 -480 0
-2013 -2034 0
-2013 -1558 0
-2013 -270 0
-2013 -480 0
-2034 -1558 0
-2034 -270 0
-2034 -480 0
-1558 -270 0
-1558 -480 0
-270 -480 0
1951 1993 2014 2035 1559 271 481 0
-1951 -1993 0
-1951 -2014 0
-1951 -2035 0
-1951 -1559 0
-1951 -271 0
-1951 -481 0
-1993 -2014 0
-1993 -2035 0
-1993 -1559 0
-1993 -271 0
-1993 -481 0
-2014 -2035 0
-2014 -1559 0
-2014 -271 0
-2014 -481 0
-2035 -1559 0
-2035 -271 0
-2035 -481 0
-1559 -271 0
-1559 -481 0
-271 -481 0
1952 1994 2015 2029 1623 272 482 0
-1952 -1994 0
-1952 -2015 0
-1952 -2029 0
-1952 -1623 0
-1952 -272 0
-1952 -482 0
-1994 -2015 0
-1994 -2029 0
-1994 -1623 0
-1994 -272 0
-1994 -482 0
-2015 -2029 0
-2015 -1623 0
-2015 -272 0
-2015 -482 0
-2029 -1623 0
-2029 -272 0
-2029 -482 0
-1623 -272 0
-1623 -482 0
-272 -482 0
1953 1995 2016 2030 1624 273 483 0
-1953 -1995 0
-1953 -2016 0
-1953 -2030 0
-1953 -1624 0
-1953 -273 0
-1953 -483 0
-1995 -2016 0
-1995 -2030 0
-1995 -1624 0
-1995 -273 0
-1995 -483 0
-2016 -2030 0
-2016 -1624 0
-2016 -273 0
-2016 -483 0
-2030 -1624 0
-2030 -273 0
-2030 -483 0
-1624 -273 0
-1624 -483 0
-273 -483 0
1954 1996 2017 2031 1625 274 484 0
-1954 -1996 0
-1954 -2017 0
-1954 -2031 0
-1954 -1625 0
-1954 -274 0
-1954 -484 0
-1996 -2017 0
-1996 -2031 0
-1996 -1625 0
-1996 -274 0
-1996 -484 0
-2017 -2031 0
-2017 -1625 0
-2017 -274 0
-2017 -484 0
-2031 -1625 0
-2031 -274 0
-2031 -484 0
-1625 -274 0
-1625 -484 0
-274 -484 0
1955 1997 2018 2032 1626 275 485 0
-1955 -1997 0
-1955 -2018 0
-1955 -2032 0
-1955 -1626 0
-1955 -275 0
-1955 -485 0
-1997 -2018 0
-1997 -2032 0
-1997 -1626 0
-1997 -275 0
-1997 -485 0
-2018 -2032 0
-2018 -1626 0
-2018 -275 0
-2018 -485 0
-2032 -1626 0
-2032 -275 0
-2032 -485 0
-1626 -275 0
-1626 -485 0
-275 -485 0
1956 1998 2019 2033 1627 276 486 0
-1956 -1998 0
-1956 -2019 0
-1956 -2033 0
-1956 -1627 0
-1956 -276 0
-1956 -486 0
-1998 -2019 0
-1998 -2033 0
-1998 -1627 0
-1998 -276 0
-1998 -486 0
-2019 -2033 0
-2019 -1627 0
-2019 -276 0
-2019 -486 0
-2033 -1627 0
-2033 -276 0
-2033 -486 0
-1627 -276 0
-1627 -486 0
-276 -486 0
1957 1999 2020 2034 1628 277 487 0
-1957 -1999 0
-1957 -2020 0
-1957 -2034 0
-1957 -1628 0
-1957 -277 0
-1957 -487 0
-1999 -2020 0
-1999 -2034 0
-1999 -1628 0
-1999 -277 0
-1999 -487 0
-2020 -2034 0
-2020 -1628 0
-2020 -277 0
-2020 -487 0
-2034 -1628 0
-2034 -277 0
-2034 -487 0
-1628 -277 0
-1628 -487 0
-277 -487 0
1958 2000 2021 2035 1629 278 488 0
-1958 -2000 0
-1958 -2021 0
-1958 -2035 0
-1958 -1629 0
-1958 -278 0
-1958 -488 0
-2000 -2021 0
-2000 -2035 0
-2000 -1629 0
-2000 -278 0
-2000 -488 0
-2021 -2035 0
-2021 -1629 0
-2021 -278 0
-2021 -488 0
-2035 -1629 0
-2035 -278 0
-2035 -488 0
-1629 -278 0
-1629 -488 0
-278 -488 0
1959 2001 2022 2029 1693 279 489 0
-1959 -2001 0
-1959 -2022 0
-1959 -2029 0
-1959 -1693 0
-1959 -279 0
-1959 -489 0
-2001 -2022 0
-2001 -2029 0
-2001 -1693 0
-2001 -279 0
-2001 -489 0
-2022 -2029 0
-2022 -1693 0
-2022 -279 0
-2022 -489 0
-2029 -1693 0
-2029 -279 0
-2029 -489 0
-1693 -279 0
-1693 -489 0
-279 -489 0
1960 2002 2023 2030 1694 280 490 0
-1960 -2002 0
-1960 -2023 0
-1960 -2030 0
-1960 -1694 0
-1960 -280 0
-1960 -490 0
-2002 -2023 0
-2002 -2030 0
-2002 -1694 0
-2002 -280 0
-2002 -490 0
-2023 -2030 0
-2023 -1694 0
-2023 -280 0
-2023 -490 0
-2030 -1694 0
-2030 -280 0
-2030 -490 0
-1694 -280 0
-1694 -490 0
-280 -490 0
1961 2003 2024 2031 1695 281 491 0
-1961 -2003 0
-1961 -2024 0
-1961 -2031 0
-1961 -1695 0
-1961 -281 0
-1961 -491 0
-2003 -2024 0
-2003 -2031 0
-2003 -1695 0
-2003 -281 0
-2003 -491 0
-2024 -2031 0
-2024 -1695 0
-2024 -281 0
-2024 -491 0
-2031 -1695 0
-2031 -281 0
-2031 -491 0
-1695 -281 0
-1695 -491 0
-281 -491 0
1962 2004 2025 2032 1696 282 492 0
-1962 -2004 0
-1962 -2025 0
-1962 -2032 0
-1962 -1696 0
-1962 -282 0
-1962 -492 0
-2004 -2025 0
-2004 -2032 0
-2004 -1696 0
-2004 -282 0
-2004 -492 0
-2025 -2032 0
-2025 -1696 0
-2025 -282 0
-2025 -492 0
-2032 -1696 0
-2032 -282 0
-2032 -492 0
-1696 -282 0
-1696 -492 0
-282 -492 0
1963 2005 2026 2033 1697 283 493 0
-1963 -2005 0
-1963 -2026 0
-1963 -2033 0
-1963 -1697 0
-1963 -283 0
-1963 -493 0
-2005 -2026 0
-2005 -2033 0
-2005 -1697 0
-2005 -283 0
-2005 -493 0
-2026 -2033 0
-2026 -1697 0
-2026 -283 0
-2026 -493 0
-2033 -1697 0
-2033 -283 0
-2033 -493 0
-1697 -283 0
-1697 -493 0
-283 -493 0
1964 2006 2027 2034 1698 284 494 0
-1964 -2006 0
-1964 -2027 0
-1964 -2034 0
-1964 -1698 0
-1964 -284 0
-1964 -494 0
-2006 -2027 0
-2006 -2034 0
-2006 -1698 0
-2006 -284 0
-2006 -494 0
-2027 -2034 0
-2027 -1698 0
-2027 -284 0
-2027 -494 0
-2034 -1698 0
-2034 -284 0
-2034 -494 0
-1698 -284 0
-1698 -494 0
-284 -494 0
1965 2007 2028 2035 1699 285 495 0
-1965 -2007 0
-1965 -2028 0
-1965 -2035 0
-1965 -1699 0
-1965 -285 0
-1965 -495 0
-2007 -2028 0
-2007 -2035 0
-2007 -1699 0
-2007 -285 0
-2007 -495 0
-2028 -2035 0
-2028 -1699 0
-2028 -285 0
-2028 -495 0
-2035 -1699 0
-2035 -285 0
-2035 -495 0
-1699 -285 0
-1699 -495 0
-285 -495 0
2036 2043 2050 2057 720 181 496 0
-2036 -2043 0
-2036 -2050 0
-2036 -2057 0
-2036 -720 0
-2036 -181 0
-2036 -496 0
-2043 -2050 0
-2043 -2057 0
-2043 -720 0
-2043 -181 0
-2043 -496 0
-2050 -2057 0
-2050 -720 0
-2050 -181 0
-2050 -496 0
-2057 -720 0
-2057 -181 0
-2057 -496 0
-720 -181 0
-720 -496 0
-181 -496 0
2037 2044 2051 2058 721 182 497 0
-2037 -2044 0
-2037 -2051 0
-2037 -2058 0
-2037 -721 0
-2037 -182 0
-2037 -497 0
-2044 -2051 0
-2044 -2058 0
-2044 -721 0
-2044 -182 0
-2044 -497 0
-2051 -2058 0
-2051 -721 0
-2051 -182 0
-2051 -497 0
-2058 -721 0
-2058 -182 0
-2058 -497 0
-721 -182 0
-721 -497 0
-182 -497 0
2038 2045 2052 2059 722 183 498 0
-2038 -2045 0
-2038 -2052 0
-2038 -2059 0
-2038 -722 0
-2038 -183 0
-2038 -498 0
-2045 -2052 0
-2045 -2059 0
-2045 -722 0
-2045 -183 0
-2045 -498 0
-2052 -2059 0
-2052 -722 0
-2052 -183 0
-2052 -498 0
-2059 -722 0
-2059 -183 0
-2059 -498 0
-722 -183 0
-722 -498 0
-183 -498 0
2039 2046 2053 2060 723 184 499 0
-2039 -2046 0
-2039 -2053 0
-2039 -2060 0
-2039 -723 0
-2039 -184 0
-2039 -499 0
-2046 -2053 0
-2046 -2060 0
-2046 -723 0
-2046 -184 0
-2046 -499 0
-2053 -2060 0
-2053 -723 0
-2053 -184 0
-2053 -499 0
-2060 -723 0
-2060 -184 0
-2060 -499 0
-723 -184 0
-723 -499 0
-184 -499 0
2040 2047 2054 2061 724 185 500 0
-2040 -2047 0
-2040 -2054 0
-2040 -2061 0
-2040 -724 0
-2040 -185 0
-2040 -500 0
-2047 -2054 0
-2047 -2061 0
-2047 -724 0
-2047 -185 0
-2047 -500 0
-2054 -2061 0
-2054 -724 0
-2054 -185 0
-2054 -500 0
-2061 -724 0
-2061 -185 0
-2061 -500 0
-724 -185 0
-724 -500 0
-185 -500 0
2041 2048 2055 2062 725 186 501 0
-2041 -2048 0
-2041 -2055 0
-2041 -2062 0
-2041 -725 0
-2041 -186 0
-2041 -501 0
-2048 -2055 0
-2048 -2062 0
-2048 -725 0
-2048 -186 0
-2048 -501 0
-2055 -2062 0
-2055 -725 0
-2055 -186 0
-2055 -501 0
-2062 -725 0
-2062 -186 0
-2062 -501 0
-725 -186 0
-725 -501 0
-186 -501 0
2042 2049 2056 2063 726 187 502 0
-2042 -2049 0
-2042 -2056 0
-2042 -2063 0
-2042 -726 0
-2042 -187 0
-2042 -502 0
-2049 -2056 0
-2049 -2063 0
-2049 -726 0
-2049 -187 0
-2049 -502 0
-2056 -2063 0
-2056 -726 0
-2056 -187 0
-2056 -502 0
-2063 -726 0
-2063 -187 0
-2063 -502 0
-726 -187 0
-726 -502 0
-187 -502 0
2036 2064 2071 2078 790 188 503 0
-2036 -2064 0
-2036 -2071 0
-2036 -2078 0
-2036 -790 0
-2036 -188 0
-2036 -503 0
-2064 -2071 0
-2064 -2078 0
-2064 -790 0
-2064 -188 0
-2064 -503 0
-2071 -2078 0
-2071 -790 0
-2071 -188 0
-2071 -503 0
-2078 -790 0
-2078 -188 0
-2078 -503 0
-790 -188 0
-790 -503 0
-188 -503 0
2037 2065 2072 2079 791 189 504 0
-2037 -2065 0
-2037 -2072 0
-2037 -2079 0
-2037 -791 0
-2037 -189 0
-2037 -504 0
-2065 -2072 0
-2065 -2079 0
-2065 -791 0
-2065 -189 0
-2065 -504 0
-2072 -2079 0
-2072 -791 0
-2072 -189 0
-2072 -504 0
-2079 -791 0
-2079 -189 0
-2079 -504 0
-791 -189 0
-791 -504 0
-189 -504 0
2038 2066 2073 2080 792 190 505 0
-2038 -2066 0
-2038 -2073 0
-2038 -2080 0
-2038 -792 0
-2038 -190 0
-2038 -505 0
-2066 -2073 0
-2066 -2080 0
-2066 -792 0
-2066 -190 0
-2066 -505 0
-2073 -2080 0
-2073 -792 0
-2073 -190 0
-2073 -505 0
-2080 -792 0
-2080 -190 0
-2080 -505 0
-792 -190 0
-792 -505 0
-190 -505 0
2039 2067 2074 2081 793 191 506 0
-2039 -2067 0
-2039 -2074 0
-2039 -2081 0
-2039 -793 0
-2039 -191 0
-2039 -506 0
-2067 -2074 0
-2067 -2081 0
-2067 -793 0
-2067 -191 0
-2067 -506 0
-2074 -2081 0
-2074 -793 0
-2074 -191 0
-2074 -506 0
-2081 -793 0
-2081 -191 0
-2081 -506 0
-793 -191 0
-793 -506 0
-191 -506 0
2040 2068 2075 2082 794 192 507 0
-2040 -2068 0
-2040 -2075 0
-2040 -2082 0
-2040 -794 0
-2040 -192 0
-2040 -507 0
-2068 -2075 0
-2068 -2082 0
-2068 -794 0
-2068 -192 0
-2068 -507 0
-2075 -2082 0
-2075 -794 0
-2075 -192 0
-2075 -507 0
-2082 -794 0
-2082 -192 0
-2082 -507 0
-794 -192 0
-794 -507 0
-192 -507 0
2041 2069 2076 2083 795 193 508 0
-2041 -2069 0
-2041 -2076 0
-2041 -2083 0
-2041 -795 0
-2041 -193 0
-2041 -508 0
-2069 -2076 0
-2069 -2083 0
-2069 -795 0
-2069 -193 0
-2069 -508 0
-2076 -2083 0
-2076 -795 0
-2076 -193 0
-2076 -508 0
-2083 -795 0
-2083 -193 0
-2083 -508 0
-795 -193 0
-795 -508 0
-193 -508 0
2042 2070 2077 2084 796 194 509 0
-2042 -2070 0
-2042 -2077 0
-2042 -2084 0
-2042 -796 0
-2042 -194 0
-2042 -509 0
-2070 -2077 0
-2070 -2084 0
-2070 -796 0
-2070 -194 0
-2070 -509 0
-2077 -2084 0
-2077 -796 0
-2077 -194 0
-2077 -509 0
-2084 -796 0
-2084 -194 0
-2084 -509 0
-796 -194 0
-796 -509 0
-194 -509 0
2043 2064 2085 2092 860 195 510 0
-2043 -2064 0
-2043 -2085 0
-2043 -2092 0
-2043 -860 0
-2043 -195 0
-2043 -510 0
-2064 -2085 0
-2064 -2092 0
-2064 -860 0
-2064 -195 0
-2064 -510 0
-2085 -2092 0
-2085 -860 0
-2085 -195 0
-2085 -510 0
-2092 -860 0
-2092 -195 0
-2092 -510 0
-860 -195 0
-860 -510 0
-195 -510 0
2044 2065 2086 2093 861 196 511 0
-2044 -2065 0
-2044 -2086 0
-2044 -2093 0
-2044 -861 0
-2044 -196 0
-2044 -511 0
-2065 -2086 0
-2065 -2093 0
-2065 -861 0
-2065 -196 0
-2065 -511 0
-2086 -2093 0
-2086 -861 0
-2086 -196 0
-2086 -511 0
-2093 -861 0
-2093 -196 0
-2093 -511 0
-861 -196 0
-861 -511 0
-196 -511 0
2045 2066 2087 2094 862 197 512 0
-2045 -2066 0
-2045 -2087 0
-2045 -2094 0
-2045 -862 0
-2045 -197 0
-2045 -512 0
-2066 -2087 0
-2066 -2094 0
-2066 -862 0
-2066 -197 0
-2066 -512 0
-2087 -2094 0
-2087 -862 0
-2087 -197 0
-2087 -512 0
-2094 -862 0
-2094 -197 0
-2094 -512 0
-862 -197 0
-862 -512 0
-197 -512 0
2046 2067 2088 2095 863 198 513 0
-2046 -2067 0
-2046 -2088 0
-2046 -2095 0
-2046 -863 0
-2046 -198 0
-2046 -513 0
-2067 -2088 0
-2067 -2095 0
-2067 -863 0
-2067 -198 0
-2067 -513 0
-2088 -2095 0
-2088 -863 0
-2088 -198 0
-2088 -513 0
-2095 -863 0
-2095 -198 0
-2095 -513 0
-863 -198 0
-863 -513 0
-198 -513 0
2047 2068 2089 2096 864 199 514 0
-2047 -2068 0
-2047 -2089 0
-2047 -2096 0
-2047 -864 0
-2047 -199 0
-2047 -514 0
-2068 -2089 0
-2068 -2096 0
-2068 -864 0
-2068 -199 0
-2068 -514 0
-2089 -2096 0
-2089 -864 0
-2089 -199 0
-2089 -514 0
-2096 -864 0
-2096 -199 0
-2096 -514 0
-864 -199 0
-864 -514 0
-199 -514 0
2048 2069 2090 2097 865 200 515 0
-2048 -2069 0
-2048 -2090 0
-2048 -2097 0
-2048 -865 0
-2048 -200 0
-2048 -515 0
-2069 -2090 0
-2069 -2097 0
-2069 -865 0
-2069 -200 0
-2069 -515 0
-2090 -2097 0
-2090 -865 0
-2090 -200 0
-2090 -515 0
-2097 -865 0
-2097 -200 0
-2097 -515 0
-865 -200 0
-865 -515 0
-200 -515 0
2049 2070 2091 2098 866 201 516 0
-2049 -2070 0
-2049 -2091 0
-2049 -2098 0
-2049 -866 0
-2049 -201 0
-2049 -516 0
-2070 -2091 0
-2070 -2098 0
-2070 -866 0
-2070 -201 0
-2070 -516 0
-2091 -2098 0
-2091 -866 0
-2091 -201 0
-2091 -516 0
-2098 -866 0
-2098 -201 0
-2098 -516 0
-866 -201 0
-866 -516 0
-201 -516 0
2050 2071 2085 2099 930 202 517 0
-2050 -2071 0
-2050 -2085 0
-2050 -2099 0
-2050 -930 0
-2050 -202 0
-2050 -517 0
-2071 -2085 0
-2071 -2099 0
-2071 -930 0
-2071 -202 0
-2071 -517 0
-2085 -2099 0
-2085 -930 0
-2085 -202 0
-2085 -517 0
-2099 -930 0
-2099 -202 0
-2099 -517 0
-930 -202 0
-930 -517 0
-202 -517 0
2051 2072 2086 2100 931 203 518 0
-2051 -2072 0
-2051 -2086 0
-2051 -2100 0
-2051 -931 0
-2051 -203 0
-2051 -518 0
-2072 -2086 0
-2072 -2100 0
-2072 -931 0
-2072 -203 0
-2072 -518 0
-2086 -2100 0
-2086 -931 0
-2086 -203 0
-2086 -518 0
-2100 -931 0
-2100 -203 0
-2100 -518 0
-931 -203 0
-931 -518 0
-203 -518 0
2052 2073 2087 2101 932 204 519 0
-2052 -2073 0
-2052 -2087 0
-2052 -2101 0
-2052 -932 0
-2052 -204 0
-2052 -519 0
-2073 -2087 0
-2073 -2101 0
-2073 -932 0
-2073 -204 0
-2073 -519 0
-2087 -2101 0
-2087 -932 0
-2087 -204 0
-2087 -519 0
-2101 -932 0
-2101 -204 0
-2101 -519 0
-932 -204 0
-932 -519 0
-204 -519 0
2053 2074 2088 2102 933 205 520 0
-2053 -2074 0
-2053 -2088 0
-2053 -2102 0
-2053 -933 0
-2053 -205 0
-2053 -520 0
-2074 -2088 0
-2074 -2102 0
-2074 -933 0
-2074 -205 0
-2074 -520 0
-2088 -2102 0
-2088 -933 0
-2088 -205 0
-2088 -520 0
-2102 -933 0
-2102 -205 0
-2102 -520 0
-933 -205 0
-933 -520 0
-205 -520 0
2054 2075 2089 2103 934 206 521 0
-2054 -2075 0
-2054 -2089 0
-2054 -2103 0
-2054 -934 0
-2054 -206 0
-2054 -521 0
-2075 -2089 0
-2075 -2103 0
-2075 -934 0
-2075 -206 0
-2075 -521 0
-2089 -2103 0
-2089 -934 0
-2089 -206 0
-2089 -521 0
-2103 -934 0
-2103 -206 0
-2103 -521 0
-934 -206 0
-934 -521 0
-206 -521 0
2055 2076 2090 2104 935 207 522 0
-2055 -2076 0
-2055 -2090 0
-2055 -2104 0
-2055 -935 0
-2055 -207 0
-2055 -522 0
-2076 -2090 0
-2076 -2104 0
-2076 -935 0
-2076 -207 0
-2076 -522 0
-2090 -2104 0
-2090 -935 0
-2090 -207 0
-2090 -522 0
-2104 -935 0
-2104 -207 0
-2104 -522 0
-935 -207 0
-935 -522 0
-207 -522 0
2056 2077 2091 2105 936 208 523 0
-2056 -2077 0
-2056 -2091 0
-2056 -2105 0
-2056 -936 0
-2056 -208 0
-2056 -523 0
-2077 -2091 0
-2077 -2105 0
-2077 -936 0
-2077 -208 0
-2077 -523 0
-2091 -2105 0
-2091 -936 0
-2091 -208 0
-2091 -523 0
-2105 -936 0
-2105 -208 0
-2105 -523 0
-936 -208 0
-936 -523 0
-208 -523 0
2057 2078 2092 2099 1000 209 524 0
-2057 -2078 0
-2057 -2092 0
-2057 -2099 0
-2057 -1000 0
-2057 -209 0
-2057 -524 0
-2078 -2092 0
-2078 -2099 0
-2078 -1000 0
-2078 -209 0
-2078 -524 0
-2092 -2099 0
-2092 -1000 0
-2092 -209 0
-2092 -524 0
-2099 -1000 0
-2099 -209 0
-2099 -524 0
-1000 -209 0
-1000 -524 0
-209 -524 0
2058 2079 2093 2100 1001 210 525 0
-2058 -2079 0
-2058 -2093 0
-2058 -2100 0
-2058 -1001 0
-2058 -210 0
-2058 -525 0
-2079 -2093 0
-2079 -2100 0
-2079 -1001 0
-2079 -210 0
-2079 -525 0
-2093 -2100 0
-2093 -1001 0
-2093 -210 0
-2093 -525 0
-2100 -1001 0
-2100 -210 0
-2100 -525 0
-1001 -210 0
-1001 -525 0
-210 -525 0
2059 2080 2094 2101 1002 211 526 0
-2059 -2080 0
-2059 -2094 0
-2059 -2101 0
-2059 -1002 0
-2059 -211 0
-2059 -526 0
-2080 -2094 0
-2080 -2101 0
-2080 -1002 0
-2080 -211 0
-2080 -526 0
-2094 -2101 0
-2094 -1002 0
-2094 -211 0
-2094 -526 0
-2101 -1002 0
-2101 -211 0
-2101 -526 0
-1002 -211 0
-1002 -526 0
-211 -526 0
2060 2081 2095 2102 1003 212 527 0
-2060 -2081 0
-2060 -2095 0
-2060 -2102 0
-2060 -1003 0
-2060 -212 0
-2060 -527 0
-2081 -2095 0
-2081 -2102 0
-2081 -1003 0
-2081 -212 0
-2081 -527 0
-2095 -2102 0
-2095 -1003 0
-2095 -212 0
-2095 -527 0
-2102 -1003 0
-2102 -212 0
-2102 -527 0
-1003 -212 0
-1003 -527 0
-212 -527 0
2061 2082 2096 2103 1004 213 528 0
-2061 -2082 0
-2061 -2096 0
-2061 -2103 0
-2061 -1004 0
-2061 -213 0
-2061 -528 0
-2082 -2096 0
-2082 -2103 0
-2082 -1004 0
-2082 -213 0
-2082 -528 0
-2096 -2103 0
-2096 -1004 0
-2096 -213 0
-2096 -528 0
-2103 -1004 0
-2103 -213 0
-2103 -528 0
-1004 -213 0
-1004 -528 0
-213 -528 0
2062 2083 2097 2104 1005 214 529 0
-2062 -2083 0
-2062 -2097 0
-2062 -2104 0
-2062 -1005 0
-2062 -214 0
-2062 -529 0
-2083 -2097 0
-2083 -2104 0
-2083 -1005 0
-2083 -214 0
-2083 -529 0
-2097 -2104 0
-2097 -1005 0
-2097 -214 0
-2097 -529 0
-2104 -1005 0
-2104 -214 0
-2104 -529 0
-1005 -214 0
-1005 -529 0
-214 -529 0
2063 2084 2098 2105 1006 215 530 0
-2063 -2084 0
-2063 -2098 0
-2063 -2105 0
-2063 -1006 0
-2063 -215 0
-2063 -530 0
-2084 -2098 0
-2084 -2105 0
-2084 -1006 0
-2084 -215 0
-2084 -530 0
-2098 -2105 0
-2098 -1006 0
-2098 -215 0
-2098 -530 0
-2105 -1006 0
-2105 -215 0
-2105 -530 0
-1006 -215 0
-1006 -530 0
-215 -530 0
2036 2106 2113 2120 1070 216 531 0
-2036 -2106 0
-2036 -2113 0
-2036 -2120 0
-2036 -1070 0
-2036 -216 0
-2036 -531 0
-2106 -2113 0
-2106 -2120 0
-2106 -1070 0
-2106 -216 0
-2106 -531 0
-2113 -2120 0
-2113 -1070 0
-2113 -216 0
-2113 -531 0
-2120 -1070 0
-2120 -216 0
-2120 -531 0
-1070 -216 0
-1070 -531 0
-216 -531 0
2037 2107 2114 2121 1071 217 532 0
-2037 -2107 0
-2037 -2114 0
-2037 -2121 0
-2037 -1071 0
-2037 -217 0
-2037 -532 0
-2107 -2114 0
-2107 -2121 0
-2107 -1071 0
-2107 -217 0
-2107 -532 0
-2114 -2121 0
-2114 -1071 0
-2114 -217 0
-2114 -532 0
-2121 -1071 0
-2121 -217 0
-2121 -532 0
-1071 -217 0
-1071 -532 0
-217 -532 0
2038 2108 2115 2122 1072 218 533 0
-2038 -2108 0
-2038 -2115 0
-2038 -2122 0
-2038 -1072 0
-2038 -218 0
-2038 -533 0
-2108 -2115 0
-2108 -2122 0
-2108 -1072 0
-2108 -218 0
-2108 -533 0
-2115 -2122 0
-2115 -1072 0
-2115 -218 0
-2115 -533 0
-2122 -1072 0
-2122 -218 0
-2122 -533 0
-1072 -218 0
-1072 -533 0
-218 -533 0
2039 2109 2116 2123 1073 219 534 0
-2039 -2109 0
-2039 -2116 0
-2039 -2123 0
-2039 -1073 0
-2039 -219 0
-2039 -534 0
-2109 -2116 0
-2109 -2123 0
-2109 -1073 0
-2109 -219 0
-2109 -534 0
-2116 -2123 0
-2116 -1073 0
-2116 -219 0
-2116 -534 0
-2123 -1073 0
-2123 -219 0
-2123 -534 0
-1073 -219 0
-1073 -534 0
-219 -534 0
2040 2110 2117 2124 1074 220 535 0
-2040 -2110 0
-2040 -2117 0
-2040 -2124 0
-2040 -1074 0
-2040 -220 0
-2040 -535 0
-2110 -2117 0
-2110 -2124 0
-2110 -1074 0
-2110 -220 0
-2110 -535 0
-2117 -2124 0
-2117 -1074 0
-2117 -220 0
-2117 -535 0
-2124 -1074 0
-2124 -220 0
-2124 -535 0
-1074 -220 0
-1074 -535 0
-220 -535 0
2041 2111 2118 2125 1075 221 536 0
-2041 -2111 0
-2041 -2118 0
-2041 -2125 0
-2041 -1075 0
-2041 -221 0
-2041 -536 0
-2111 -2118 0
-2111 -2125 0
-2111 -1075 0
-2111 -221 0
-2111 -536 0
-2118 -2125 0
-2118 -1075 0
-2118 -221 0
-2118 -536 0
-2125 -1075 0
-2125 -221 0
-2125 -536 0
-1075 -221 0
-1075 -536 0
-221 -536 0
2042 2112 2119 2126 1076 222 537 0
-2042 -2112 0
-2042 -2119 0
-2042 -2126 0
-2042 -1076 0
-2042 -222 0
-2042 -537 0
-2112 -2119 0
-2112 -2126 0
-2112 -1076 0
-2112 -222 0
-2112 -537 0
-2119 -2126 0
-2119 -1076 0
-2119 -222 0
-2119 -537 0
-2126 -1076 0
-2126 -222 0
-2126 -537 0
-1076 -222 0
-1076 -537 0
-222 -537 0
2043 2106 2127 2134 1140 223 538 0
-2043 -2106 0
-2043 -2127 0
-2043 -2134 0
-2043 -1140 0
-2043 -223 0
-2043 -538 0
-2106 -2127 0
-2106 -2134 0
-2106 -1140 0
-2106 -223 0
-2106 -538 0
-2127 -2134 0
-2127 -1140 0
-2127 -223 0
-2127 -538 0
-2134 -1140 0
-2134 -223 0
-2134 -538 0
-1140 -223 0
-1140 -538 0
-223 -538 0
2044 2107 2128 2135 1141 224 539 0
-2044 -2107 0
-2044 -2128 0
-2044 -2135 0
-2044 -1141 0
-2044 -224 0
-2044 -539 0
-2107 -2128 0
-2107 -2135 0
-2107 -1141 0
-2107 -224 0
-2107 -539 0
-2128 -2135 0
-2128 -1141 0
-2128 -224 0
-2128 -539 0
-2135 -1141 0
-2135 -224 0
-2135 -539 0
-1141 -224 0
-1141 -539 0
-224 -539 0
2045 2108 2129 2136 1142 225 540 0
-2045 -2108 0
-2045 -2129 0
-2045 -2136 0
-2045 -1142 0
-2045 -225 0
-2045 -540 0
-2108 -2129 0
-2108 -2136 0
-2108 -1142 0
-2108 -225 0
-2108 -540 0
-2129 -2136 0
-2129 -1142 0
-2129 -225 0
-2129 -540 0
-2136 -1142 0
-2136 -225 0
-2136 -540 0
-1142 -225 0
-1142 -540 0
-225 -540 0
2046 2109 2130 2137 1143 226 541 0
-2046 -2109 0
-2046 -2130 0
-2046 -2137 0
-2046 -1143 0
-2046 -226 0
-2046 -541 0
-2109 -2130 0
-2109 -2137 0
-2109 -1143 0
-2109 -226 0
-2109 -541 0
-2130 -2137 0
-2130 -1143 0
-2130 -226 0
-2130 -541 0
-2137 -1143 0
-2137 -226 0
-2137 -541 0
-1143 -226 0
-1143 -541 0
-226 -541 0
2047 2110 2131 2138 1144 227 542 0
-2047 -2110 0
-2047 -2131 0
-2047 -2138 0
-2047 -1144 0
-2047 -227 0
-2047 -542 0
-2110 -2131 0
-2110 -2138 0
-2110 -1144 0
-2110 -227 0
-2110 -542 0
-2131 -2138 0
-2131 -1144 0
-2131 -227 0
-2131 -542 0
-2138 -1144 0
-2138 -227 0
-2138 -542 0
-1144 -227 0
-1144 -542 0
-227 -542 0
2048 2111 2132 2139 1145 228 543 0
-2048 -2111 0
-2048 -2132 0
-2048 -2139 0
-2048 -1145 0
-2048 -228 0
-2048 -543 0
-2111 -2132 0
-2111 -2139 0
-2111 -1145 0
-2111 -228 0
-2111 -543 0
-2132 -2139 0
-2132 -1145 0
-2132 -228 0
-2132 -543 0
-2139 -1145 0
-2139 -228 0
-2139 -543 0
-1145 -228 0
-1145 -543 0
-228 -543 0
2049 2112 2133 2140 1146 229 544 0
-2049 -2112 0
-2049 -2133 0
-2049 -2140 0
-2049 -1146 0
-2049 -229 0
-2049 -544 0
-2112 -2133 0
-2112 -2140 0
-2112 -1146 0
-2112 -229 0
-2112 -544 0
-2133 -2140 0
-2133 -1146 0
-2133 -229 0
-2133 -544 0
-2140 -1146 0
-2140 -229 0
-2140 -544 0
-1146 -229 0
-1146 -544 0
-229 -544 0
2050 2113 2127 2141 1210 230 545 0
-2050 -2113 0
-2050 -2127 0
-2050 -2141 0
-2050 -1210 0
-2050 -230 0
-2050 -545 0
-2113 -2127 0
-2113 -2141 0
-2113 -1210 0
-2113 -230 0
-2113 -545 0
-2127 -2141 0
-2127 -1210 0
-2127 -230 0
-2127 -545 0
-2141 -1210 0
-2141 -230 0
-2141 -545 0
-1210 -230 0
-1210 -545 0
-230 -545 0
2051 2114 2128 2142 1211 231 546 0
-2051 -2114 0
-2051 -2128 0
-2051 -2142 0
-2051 -1211 0
-2051 -231 0
-2051 -546 0
-2114 -2128 0
-2114 -2142 0
-2114 -1211 0
-2114 -231 0
-2114 -546 0
-2128 -2142 0
-2128 -1211 0
-2128 -231 0
-2128 -546 0
-2142 -1211 0
-2142 -231 0
-2142 -546 0
-1211 -231 0
-1211 -546 0
-231 -546 0
2052 2115 2129 2143 1212 232 547 0
-2052 -2115 0
-2052 -2129 0
-2052 -2143 0
-2052 -1212 0
-2052 -232 0
-2052 -547 0
-2115 -2129 0
-2115 -2143 0
-2115 -1212 0
-2115 -232 0
-2115 -547 0
-2129 -2143 0
-2129 -1212 0
-2129 -232 0
-2129 -547 0
-2143 -1212 0
-2143 -232 0
-2143 -547 0
-1212 -232 0
-1212 -547 0
-232 -547 0
2053 2116 2130 2144 1213 233 548 0
-2053 -2116 0
-2053 -2130 0
-2053 -2144 0
-2053 -1213 0
-2053 -233 0
-2053 -548 0
-2116 -2130 0
-2116 -2144 0
-2116 -1213 0
-2116 -233 0
-2116 -548 0
-2130 -2144 0
-2130 -1213 0
-2130 -233 0
-2130 -548 0
-2144 -1213 0
-2144 -233 0
-2144 -548 0
-1213 -233 0
-1213 -548 0
-233 -548 0
2054 2117 2131 2145 1214 234 549 0
-2054 -2117 0
-2054 -2131 0
-2054 -2145 0
-2054 -1214 0
-2054 -234 0
-2054 -549 0
-2117 -2131 0
-2117 -2145 0
-2117 -1214 0
-2117 -234 0
-2117 -549 0
-2131 -2145 0
-2131 -1214 0
-2131 -234 0
-2131 -549 0
-2145 -1214 0
-2145 -234 0
-2145 -549 0
-1214 -234 0
-1214 -549 0
-234 -549 0
2055 2118 2132 2146 1215 235 550 0
-2055 -2118 0
-2055 -2132 0
-2055 -2146 0
-2055 -1215 0
-2055 -235 0
-2055 -550 0
-2118 -2132 0
-2118 -2146 0
-2118 -1215 0
-2118 -235 0
-2118 -550 0
-2132 -2146 0
-2132 -1215 0
-2132 -235 0
-2132 -550 0
-2146 -1215 0
-2146 -235 0
-2146 -550 0
-1215 -235 0
-1215 -550 0
-235 -550 0
2056 2119 2133 2147 1216 236 551 0
-2056 -2119 0
-2056 -2133 0
-2056 -2147 0
-2056 -1216 0
-2056 -236 0
-2056 -551 0
-2119 -2133 0
-2119 -2147 0
-2119 -1216 0
-2119 -236 0
-2119 -551 0
-2133 -2147 0
-2133 -1216 0
-2133 -236 0
-2133 -551 0
-2147 -1216 0
-2147 -236 0
-2147 -551 0
-1216 -236 0
-1216 -551 0
-236 -551 0
2057 2120 2134 2141 1280 237 552 0
-2057 -2120 0
-2057 -2134 0
-2057 -2141 0
-2057 -1280 0
-2057 -237 0
-2057 -552 0
-2120 -2134 0
-2120 -2141 0
-2120 -1280 0
-2120 -237 0
-2120 -552 0
-2134 -2141 0
-2134 -1280 0
-2134 -237 0
-2134 -552 0
-2141 -1280 0
-2141 -237 0
-2141 -552 0
-1280 -237 0
-1280 -552 0
-237 -552 0
2058 2121 2135 2142 1281 238 553 0
-2058 -2121 0
-2058 -2135 0
-2058 -2142 0
-2058 -1281 0
-2058 -238 0
-2058 -553 0
-2121 -2135 0
-2121 -2142 0
-2121 -1281 0
-2121 -238 0
-2121 -553 0
-2135 -2142 0
-2135 -1281 0
-2135 -238 0
-2135 -553 0
-2142 -1281 0
-2142 -238 0
-2142 -553 0
-1281 -238 0
-1281 -553 0
-238 -553 0
2059 2122 2136 2143 1282 239 554 0
-2059 -2122 0
-2059 -2136 0
-2059 -2143 0
-2059 -1282 0
-2059 -239 0
-2059 -554 0
-2122 -2136 0
-2122 -2143 0
-2122 -1282 0
-2122 -239 0
-2122 -554 0
-2136 -2143 0
-2136 -1282 0
-2136 -239 0
-2136 -554 0
-2143 -1282 0
-2143 -239 0
-2143 -554 0
-1282 -239 0
-1282 -554 0
-239 -554 0
2060 2123 2137 2144 1283 240 555 0
-2060 -2123 0
-2060 -2137 0
-2060 -2144 0
-2060 -1283 0
-2060 -240 0
-2060 -555 0
-2123 -2137 0
-2123 -2144 0
-2123 -1283 0
-2123 -240 0
-2123 -555 0
-2137 -2144 0
-2137 -1283 0
-2137 -240 0
-2137 -555 0
-2144 -1283 0
-2144 -240 0
-2144 -555 0
-1283 -240 0
-1283 -555 0
-240 -555 0
2061 2124 2138 2145 1284 241 556 0
-2061 -2124 0
-2061 -2138 0
-2061 -2145 0
-2061 -1284 0
-2061 -241 0
-2061 -556 0
-2124 -2138 0
-2124 -2145 0
-2124 -1284 0
-2124 -241 0
-2124 -556 0
-2138 -2145 0
-2138 -1284 0
-2138 -241 0
-2138 -556 0
-2145 -1284 0
-2145 -241 0
-2145 -556 0
-1284 -241 0
-1284 -556 0
-241 -556 0
2062 2125 2139 2146 1285 242 557 0
-2062 -2125 0
-2062 -2139 0
-2062 -2146 0
-2062 -1285 0
-2062 -242 0
-2062 -557 0
-2125 -2139 0
-2125 -2146 0
-2125 -1285 0
-2125 -242 0
-2125 -557 0
-2139 -2146 0
-2139 -1285 0
-2139 -242 0
-2139 -557 0
-2146 -1285 0
-2146 -242 0
-2146 -557 0
-1285 -242 0
-1285 -557 0
-242 -557 0
2063 2126 2140 2147 1286 243 558 0
-2063 -2126 0
-2063 -2140 0
-2063 -2147 0
-2063 -1286 0
-2063 -243 0
-2063 -558 0
-2126 -2140 0
-2126 -2147 0
-2126 -1286 0
-2126 -243 0
-2126 -558 0
-2140 -2147 0
-2140 -1286 0
-2140 -243 0
-2140 -558 0
-2147 -1286 0
-2147 -243 0
-2147 -558 0
-1286 -243 0
-1286 -558 0
-243 -558 0
2064 2106 2148 2155 1350 244 559 0
-2064 -2106 0
-2064 -2148 0
-2064 -2155 0
-2064 -1350 0
-2064 -244 0
-2064 -559 0
-2106 -2148 0
-2106 -2155 0
-2106 -1350 0
-2106 -244 0
-2106 -559 0
-2148 -2155 0
-2148 -1350 0
-2148 -244 0
-2148 -559 0
-2155 -1350 0
-2155 -244 0
-2155 -559 0
-1350 -244 0
-1350 -559 0
-244 -559 0
2065 2107 2149 2156 1351 245 560 0
-2065 -2107 0
-2065 -2149 0
-2065 -2156 0
-2065 -1351 0
-2065 -245 0
-2065 -560 0
-2107 -2149 0
-2107 -2156 0
-2107 -1351 0
-2107 -245 0
-2107 -560 0
-2149 -2156 0
-2149 -1351 0
-2149 -245 0
-2149 -560 0
-2156 -1351 0
-2156 -245 0
-2156 -560 0
-1351 -245 0
-1351 -560 0
-245 -560 0
2066 2108 2150 2157 1352 246 561 0
-2066 -2108 0
-2066 -2150 0
-2066 -2157 0
-2066 -1352 0
-2066 -246 0
-2066 -561 0
-2108 -2150 0
-2108 -2157 0
-2108 -1352 0
-2108 -246 0
-2108 -561 0
-2150 -2157 0
-2150 -1352 0
-2150 -246 0
-2150 -561 0
-2157 -1352 0
-2157 -246 0
-2157 -561 0
-1352 -246 0
-1352 -561 0
-246 -561 0
2067 2109 2151 2158 1353 247 562 0
-2067 -2109 0
-2067 -2151 0
-2067 -2158 0
-2067 -1353 0
-2067 -247 0
-2067 -562 0
-2109 -2151 0
-2109 -2158 0
-2109 -1353 0
-2109 -247 0
-2109 -562 0
-2151 -2158 0
-2151 -1353 0
-2151 -247 0
-2151 -562 0
-2158 -1353 0
-2158 -247 0
-2158 -562 0
-1353 -247 0
-1353 -562 0
-247 -562 0
2068 2110 2152 2159 1354 248 563 0
-2068 -2110 0
-2068 -2152 0
-2068 -2159 0
-2068 -1354 0
-2068 -248 0
-2068 -563 0
-2110 -2152 0
-2110 -2159 0
-2110 -1354 0
-2110 -248 0
-2110 -563 0
-2152 -2159 0
-2152 -1354 0
-2152 -248 0
-2152 -563 0
-2159 -1354 0
-2159 -248 0
-2159 -563 0
-1354 -248 0
-1354 -563 0
-248 -563 0
2069 2111 2153 2160 1355 249 564 0
-2069 -2111 0
-2069 -2153 0
-2069 -2160 0
-2069 -1355 0
-2069 -249 0
-2069 -564 0
-2111 -2153 0
-2111 -2160 0
-2111 -1355 0
-2111 -249 0
-2111 -564 0
-2153 -2160 0
-2153 -1355 0
-2153 -249 0
-2153 -564 0
-2160 -1355 0
-2160 -249 0
-2160 -564 0
-1355 -249 0
-1355 -564 0
-249 -564 0
2070 2112 2154 2161 1356 250 565 0
-2070 -2112 0
-2070 -2154 0
-2070 -2161 0
-2070 -1356 0
-2070 -250 0
-2070 -565 0
-2112 -2154 0
-2112 -2161 0
-2112 -1356 0
-2112 -250 0
-2112 -565 0
-2154 -2161 0
-2154 -1356 0
-2154 -250 0
-2154 -565 0
-2161 -1356 0
-2161 -250 0
-2161 -565 0
-1356 -250 0
-1356 -565 0
-250 -565 0
2071 2113 2148 2162 1420 251 566 0
-2071 -2113 0
-2071 -2148 0
-2071 -2162 0
-2071 -1420 0
-2071 -251 0
-2071 -566 0
-2113 -2148 0
-2113 -2162 0
-2113 -1420 0
-2113 -251 0
-2113 -566 0
-2148 -2162 0
-2148 -1420 0
-2148 -251 0
-2148 -566 0
-2162 -1420 0
-2162 -251 0
-2162 -566 0
-1420 -251 0
-1420 -566 0
-251 -566 0
2072 2114 2149 2163 1421 252 567 0
-2072 -2114 0
-2072 -2149 0
-2072 -2163 0
-2072 -1421 0
-2072 -252 0
-2072 -567 0
-2114 -2149 0
-2114 -2163 0
-2114 -1421 0
-2114 -252 0
-2114 -567 0
-2149 -2163 0
-2149 -1421 0
-2149 -252 0
-2149 -567 0
-2163 -1421 0
-2163 -252 0
-2163 -567 0
-1421 -252 0
-1421 -567 0
-252 -567 0
2073 2115 2150 2164 1422 253 568 0
-2073 -2115 0
-2073 -2150 0
-2073 -2164 0
-2073 -1422 0
-2073 -253 0
-2073 -568 0
-2115 -2150 0
-2115 -2164 0
-2115 -1422 0
-2115 -253 0
-2115 -568 0
-2150 -2164 0
-2150 -1422 0
-2150 -253 0
-2150 -568 0
-2164 -1422 0
-2164 -253 0
-2164 -568 0
-1422 -253 0
-1422 -568 0
-253 -568 0
2074 2116 2151 2165 1423 254 569 0
-2074 -2116 0
-2074 -2151 0
-2074 -2165 0
-2074 -1423 0
-2074 -254 0
-2074 -569 0
-2116 -2151 0
-2116 -2165 0
-2116 -1423 0
-2116 -254 0
-2116 -569 0
-2151 -2165 0
-2151 -1423 0
-2151 -254 0
-2151 -569 0
-2165 -1423 0
-2165 -254 0
-2165 -569 0
-1423 -254 0
-1423 -569 0
-254 -569 0
2075 2117 2152 2166 1424 255 570 0
-2075 -2117 0
-2075 -2152 0
-2075 -2166 0
-2075 -1424 0
-2075 -255 0
-2075 -570 0
-2117 -2152 0
-2117 -2166 0
-2117 -1424 0
-2117 -255 0
-2117 -570 0
-2152 -2166 0
-2152 -1424 0
-2152 -255 0
-2152 -570 0
-2166 -1424 0
-2166 -255 0
-2166 -570 0
-1424 -255 0
-1424 -570 0
-255 -570 0
2076 2118 2153 2167 1425 256 571 0
-2076 -2118 0
-2076 -2153 0
-2076 -2167 0
-2076 -1425 0
-2076 -256 0
-2076 -571 0
-2118 -2153 0
-2118 -2167 0
-2118 -1425 0
-2118 -256 0
-2118 -571 0
-2153 -2167 0
-2153 -1425 0
-2153 -256 0
-2153 -571 0
-2167 -1425 0
-2167 -256 0
-2167 -571 0
-1425 -256 0
-1425 -571 0
-256 -571 0
2077 2119 2154 2168 1426 257 572 0
-2077 -2119 0
-2077 -2154 0
-2077 -2168 0
-2077 -1426 0
-2077 -257 0
-2077 -572 0
-2119 -2154 0
-2119 -2168 0
-2119 -1426 0
-2119 -257 0
-2119 -572 0
-2154 -2168 0
-2154 -1426 0
-2154 -257 0
-2154 -572 0
-2168 -1426 0
-2168 -257 0
-2168 -572 0
-1426 -257 0
-1426 -572 0
-257 -572 0
2078 2120 2155 2162 1490 258 573 0
-2078 -2120 0
-2078 -2155 0
-2078 -2162 0
-2078 -1490 0
-2078 -258 0
-2078 -573 0
-2120 -2155 0
-2120 -2162 0
-2120 -1490 0
-2120 -258 0
-2120 -573 0
-2155 -2162 0
-2155 -1490 0
-2155 -258 0
-2155 -573 0
-2162 -1490 0
-2162 -258 0
-2162 -573 0
-1490 -258 0
-1490 -573 0
-258 -573 0
2079 2121 2156 2163 1491 259 574 0
-2079 -2121 0
-2079 -2156 0
-2079 -2163 0
-2079 -1491 0
-2079 -259 0
-2079 -574 0
-2121 -2156 0
-2121 -2163 0
-2121 -1491 0
-2121 -259 0
-2121 -574 0
-2156 -2163 0
-2156 -1491 0
-2156 -259 0
-2156 -574 0
-2163 -1491 0
-2163 -259 0
-2163 -574 0
-1491 -259 0
-1491 -574 0
-259 -574 0
2080 2122 2157 2164 1492 260 575 0
-2080 -2122 0
-2080 -2157 0
-2080 -2164 0
-2080 -1492 0
-2080 -260 0
-2080 -575 0
-2122 -2157 0
-2122 -2164 0
-2122 -1492 0
-2122 -260 0
-2122 -575 0
-2157 -2164 0
-2157 -1492 0
-2157 -260 0
-2157 -575 0
-2164 -1492 0
-2164 -260 0
-2164 -575 0
-1492 -260 0
-1492 -575 0
-260 -575 0
2081 2123 2158 2165 1493 261 576 0
-2081 -2123 0
-2081 -2158 0
-2081 -2165 0
-2081 -1493 0
-2081 -261 0
-2081 -576 0
-2123 -2158 0
-2123 -2165 0
-2123 -1493 0
-2123 -261 0
-2123 -576 0
-2158 -2165 0
-2158 -1493 0
-2158 -261 0
-2158 -576 0
-2165 -1493 0
-2165 -261 0
-2165 -576 0
-1493 -261 0
-1493 -576 0
-261 -576 0
2082 2124 2159 2166 1494 262 577 0
-2082 -2124 0
-2082 -2159 0
-2082 -2166 0
-2082 -1494 0
-2082 -262 0
-2082 -577 0
-2124 -2159 0
-2124 -2166 0
-2124 -1494 0
-2124 -262 0
-2124 -577 0
-2159 -2166 0
-2159 -1494 0
-2159 -262 0
-2159 -577 0
-2166 -1494 0
-2166 -262 0
-2166 -577 0
-1494 -262 0
-1494 -577 0
-262 -577 0
2083 2125 2160 2167 1495 263 578 0
-2083 -2125 0
-2083 -2160 0
-2083 -2167 0
-2083 -1495 0
-2083 -263 0
-2083 -578 0
-2125 -2160 0
-2125 -2167 0
-2125 -1495 0
-2125 -263 0
-2125 -578 0
-2160 -2167 0
-2160 -1495 0
-2160 -263 0
-2160 -578 0
-2167 -1495 0
-2167 -263 0
-2167 -578 0
-1495 -263 0
-1495 -578 0
-263 -578 0
2084 2126 2161 2168 1496 264 579 0
-2084 -2126 0
-2084 -2161 0
-2084 -2168 0
-2084 -1496 0
-2084 -264 0
-2084 -579 0
-2126 -2161 0
-2126 -2168 0
-2126 -1496 0
-2126 -264 0
-2126 -579 0
-2161 -2168 0
-2161 -1496 0
-2161 -264 0
-2161 -579 0
-2168 -1496 0
-2168 -264 0
-2168 -579 0
-1496 -264 0
-1496 -579 0
-264 -579 0
2085 2127 2148 2169 1560 265 580 0
-2085 -2127 0
-2085 -2148 0
-2085 -2169 0
-2085 -1560 0
-2085 -265 0
-2085 -580 0
-2127 -2148 0
-2127 -2169 0
-2127 -1560 0
-2127 -265 0
-2127 -580 0
-2148 -2169 0
-2148 -1560 0
-2148 -265 0
-2148 -580 0
-2169 -1560 0
-2169 -265 0
-2169 -580 0
-1560 -265 0
-1560 -580 0
-265 -580 0
2086 2128 2149 2170 1561 266 581 0
-2086 -2128 0
-2086 -2149 0
-2086 -2170 0
-2086 -1561 0
-2086 -266 0
-2086 -581 0
-2128 -2149 0
-2128 -2170 0
-2128 -1561 0
-2128 -266 0
-2128 -581 0
-2149 -2170 0
-2149 -1561 0
-2149 -266 0
-2149 -581 0
-2170 -1561 0
-2170 -266 0
-2170 -581 0
-1561 -266 0
-1561 -581 0
-266 -581 0
2087 2129 2150 2171 1562 267 582 0
-2087 -2129 0
-2087 -2150 0
-2087 -2171 0
-2087 -1562 0
-2087 -267 0
-2087 -582 0
-2129 -2150 0
-2129 -2171 0
-2129 -1562 0
-2129 -267 0
-2129 -582 0
-2150 -2171 0
-2150 -1562 0
-2150 -267 0
-2150 -582 0
-2171 -1562 0
-2171 -267 0
-2171 -582 0
-1562 -267 0
-1562 -582 0
-267 -582 0
2088 2130 2151 2172 1563 268 583 0
-2088 -2130 0
-2088 -2151 0
-2088 -2172 0
-2088 -1563 0
-2088 -268 0
-2088 -583 0
-2130 -2151 0
-2130 -2172 0
-2130 -1563 0
-2130 -268 0
-2130 -583 0
-2151 -2172 0
-2151 -1563 0
-2151 -268 0
-2151 -583 0
-2172 -1563 0
-2172 -268 0
-2172 -583 0
-1563 -268 0
-1563 -583 0
-268 -583 0
2089 2131 2152 2173 1564 269 584 0
-2089 -2131 0
-2089 -2152 0
-2089 -2173 0
-2089 -1564 0
-2089 -269 0
-2089 -584 0
-2131 -2152 0
-2131 -2173 0
-2131 -1564 0
-2131 -269 0
-2131 -584 0
-2152 -2173 0
-2152 -1564 0
-2152 -269 0
-2152 -584 0
-2173 -1564 0
-2173 -269 0
-2173 -584 0
-1564 -269 0
-1564 -584 0
-269 -584 0
2090 2132 2153 2174 1565 270 585 0
-2090 -2132 0
-2090 -2153 0
-2090 -2174 0
-2090 -1565 0
-2090 -270 0
-2090 -585 0
-2132 -2153 0
-2132 -2174 0
-2132 -1565 0
-2132 -270 0
-2132 -585 0
-2153 -2174 0
-2153 -1565 0
-2153 -270 0
-2153 -585 0
-2174 -1565 0
-2174 -270 0
-2174 -585 0
-1565 -270 0
-1565 -585 0
-270 -585 0
2091 2133 2154 2175 1566 271 586 0
-2091 -2133 0
-2091 -2154 0
-2091 -2175 0
-2091 -1566 0
-2091 -271 0
-2091 -586 0
-2133 -2154 0
-2133 -2175 0
-2133 -1566 0
-2133 -271 0
-2133 -586 0
-2154 -2175 0
-2154 -1566 0
-2154 -271 0
-2154 -586 0
-2175 -1566 0
-2175 -271 0
-2175 -586 0
-1566 -271 0
-1566 -586 0
-271 -586 0
2092 2134 2155 2169 1630 272 587 0
-2092 -2134 0
-2092 -2155 0
-2092 -2169 0
-2092 -1630 0
-2092 -272 0
-2092 -587 0
-2134 -2155 0
-2134 -2169 0
-2134 -1630 0
-2134 -272 0
-2134 -587 0
-2155 -2169 0
-2155 -1630 0
-2155 -272 0
-2155 -587 0
-2169 -1630 0
-2169 -272 0
-2169 -587 0
-1630 -272 0
-1630 -587 0
-272 -587 0
2093 2135 2156 2170 1631 273 588 0
-2093 -2135 0
-2093 -2156 0
-2093 -2170 0
-2093 -1631 0
-2093 -273 0
-2093 -588 0
-2135 -2156 0
-2135 -2170 0
-2135 -1631 0
-2135 -273 0
-2135 -588 0
-2156 -2170 0
-2156 -1631 0
-2156 -273 0
-2156 -588 0
-2170 -1631 0
-2170 -273 0
-2170 -588 0
-1631 -273 0
-1631 -588 0
-273 -588 0
2094 2136 2157 2171 1632 274 589 0
-2094 -2136 0
-2094 -2157 0
-2094 -2171 0
-2094 -1632 0
-2094 -274 0
-2094 -589 0
-2136 -2157 0
-2136 -2171 0
-2136 -1632 0
-2136 -274 0
-2136 -589 0
-2157 -2171 0
-2157 -1632 0
-2157 -274 0
-2157 -589 0
-2171 -1632 0
-2171 -274 0
-2171 -589 0
-1632 -274 0
-1632 -589 0
-274 -589 0
2095 2137 2158 2172 1633 275 590 0
-2095 -2137 0
-2095 -2158 0
-2095 -2172 0
-2095 -1633 0
-2095 -275 0
-2095 -590 0
-2137 -2158 0
-2137 -2172 0
-2137 -1633 0
-2137 -275 0
-2137 -590 0
-2158 -2172 0
-2158 -1633 0
-2158 -275 0
-2158 -590 0
-2172 -1633 0
-2172 -275 0
-2172 -590 0
-1633 -275 0
-1633 -590 0
-275 -590 0
2096 2138 2159 2173 1634 276 591 0
-2096 -2138 0
-2096 -2159 0
-2096 -2173 0
-2096 -1634 0
-2096 -276 0
-2096 -591 0
-2138 -2159 0
-2138 -2173 0
-2138 -1634 0
-2138 -276 0
-2138 -591 0
-2159 -2173 0
-2159 -1634 0
-2159 -276 0
-2159 -591 0
-2173 -1634 0
-2173 -276 0
-2173 -591 0
-1634 -276 0
-1634 -591 0
-276 -591 0
2097 2139 2160 2174 1635 277 592 0
-2097 -2139 0
-2097 -2160 0
-2097 -2174 0
-2097 -1635 0
-2097 -277 0
-2097 -592 0
-2139 -2160 0
-2139 -2174 0
-2139 -1635 0
-2139 -277 0
-2139 -592 0
-2160 -2174 0
-2160 -1635 0
-2160 -277 0
-2160 -592 0
-2174 -1635 0
-2174 -277 0
-2174 -592 0
-1635 -277 0
-1635 -592 0
-277 -592 0
2098 2140 2161 2175 1636 278 593 0
-2098 -2140 0
-2098 -2161 0
-2098 -2175 0
-2098 -1636 0
-2098 -278 0
-2098 -593 0
-2140 -2161 0
-2140 -2175 0
-2140 -1636 0
-2140 -278 0
-2140 -593 0
-2161 -2175 0
-2161 -1636 0
-2161 -278 0
-2161 -593 0
-2175 -1636 0
-2175 -278 0
-2175 -593 0
-1636 -278 0
-1636 -593 0
-278 -593 0
2099 2141 2162 2169 1700 279 594 0
-2099 -2141 0
-2099 -2162 0
-2099 -2169 0
-2099 -1700 0
-2099 -279 0
-2099 -594 0
-2141 -2162 0
-2141 -2169 0
-2141 -1700 0
-2141 -279 0
-2141 -594 0
-2162 -2169 0
-2162 -1700 0
-2162 -279 0
-2162 -594 0
-2169 -1700 0
-2169 -279 0
-2169 -594 0
-1700 -279 0
-1700 -594 0
-279 -594 0
2100 2142 2163 2170 1701 280 595 0
-2100 -2142 0
-2100 -2163 0
-2100 -2170 0
-2100 -1701 0
-2100 -280 0
-2100 -595 0
-2142 -2163 0
-2142 -2170 0
-2142 -1701 0
-2142 -280 0
-2142 -595 0
-2163 -2170 0
-2163 -1701 0
-2163 -280 0
-2163 -595 0
-2170 -1701 0
-2170 -280 0
-2170 -595 0
-1701 -280 0
-1701 -595 0
-280 -595 0
2101 2143 2164 2171 1702 281 596 0
-2101 -2143 0
-2101 -2164 0
-2101 -2171 0
-2101 -1702 0
-2101 -281 0
-2101 -596 0
-2143 -2164 0
-2143 -2171 0
-2143 -1702 0
-2143 -281 0
-2143 -596 0
-2164 -2171 0
-2164 -1702 0
-2164 -281 0
-2164 -596 0
-2171 -1702 0
-2171 -281 0
-2171 -596 0
-1702 -281 0
-1702 -596 0
-281 -596 0
2102 2144 2165 2172 1703 282 597 0
-2102 -2144 0
-2102 -2165 0
-2102 -2172 0
-2102 -1703 0
-2102 -282 0
-2102 -597 0
-2144 -2165 0
-2144 -2172 0
-2144 -1703 0
-2144 -282 0
-2144 -597 0
-2165 -2172 0
-2165 -1703 0
-2165 -282 0
-2165 -597 0
-2172 -1703 0
-2172 -282 0
-2172 -597 0
-1703 -282 0
-1703 -597 0
-282 -597 0
2103 2145 2166 2173 1704 283 598 0
-2103 -2145 0
-2103 -2166 0
-2103 -2173 0
-2103 -1704 0
-2103 -283 0
-2103 -598 0
-2145 -2166 0
-2145 -2173 0
-2145 -1704 0
-2145 -283 0
-2145 -598 0
-2166 -2173 0
-2166 -1704 0
-2166 -283 0
-2166 -598 0
-2173 -1704 0
-2173 -283 0
-2173 -598 0
-1704 -283 0
-1704 -598 0
-283 -598 0
2104 2146 2167 2174 1705 284 599 0
-2104 -2146 0
-2104 -2167 0
-2104 -2174 0
-2104 -1705 0
-2104 -284 0
-2104 -599 0
-2146 -2167 0
-2146 -2174 0
-2146 -1705 0
-2146 -284 0
-2146 -599 0
-2167 -2174 0
-2167 -1705 0
-2167 -284 0
-2167 -599 0
-2174 -1705 0
-2174 -284 0
-2174 -599 0
-1705 -284 0
-1705 -599 0
-284 -599 0
2105 2147 2168 2175 1706 285 600 0
-2105 -2147 0
-2105 -2168 0
-2105 -2175 0
-2105 -1706 0
-2105 -285 0
-2105 -600 0
-2147 -2168 0
-2147 -2175 0
-2147 -1706 0
-2147 -285 0
-2147 -600 0
-2168 -2175 0
-2168 -1706 0
-2168 -285 0
-2168 -600 0
-2175 -1706 0
-2175 -285 0
-2175 -600 0
-1706 -285 0
-1706 -600 0
-285 -600 0
2176 2183 2190 2197 727 181 601 0
-2176 -2183 0
-2176 -2190 0
-2176 -2197 0
-2176 -727 0
-2176 -181 0
-2176 -601 0
-2183 -2190 0
-2183 -2197 0
-2183 -727 0
-2183 -181 0
-2183 -601 0
-2190 -2197 0
-2190 -727 0
-2190 -181 0
-2190 -601 0
-2197 -727 0
-2197 -181 0
-2197 -601 0
-727 -181 0
-727 -601 0
-181 -601 0
2177 2184 2191 2198 728 182 602 0
-2177 -2184 0
-2177 -2191 0
-2177 -2198 0
-2177 -728 0
-2177 -182 0
-2177 -602 0
-2184 -2191 0
-2184 -2198 0
-2184 -728 0
-2184 -182 0
-2184 -602 0
-2191 -2198 0
-2191 -728 0
-2191 -182 0
-2191 -602 0
-2198 -728 0
-2198 -182 0
-2198 -602 0
-728 -182 0
-728 -602 0
-182 -602 0
2178 2185 2192 2199 729 183 603 0
-2178 -2185 0
-2178 -2192 0
-2178 -2199 0
-2178 -729 0
-2178 -183 0
-2178 -603 0
-2185 -2192 0
-2185 -2199 0
-2185 -729 0
-2185 -183 0
-2185 -603 0
-2192 -2199 0
-2192 -729 0
-2192 -183 0
-2192 -603 0
-2199 -729 0
-2199 -183 0
-2199 -603 0
-729 -183 0
-729 -603 0
-183 -603 0
2179 2186 2193 2200 730 184 604 0
-2179 -2186 0
-2179 -2193 0
-2179 -2200 0
-2179 -730 0
-2179 -184 0
-2179 -604 0
-2186 -2193 0
-2186 -2200 0
-2186 -730 0
-2186 -184 0
-2186 -604 0
-2193 -2200 0
-2193 -730 0
-2193 -184 0
-2193 -604 0
-2200 -730 0
-2200 -184 0
-2200 -604 0
-730 -184 0
-730 -604 0
-184 -604 0
2180 2187 2194 2201 731 185 605 0
-2180 -2187 0
-2180 -2194 0
-2180 -2201 0
-2180 -731 0
-2180 -185 0
-2180 -605 0
-2187 -2194 0
-2187 -2201 0
-2187 -731 0
-2187 -185 0
-2187 -605 0
-2194 -2201 0
-2194 -731 0
-2194 -185 0
-2194 -605 0
-2201 -731 0
-2201 -185 0
-2201 -605 0
-731 -185 0
-731 -605 0
-185 -605 0
2181 2188 2195 2202 732 186 606 0
-2181 -2188 0
-2181 -2195 0
-2181 -2202 0
-2181 -732 0
-2181 -186 0
-2181 -606 0
-2188 -2195 0
-2188 -2202 0
-2188 -732 0
-2188 -186 0
-2188 -606 0
-2195 -2202 0
-2195 -732 0
-2195 -186 0
-2195 -606 0
-2202 -732 0
-2202 -186 0
-2202 -606 0
-732 -186 0
-732 -606 0
-186 -606 0
2182 2189 2196 2203 733 187 607 0
-2182 -2189 0
-2182 -2196 0
-2182 -2203 0
-2182 -733 0
-2182 -187 0
-2182 -607 0
-2189 -2196 0
-2189 -2203 0
-2189 -733 0
-2189 -187 0
-2189 -607 0
-2196 -2203 0
-2196 -733 0
-2196 -187 0
-2196 -607 0
-2203 -733 0
-2203 -187 0
-2203 -607 0
-733 -187 0
-733 -607 0
-187 -607 0
2176 2204 2211 2218 797 188 608 0
-2176 -2204 0
-2176 -2211 0
-2176 -2218 0
-2176 -797 0
-2176 -188 0
-2176 -608 0
-2204 -2211 0
-2204 -2218 0
-2204 -797 0
-2204 -188 0
-2204 -608 0
-2211 -2218 0
-2211 -797 0
-2211 -188 0
-2211 -608 0
-2218 -797 0
-2218 -188 0
-2218 -608 0
-797 -188 0
-797 -608 0
-188 -608 0
2177 2205 2212 2219 798 189 609 0
-2177 -2205 0
-2177 -2212 0
-2177 -2219 0
-2177 -798 0
-2177 -189 0
-2177 -609 0
-2205 -2212 0
-2205 -2219 0
-2205 -798 0
-2205 -189 0
-2205 -609 0
-2212 -2219 0
-2212 -798 0
-2212 -189 0
-2212 -609 0
-2219 -798 0
-2219 -189 0
-2219 -609 0
-798 -189 0
-798 -609 0
-189 -609 0
2178 2206 2213 2220 799 190 610 0
-2178 -2206 0
-2178 -2213 0
-2178 -2220 0
-2178 -799 0
-2178 -190 0
-2178 -610 0
-2206 -2213 0
-2206 -2220 0
-2206 -799 0
-2206 -190 0
-2206 -610 0
-2213 -2220 0
-2213 -799 0
-2213 -190 0
-2213 -610 0
-2220 -799 0
-2220 -190 0
-2220 -610 0
-799 -190 0
-799 -610 0
-190 -610 0
2179 2207 2214 2221 800 191 611 0
-2179 -2207 0
-2179 -2214 0
-2179 -2221 0
-2179 -800 0
-2179 -191 0
-2179 -611 0
-2207 -2214 0
-2207 -2221 0
-2207 -800 0
-2207 -191 0
-2207 -611 0
-2214 -2221 0
-2214 -800 0
-2214 -191 0
-2214 -611 0
-2221 -800 0
-2221 -191 0
-2221 -611 0
-800 -191 0
-800 -611 0
-191 -611 0
2180 2208 2215 2222 801 192 612 0
-2180 -2208 0
-2180 -2215 0
-2180 -2222 0
-2180 -801 0
-2180 -192 0
-2180 -612 0
-2208 -2215 0
-2208 -2222 0
-2208 -801 0
-2208 -192 0
-2208 -612 0
-2215 -2222 0
-2215 -801 0
-2215 -192 0
-2215 -612 0
-2222 -801 0
-2222 -192 0
-2222 -612 0
-801 -192 0
-801 -612 0
-192 -612 0
2181 2209 2216 2223 802 193 613 0
-2181 -2209 0
-2181 -2216 0
-2181 -2223 0
-2181 -802 0
-2181 -193 0
-2181 -613 0
-2209 -2216 0
-2209 -2223 0
-2209 -802 0
-2209 -193 0
-2209 -613 0
-2216 -2223 0
-2216 -802 0
-2216 -193 0
-2216 -613 0
-2223 -802 0
-2223 -193 0
-2223 -613 0
-802 -193 0
-802 -613 0
-193 -613 0
2182 2210 2217 2224 803 194 614 0
-2182 -2210 0
-2182 -2217 0
-2182 -2224 0
-2182 -803 0
-2182 -194 0
-2182 -614 0
-2210 -2217 0
-2210 -2224 0
-2210 -803 0
-2210 -194 0
-2210 -614 0
-2217 -2224 0
-2217 -803 0
-2217 -194 0
-2217 -614 0
-2224 -803 0
-2224 -194 0
-2224 -614 0
-803 -194 0
-803 -614 0
-194 -614 0
2183 2204 2225 2232 867 195 615 0
-2183 -2204 0
-2183 -2225 0
-2183 -2232 0
-2183 -867 0
-2183 -195 0
-2183 -615 0
-2204 -2225 0
-2204 -2232 0
-2204 -867 0
-2204 -195 0
-2204 -615 0
-2225 -2232 0
-2225 -867 0
-2225 -195 0
-2225 -615 0
-2232 -867 0
-2232 -195 0
-2232 -615 0
-867 -195 0
-867 -615 0
-195 -615 0
2184 2205 2226 2233 868 196 616 0
-2184 -2205 0
-2184 -2226 0
-2184 -2233 0
-2184 -868 0
-2184 -196 0
-2184 -616 0
-2205 -2226 0
-2205 -2233 0
-2205 -868 0
-2205 -196 0
-2205 -616 0
-2226 -2233 0
-2226 -868 0
-2226 -196 0
-2226 -616 0
-2233 -868 0
-2233 -196 0
-2233 -616 0
-868 -196 0
-868 -616 0
-196 -616 0
2185 2206 2227 2234 869 197 617 0
-2185 -2206 0
-2185 -2227 0
-2185 -2234 0
-2185 -869 0
-2185 -197 0
-2185 -617 0
-2206 -2227 0
-2206 -2234 0
-2206 -869 0
-2206 -197 0
-2206 -617 0
-2227 -2234 0
-2227 -869 0
-2227 -197 0
-2227 -617 0
-2234 -869 0
-2234 -197 0
-2234 -617 0
-869 -197 0
-869 -617 0
-197 -617 0
2186 2207 2228 2235 870 198 618 0
-2186 -2207 0
-2186 -2228 0
-2186 -2235 0
-2186 -870 0
-2186 -198 0
-2186 -618 0
-2207 -2228 0
-2207 -2235 0
-2207 -870 0
-2207 -198 0
-2207 -618 0
-2228 -2235 0
-2228 -870 0
-2228 -198 0
-2228 -618 0
-2235 -870 0
-2235 -198 0
-2235 -618 0
-870 -198 0
-870 -618 0
-198 -618 0
2187 2208 2229 2236 871 199 619 0
-2187 -2208 0
-2187 -2229 0
-2187 -2236 0
-2187 -871 0
-2187 -199 0
-2187 -619 0
-2208 -2229 0
-2208 -2236 0
-2208 -871 0
-2208 -199 0
-2208 -619 0
-2229 -2236 0
-2229 -871 0
-2229 -199 0
-2229 -619 0
-2236 -871 0
-2236 -199 0
-2236 -619 0
-871 -199 0
-871 -619 0
-199 -619 0
2188 2209 2230 2237 872 200 620 0
-2188 -2209 0
-2188 -2230 0
-2188 -2237 0
-2188 -872 0
-2188 -200 0
-2188 -620 0
-2209 -2230 0
-2209 -2237 0
-2209 -872 0
-2209 -200 0
-2209 -620 0
-2230 -2237 0
-2230 -872 0
-2230 -200 0
-2230 -620 0
-2237 -872 0
-2237 -200 0
-2237 -620 0
-872 -200 0
-872 -620 0
-200 -620 0
2189 2210 2231 2238 873 201 621 0
-2189 -2210 0
-2189 -2231 0
-2189 -2238 0
-2189 -873 0
-2189 -201 0
-2189 -621 0
-2210 -2231 0
-2210 -2238 0
-2210 -873 0
-2210 -201 0
-2210 -621 0
-2231 -2238 0
-2231 -873 0
-2231 -201 0
-2231 -621 0
-2238 -873 0
-2238 -201 0
-2238 -621 0
-873 -201 0
-873 -621 0
-201 -621 0
2190 2211 2225 2239 937 202 622 0
-2190 -2211 0
-2190 -2225 0
-2190 -2239 0
-2190 -937 0
-2190 -202 0
-2190 -622 0
-2211 -2225 0
-2211 -2239 0
-2211 -937 0
-2211 -202 0
-2211 -622 0
-2225 -2239 0
-2225 -937 0
-2225 -202 0
-2225 -622 0
-2239 -937 0
-2239 -202 0
-2239 -622 0
-937 -202 0
-937 -622 0
-202 -622 0
2191 2212 2226 2240 938 203 623 0
-2191 -2212 0
-2191 -2226 0
-2191 -2240 0
-2191 -938 0
-2191 -203 0
-2191 -623 0
-2212 -2226 0
-2212 -2240 0
-2212 -938 0
-2212 -203 0
-2212 -623 0
-2226 -2240 0
-2226 -938 0
-2226 -203 0
-2226 -623 0
-2240 -938 0
-2240 -203 0
-2240 -623 0
-938 -203 0
-938 -623 0
-203 -623 0
2192 2213 2227 2241 939 204 624 0
-2192 -2213 0
-2192 -2227 0
-2192 -2241 0
-2192 -939 0
-2192 -204 0
-2192 -624 0
-2213 -2227 0
-2213 -2241 0
-2213 -939 0
-2213 -204 0
-2213 -624 0
-2227 -2241 0
-2227 -939 0
-2227 -204 0
-2227 -624 0
-2241 -939 0
-2241 -204 0
-2241 -624 0
-939 -204 0
-939 -624 0
-204 -624 0
2193 2214 2228 2242 940 205 625 0
-2193 -2214 0
-2193 -2228 0
-2193 -2242 0
-2193 -940 0
-2193 -205 0
-2193 -625 0
-2214 -2228 0
-2214 -2242 0
-2214 -940 0
-2214 -205 0
-2214 -625 0
-2228 -2242 0
-2228 -940 0
-2228 -205 0
-2228 -625 0
-2242 -940 0
-2242 -205 0
-2242 -625 0
-940 -205 0
-940 -625 0
-205 -625 0
2194 2215 2229 2243 941 206 626 0
-2194 -2215 0
-2194 -2229 0
-2194 -2243 0
-2194 -941 0
-2194 -206 0
-2194 -626 0
-2215 -2229 0
-2215 -2243 0
-2215 -941 0
-2215 -206 0
-2215 -626 0
-2229 -2243 0
-2229 -941 0
-2229 -206 0
-2229 -626 0
-2243 -941 0
-2243 -206 0
-2243 -626 0
-941 -206 0
-941 -626 0
-206 -626 0
2195 2216 2230 2244 942 207 627 0
-2195 -2216 0
-2195 -2230 0
-2195 -2244 0
-2195 -942 0
-2195 -207 0
-2195 -627 0
-2216 -2230 0
-2216 -2244 0
-2216 -942 0
-2216 -207 0
-2216 -627 0
-2230 -2244 0
-2230 -942 0
-2230 -207 0
-2230 -627 0
-2244 -942 0
-2244 -207 0
-2244 -627 0
-942 -207 0
-942 -627 0
-207 -627 0
2196 2217 2231 2245 943 208 628 0
-2196 -2217 0
-2196 -2231 0
-2196 -2245 0
-2196 -943 0
-2196 -208 0
-2196 -628 0
-2217 -2231 0
-2217 -2245 0
-2217 -943 0
-2217 -208 0
-2217 -628 0
-2231 -2245 0
-2231 -943 0
-2231 -208 0
-2231 -628 0
-2245 -943 0
-2245 -208 0
-2245 -628 0
-943 -208 0
-943 -628 0
-208 -628 0
2197 2218 2232 2239 1007 209 629 0
-2197 -2218 0
-2197 -2232 0
-2197 -2239 0
-2197 -1007 0
-2197 -209 0
-2197 -629 0
-2218 -2232 0
-2218 -2239 0
-2218 -1007 0
-2218 -209 0
-2218 -629 0
-2232 -2239 0
-2232 -1007 0
-2232 -209 0
-2232 -629 0
-2239 -1007 0
-2239 -209 0
-2239 -629 0
-1007 -209 0
-1007 -629 0
-209 -629 0
2198 2219 2233 2240 1008 210 630 0
-2198 -2219 0
-2198 -2233 0
-2198 -2240 0
-2198 -1008 0
-2198 -210 0
-2198 -630 0
-2219 -2233 0
-2219 -2240 0
-2219 -1008 0
-2219 -210 0
-2219 -630 0
-2233 -2240 0
-2233 -1008 0
-2233 -210 0
-2233 -630 0
-2240 -1008 0
-2240 -210 0
-2240 -630 0
-1008 -210 0
-1008 -630 0
-210 -630 0
2199 2220 2234 2241 1009 211 631 0
-2199 -2220 0
-2199 -2234 0
-2199 -2241 0
-2199 -1009 0
-2199 -211 0
-2199 -631 0
-2220 -2234 0
-2220 -2241 0
-2220 -1009 0
-2220 -211 0
-2220 -631 0
-2234 -2241 0
-2234 -1009 0
-2234 -211 0
-2234 -631 0
-2241 -1009 0
-2241 -211 0
-2241 -631 0
-1009 -211 0
-1009 -631 0
-211 -631 0
2200 2221 2235 2242 1010 212 632 0
-2200 -2221 0
-2200 -2235 0
-2200 -2242 0
-2200 -1010 0
-2200 -212 0
-2200 -632 0
-2221 -2235 0
-2221 -2242 0
-2221 -1010 0
-2221 -212 0
-2221 -632 0
-2235 -2242 0
-2235 -1010 0
-2235 -212 0
-2235 -632 0
-2242 -1010 0
-2242 -212 0
-2242 -632 0
-1010 -212 0
-1010 -632 0
-212 -632 0
2201 2222 2236 2243 1011 213 633 0
-2201 -2222 0
-2201 -2236 0
-2201 -2243 0
-2201 -1011 0
-2201 -213 0
-2201 -633 0
-2222 -2236 0
-2222 -2243 0
-2222 -1011 0
-2222 -213 0
-2222 -633 0
-2236 -2243 0
-2236 -1011 0
-2236 -213 0
-2236 -633 0
-2243 -1011 0
-2243 -213 0
-2243 -633 0
-1011 -213 0
-1011 -633 0
-213 -633 0
2202 2223 2237 2244 1012 214 634 0
-2202 -2223 0
-2202 -2237 0
-2202 -2244 0
-2202 -1012 0
-2202 -214 0
-2202 -634 0
-2223 -2237 0
-2223 -2244 0
-2223 -1012 0
-2223 -214 0
-2223 -634 0
-2237 -2244 0
-2237 -1012 0
-2237 -214 0
-2237 -634 0
-2244 -1012 0
-2244 -214 0
-2244 -634 0
-1012 -214 0
-1012 -634 0
-214 -634 0
2203 2224 2238 2245 1013 215 635 0
-2203 -2224 0
-2203 -2238 0
-2203 -2245 0
-2203 -1013 0
-2203 -215 0
-2203 -635 0
-2224 -2238 0
-2224 -2245 0
-2224 -1013 0
-2224 -215 0
-2224 -635 0
-2238 -2245 0
-2238 -1013 0
-2238 -215 0
-2238 -635 0
-2245 -1013 0
-2245 -215 0
-2245 -635 0
-1013 -215 0
-1013 -635 0
-215 -635 0
2176 2246 2253 2260 1077 216 636 0
-2176 -2246 0
-2176 -2253 0
-2176 -2260 0
-2176 -1077 0
-2176 -216 0
-2176 -636 0
-2246 -2253 0
-2246 -2260 0
-2246 -1077 0
-2246 -216 0
-2246 -636 0
-2253 -2260 0
-2253 -1077 0
-2253 -216 0
-2253 -636 0
-2260 -1077 0
-2260 -216 0
-2260 -636 0
-1077 -216 0
-1077 -636 0
-216 -636 0
2177 2247 2254 2261 1078 217 637 0
-2177 -2247 0
-2177 -2254 0
-2177 -2261 0
-2177 -1078 0
-2177 -217 0
-2177 -637 0
-2247 -2254 0
-2247 -2261 0
-2247 -1078 0
-2247 -217 0
-2247 -637 0
-2254 -2261 0
-2254 -1078 0
-2254 -217 0
-2254 -637 0
-2261 -1078 0
-2261 -217 0
-2261 -637 0
-1078 -217 0
-1078 -637 0
-217 -637 0
2178 2248 2255 2262 1079 218 638 0
-2178 -2248 0
-2178 -2255 0
-2178 -2262 0
-2178 -1079 0
-2178 -218 0
-2178 -638 0
-2248 -2255 0
-2248 -2262 0
-2248 -1079 0
-2248 -218 0
-2248 -638 0
-2255 -2262 0
-2255 -1079 0
-2255 -218 0
-2255 -638 0
-2262 -1079 0
-2262 -218 0
-2262 -638 0
-1079 -218 0
-1079 -638 0
-218 -638 0
2179 2249 2256 2263 1080 219 639 0
-2179 -2249 0
-2179 -2256 0
-2179 -2263 0
-2179 -1080 0
-2179 -219 0
-2179 -639 0
-2249 -2256 0
-2249 -2263 0
-2249 -1080 0
-2249 -219 0
-2249 -639 0
-2256 -2263 0
-2256 -1080 0
-2256 -219 0
-2256 -639 0
-2263 -1080 0
-2263 -219 0
-2263 -639 0
-1080 -219 0
-1080 -639 0
-219 -639 0
2180 2250 2257 2264 1081 220 640 0
-2180 -2250 0
-2180 -2257 0
-2180 -2264 0
-2180 -1081 0
-2180 -220 0
-2180 -640 0
-2250 -2257 0
-2250 -2264 0
-2250 -1081 0
-2250 -220 0
-2250 -640 0
-2257 -2264 0
-2257 -1081 0
-2257 -220 0
-2257 -640 0
-2264 -1081 0
-2264 -220 0
-2264 -640 0
-1081 -220 0
-1081 -640 0
-220 -640 0
2181 2251 2258 2265 1082 221 641 0
-2181 -2251 0
-2181 -2258 0
-2181 -2265 0
-2181 -1082 0
-2181 -221 0
-2181 -641 0
-2251 -2258 0
-2251 -2265 0
-2251 -1082 0
-2251 -221 0
-2251 -641 0
-2258 -2265 0
-2258 -1082 0
-2258 -221 0
-2258 -641 0
-2265 -1082 0
-2265 -221 0
-2265 -641 0
-1082 -221 0
-1082 -641 0
-221 -641 0
2182 2252 2259 2266 1083 222 642 0
-2182 -2252 0
-2182 -2259 0
-2182 -2266 0
-2182 -1083 0
-2182 -222 0
-2182 -642 0
-2252 -2259 0
-2252 -2266 0
-2252 -1083 0
-2252 -222 0
-2252 -642 0
-2259 -2266 0
-2259 -1083 0
-2259 -222 0
-2259 -642 0
-2266 -1083 0
-2266 -222 0
-2266 -642 0
-1083 -222 0
-1083 -642 0
-222 -642 0
2183 2246 2267 2274 1147 223 643 0
-2183 -2246 0
-2183 -2267 0
-2183 -2274 0
-2183 -1147 0
-2183 -223 0
-2183 -643 0
-2246 -2267 0
-2246 -2274 0
-2246 -1147 0
-2246 -223 0
-2246 -643 0
-2267 -2274 0
-2267 -1147 0
-2267 -223 0
-2267 -643 0
-2274 -1147 0
-2274 -223 0
-2274 -643 0
-1147 -223 0
-1147 -643 0
-223 -643 0
2184 2247 2268 2275 1148 224 644 0
-2184 -2247 0
-2184 -2268 0
-2184 -2275 0
-2184 -1148 0
-2184 -224 0
-2184 -644 0
-2247 -2268 0
-2247 -2275 0
-2247 -1148 0
-2247 -224 0
-2247 -644 0
-2268 -2275 0
-2268 -1148 0
-2268 -224 0
-2268 -644 0
-2275 -1148 0
-2275 -224 0
-2275 -644 0
-1148 -224 0
-1148 -644 0
-224 -644 0
2185 2248 2269 2276 1149 225 645 0
-2185 -2248 0
-2185 -2269 0
-2185 -2276 0
-2185 -1149 0
-2185 -225 0
-2185 -645 0
-2248 -2269 0
-2248 -2276 0
-2248 -1149 0
-2248 -225 0
-2248 -645 0
-2269 -2276 0
-2269 -1149 0
-2269 -225 0
-2269 -645 0
-2276 -1149 0
-2276 -225 0
-2276 -645 0
-1149 -225 0
-1149 -645 0
-225 -645 0
2186 2249 2270 2277 1150 226 646 0
-2186 -2249 0
-2186 -2270 0
-2186 -2277 0
-2186 -1150 0
-2186 -226 0
-2186 -646 0
-2249 -2270 0
-2249 -2277 0
-2249 -1150 0
-2249 -226 0
-2249 -646 0
-2270 -2277 0
-2270 -1150 0
-2270 -226 0
-2270 -646 0
-2277 -1150 0
-2277 -226 0
-2277 -646 0
-1150 -226 0
-1150 -646 0
-226 -646 0
2187 2250 2271 2278 1151 227 647 0
-2187 -2250 0
-2187 -2271 0
-2187 -2278 0
-2187 -1151 0
-2187 -227 0
-2187 -647 0
-2250 -2271 0
-2250 -2278 0
-2250 -1151 0
-2250 -227 0
-2250 -647 0
-2271 -2278 0
-2271 -1151 0
-2271 -227 0
-2271 -647 0
-2278 -1151 0
-2278 -227 0
-2278 -647 0
-1151 -227 0
-1151 -647 0
-227 -647 0
2188 2251 2272 2279 1152 228 648 0
-2188 -2251 0
-2188 -2272 0
-2188 -2279 0
-2188 -1152 0
-2188 -228 0
-2188 -648 0
-2251 -2272 0
-2251 -2279 0
-2251 -1152 0
-2251 -228 0
-2251 -648 0
-2272 -2279 0
-2272 -1152 0
-2272 -228 0
-2272 -648 0
-2279 -1152 0
-2279 -228 0
-2279 -648 0
-1152 -228 0
-1152 -648 0
-228 -648 0
2189 2252 2273 2280 1153 229 649 0
-2189 -2252 0
-2189 -2273 0
-2189 -2280 0
-2189 -1153 0
-2189 -229 0
-2189 -649 0
-2252 -2273 0
-2252 -2280 0
-2252 -1153 0
-2252 -229 0
-2252 -649 0
-2273 -2280 0
-2273 -1153 0
-2273 -229 0
-2273 -649 0
-2280 -1153 0
-2280 -229 0
-2280 -649 0
-1153 -229 0
-1153 -649 0
-229 -649 0
2190 2253 2267 2281 1217 230 650 0
-2190 -2253 0
-2190 -2267 0
-2190 -2281 0
-2190 -1217 0
-2190 -230 0
-2190 -650 0
-2253 -2267 0
-2253 -2281 0
-2253 -1217 0
-2253 -230 0
-2253 -650 0
-2267 -2281 0
-2267 -1217 0
-2267 -230 0
-2267 -650 0
-2281 -1217 0
-2281 -230 0
-2281 -650 0
-1217 -230 0
-1217 -650 0
-230 -650 0
2191 2254 2268 2282 1218 231 651 0
-2191 -2254 0
-2191 -2268 0
-2191 -2282 0
-2191 -1218 0
-2191 -231 0
-2191 -651 0
-2254 -2268 0
-2254 -2282 0
-2254 -1218 0
-2254 -231 0
-2254 -651 0
-2268 -2282 0
-2268 -1218 0
-2268 -231 0
-2268 -651 0
-2282 -1218 0
-2282 -231 0
-2282 -651 0
-1218 -231 0
-1218 -651 0
-231 -651 0
2192 2255 2269 2283 1219 232 652 0
-2192 -2255 0
-2192 -2269 0
-2192 -2283 0
-2192 -1219 0
-2192 -232 0
-2192 -652 0
-2255 -2269 0
-2255 -2283 0
-2255 -1219 0
-2255 -232 0
-2255 -652 0
-2269 -2283 0
-2269 -1219 0
-2269 -232 0
-2269 -652 0
-2283 -1219 0
-2283 -232 0
-2283 -652 0
-1219 -232 0
-1219 -652 0
-232 -652 0
2193 2256 2270 2284 1220 233 653 0
-2193 -2256 0
-2193 -2270 0
-2193 -2284 0
-2193 -1220 0
-2193 -233 0
-2193 -653 0
-2256 -2270 0
-2256 -2284 0
-2256 -1220 0
-2256 -233 0
-2256 -653 0
-2270 -2284 0
-2270 -1220 0
-2270 -233 0
-2270 -653 0
-2284 -1220 0
-2284 -233 0
-2284 -653 0
-1220 -233 0
-1220 -653 0
-233 -653 0
2194 2257 2271 2285 1221 234 654 0
-2194 -2257 0
-2194 -2271 0
-2194 -2285 0
-2194 -1221 0
-2194 -234 0
-2194 -654 0
-2257 -2271 0
-2257 -2285 0
-2257 -1221 0
-2257 -234 0
-2257 -654 0
-2271 -2285 0
-2271 -1221 0
-2271 -234 0
-2271 -654 0
-2285 -1221 0
-2285 -234 0
-2285 -654 0
-1221 -234 0
-1221 -654 0
-234 -654 0
2195 2258 2272 2286 1222 235 655 0
-2195 -2258 0
-2195 -2272 0
-2195 -2286 0
-2195 -1222 0
-2195 -235 0
-2195 -655 0
-2258 -2272 0
-2258 -2286 0
-2258 -1222 0
-2258 -235 0
-2258 -655 0
-2272 -2286 0
-2272 -1222 0
-2272 -235 0
-2272 -655 0
-2286 -1222 0
-2286 -235 0
-2286 -655 0
-1222 -235 0
-1222 -655 0
-235 -655 0
2196 2259 2273 2287 1223 236 656 0
-2196 -2259 0
-2196 -2273 0
-2196 -2287 0
-2196 -1223 0
-2196 -236 0
-2196 -656 0
-2259 -2273 0
-2259 -2287 0
-2259 -1223 0
-2259 -236 0
-2259 -656 0
-2273 -2287 0
-2273 -1223 0
-2273 -236 0
-2273 -656 0
-2287 -1223 0
-2287 -236 0
-2287 -656 0
-1223 -236 0
-1223 -656 0
-236 -656 0
2197 2260 2274 2281 1287 237 657 0
-2197 -2260 0
-2197 -2274 0
-2197 -2281 0
-2197 -1287 0
-2197 -237 0
-2197 -657 0
-2260 -2274 0
-2260 -2281 0
-2260 -1287 0
-2260 -237 0
-2260 -657 0
-2274 -2281 0
-2274 -1287 0
-2274 -237 0
-2274 -657 0
-2281 -1287 0
-2281 -237 0
-2281 -657 0
-1287 -237 0
-1287 -657 0
-237 -657 0
2198 2261 2275 2282 1288 238 658 0
-2198 -2261 0
-2198 -2275 0
-2198 -2282 0
-2198 -1288 0
-2198 -238 0
-2198 -658 0
-2261 -2275 0
-2261 -2282 0
-2261 -1288 0
-2261 -238 0
-2261 -658 0
-2275 -2282 0
-2275 -1288 0
-2275 -238 0
-2275 -658 0
-2282 -1288 0
-2282 -238 0
-2282 -658 0
-1288 -238 0
-1288 -658 0
-238 -658 0
2199 2262 2276 2283 1289 239 659 0
-2199 -2262 0
-2199 -2276 0
-2199 -2283 0
-2199 -1289 0
-2199 -239 0
-2199 -659 0
-2262 -2276 0
-2262 -2283 0
-2262 -1289 0
-2262 -239 0
-2262 -659 0
-2276 -2283 0
-2276 -1289 0
-2276 -239 0
-2276 -659 0
-2283 -1289 0
-2283 -239 0
-2283 -659 0
-1289 -239 0
-1289 -659 0
-239 -659 0
2200 2263 2277 2284 1290 240 660 0
-2200 -2263 0
-2200 -2277 0
-2200 -2284 0
-2200 -1290 0
-2200 -240 0
-2200 -660 0
-2263 -2277 0
-2263 -2284 0
-2263 -1290 0
-2263 -240 0
-2263 -660 0
-2277 -2284 0
-2277 -1290 0
-2277 -240 0
-2277 -660 0
-2284 -1290 0
-2284 -240 0
-2284 -660 0
-1290 -240 0
-1290 -660 0
-240 -660 0
2201 2264 2278 2285 1291 241 661 0
-2201 -2264 0
-2201 -2278 0
-2201 -2285 0
-2201 -1291 0
-2201 -241 0
-2201 -661 0
-2264 -2278 0
-2264 -2285 0
-2264 -1291 0
-2264 -241 0
-2264 -661 0
-2278 -2285 0
-2278 -1291 0
-2278 -241 0
-2278 -661 0
-2285 -1291 0
-2285 -241 0
-2285 -661 0
-1291 -241 0
-1291 -661 0
-241 -661 0
2202 2265 2279 2286 1292 242 662 0
-2202 -2265 0
-2202 -2279 0
-2202 -2286 0
-2202 -1292 0
-2202 -242 0
-2202 -662 0
-2265 -2279 0
-2265 -2286 0
-2265 -1292 0
-2265 -242 0
-2265 -662 0
-2279 -2286 0
-2279 -1292 0
-2279 -242 0
-2279 -662 0
-2286 -1292 0
-2286 -242 0
-2286 -662 0
-1292 -242 0
-1292 -662 0
-242 -662 0
2203 2266 2280 2287 1293 243 663 0
-2203 -2266 0
-2203 -2280 0
-2203 -2287 0
-2203 -1293 0
-2203 -243 0
-2203 -663 0
-2266 -2280 0
-2266 -2287 0
-2266 -1293 0
-2266 -243 0
-2266 -663 0
-2280 -2287 0
-2280 -1293 0
-2280 -243 0
-2280 -663 0
-2287 -1293 0
-2287 -243 0
-2287 -663 0
-1293 -243 0
-1293 -663 0
-243 -663 0
2204 2246 2288 2295 1357 244 664 0
-2204 -2246 0
-2204 -2288 0
-2204 -2295 0
-2204 -1357 0
-2204 -244 0
-2204 -664 0
-2246 -2288 0
-2246 -2295 0
-2246 -1357 0
-2246 -244 0
-2246 -664 0
-2288 -2295 0
-2288 -1357 0
-2288 -244 0
-2288 -664 0
-2295 -1357 0
-2295 -244 0
-2295 -664 0
-1357 -244 0
-1357 -664 0
-244 -664 0
2205 2247 2289 2296 1358 245 665 0
-2205 -2247 0
-2205 -2289 0
-2205 -2296 0
-2205 -1358 0
-2205 -245 0
-2205 -665 0
-2247 -2289 0
-2247 -2296 0
-2247 -1358 0
-2247 -245 0
-2247 -665 0
-2289 -2296 0
-2289 -1358 0
-2289 -245 0
-2289 -665 0
-2296 -1358 0
-2296 -245 0
-2296 -665 0
-1358 -245 0
-1358 -665 0
-245 -665 0
2206 2248 2290 2297 1359 246 666 0
-2206 -2248 0
-2206 -2290 0
-2206 -2297 0
-2206 -1359 0
-2206 -246 0
-2206 -666 0
-2248 -2290 0
-2248 -2297 0
-2248 -1359 0
-2248 -246 0
-2248 -666 0
-2290 -2297 0
-2290 -1359 0
-2290 -246 0
-2290 -666 0
-2297 -1359 0
-2297 -246 0
-2297 -666 0
-1359 -246 0
-1359 -666 0
-246 -666 0
2207 2249 2291 2298 1360 247 667 0
-2207 -2249 0
-2207 -2291 0
-2207 -2298 0
-2207 -1360 0
-2207 -247 0
-2207 -667 0
-2249 -2291 0
-2249 -2298 0
-2249 -1360 0
-2249 -247 0
-2249 -667 0
-2291 -2298 0
-2291 -1360 0
-2291 -247 0
-2291 -667 0
-2298 -1360 0
-2298 -247 0
-2298 -667 0
-1360 -247 0
-1360 -667 0
-247 -667 0
2208 2250 2292 2299 1361 248 668 0
-2208 -2250 0
-2208 -2292 0
-2208 -2299 0
-2208 -1361 0
-2208 -248 0
-2208 -668 0
-2250 -2292 0
-2250 -2299 0
-2250 -1361 0
-2250 -248 0
-2250 -668 0
-2292 -2299 0
-2292 -1361 0
-2292 -248 0
-2292 -668 0
-2299 -1361 0
-2299 -248 0
-2299 -668 0
-1361 -248 0
-1361 -668 0
-248 -668 0
2209 2251 2293 2300 1362 249 669 0
-2209 -2251 0
-2209 -2293 0
-2209 -2300 0
-2209 -1362 0
-2209 -249 0
-2209 -669 0
-2251 -2293 0
-2251 -2300 0
-2251 -1362 0
-2251 -249 0
-2251 -669 0
-2293 -2300 0
-2293 -1362 0
-2293 -249 0
-2293 -669 0
-2300 -1362 0
-2300 -249 0
-2300 -669 0
-1362 -249 0
-1362 -669 0
-249 -669 0
2210 2252 2294 2301 1363 250 670 0
-2210 -2252 0
-2210 -2294 0
-2210 -2301 0
-2210 -1363 0
-2210 -250 0
-2210 -670 0
-2252 -2294 0
-2252 -2301 0
-2252 -1363 0
-2252 -250 0
-2252 -670 0
-2294 -2301 0
-2294 -1363 0
-2294 -250 0
-2294 -670 0
-2301 -1363 0
-2301 -250 0
-2301 -670 0
-1363 -250 0
-1363 -670 0
-250 -670 0
2211 2253 2288 2302 1427 251 671 0
-2211 -2253 0
-2211 -2288 0
-2211 -2302 0
-2211 -1427 0
-2211 -251 0
-2211 -671 0
-2253 -2288 0
-2253 -2302 0
-2253 -1427 0
-2253 -251 0
-2253 -671 0
-2288 -2302 0
-2288 -1427 0
-2288 -251 0
-2288 -671 0
-2302 -1427 0
-2302 -251 0
-2302 -671 0
-1427 -251 0
-1427 -671 0
-251 -671 0
2212 2254 2289 2303 1428 252 672 0
-2212 -2254 0
-2212 -2289 0
-2212 -2303 0
-2212 -1428 0
-2212 -252 0
-2212 -672 0
-2254 -2289 0
-2254 -2303 0
-2254 -1428 0
-2254 -252 0
-2254 -672 0
-2289 -2303 0
-2289 -1428 0
-2289 -252 0
-2289 -672 0
-2303 -1428 0
-2303 -252 0
-2303 -672 0
-1428 -252 0
-1428 -672 0
-252 -672 0
2213 2255 2290 2304 1429 253 673 0
-2213 -2255 0
-2213 -2290 0
-2213 -2304 0
-2213 -1429 0
-2213 -253 0
-2213 -673 0
-2255 -2290 0
-2255 -2304 0
-2255 -1429 0
-2255 -253 0
-2255 -673 0
-2290 -2304 0
-2290 -1429 0
-2290 -253 0
-2290 -673 0
-2304 -1429 0
-2304 -253 0
-2304 -673 0
-1429 -253 0
-1429 -673 0
-253 -673 0
2214 2256 2291 2305 1430 254 674 0
-2214 -2256 0
-2214 -2291 0
-2214 -2305 0
-2214 -1430 0
-2214 -254 0
-2214 -674 0
-2256 -2291 0
-2256 -2305 0
-2256 -1430 0
-2256 -254 0
-2256 -674 0
-2291 -2305 0
-2291 -1430 0
-2291 -254 0
-2291 -674 0
-2305 -1430 0
-2305 -254 0
-2305 -674 0
-1430 -254 0
-1430 -674 0
-254 -674 0
2215 2257 2292 2306 1431 255 675 0
-2215 -2257 0
-2215 -2292 0
-2215 -2306 0
-2215 -1431 0
-2215 -255 0
-2215 -675 0
-2257 -2292 0
-2257 -2306 0
-2257 -1431 0
-2257 -255 0
-2257 -675 0
-2292 -2306 0
-2292 -1431 0
-2292 -255 0
-2292 -675 0
-2306 -1431 0
-2306 -255 0
-2306 -675 0
-1431 -255 0
-1431 -675 0
-255 -675 0
2216 2258 2293 2307 1432 256 676 0
-2216 -2258 0
-2216 -2293 0
-2216 -2307 0
-2216 -1432 0
-2216 -256 0
-2216 -676 0
-2258 -2293 0
-2258 -2307 0
-2258 -1432 0
-2258 -256 0
-2258 -676 0
-2293 -2307 0
-2293 -1432 0
-2293 -256 0
-2293 -676 0
-2307 -1432 0
-2307 -256 0
-2307 -676 0
-1432 -256 0
-1432 -676 0
-256 -676 0
2217 2259 2294 2308 1433 257 677 0
-2217 -2259 0
-2217 -2294 0
-2217 -2308 0
-2217 -1433 0
-2217 -257 0
-2217 -677 0
-2259 -2294 0
-2259 -2308 0
-2259 -1433 0
-2259 -257 0
-2259 -677 0
-2294 -2308 0
-2294 -1433 0
-2294 -257 0
-2294 -677 0
-2308 -1433 0
-2308 -257 0
-2308 -677 0
-1433 -257 0
-1433 -677 0
-257 -677 0
2218 2260 2295 2302 1497 258 678 0
-2218 -2260 0
-2218 -2295 0
-2218 -2302 0
-2218 -1497 0
-2218 -258 0
-2218 -678 0
-2260 -2295 0
-2260 -2302 0
-2260 -1497 0
-2260 -258 0
-2260 -678 0
-2295 -2302 0
-2295 -1497 0
-2295 -258 0
-2295 -678 0
-2302 -1497 0
-2302 -258 0
-2302 -678 0
-1497 -258 0
-1497 -678 0
-258 -678 0
2219 2261 2296 2303 1498 259 679 0
-2219 -2261 0
-2219 -2296 0
-2219 -2303 0
-2219 -1498 0
-2219 -259 0
-2219 -679 0
-2261 -2296 0
-2261 -2303 0
-2261 -1498 0
-2261 -259 0
-2261 -679 0
-2296 -2303 0
-2296 -1498 0
-2296 -259 0
-2296 -679 0
-2303 -1498 0
-2303 -259 0
-2303 -679 0
-1498 -259 0
-1498 -679 0
-259 -679 0
2220 2262 2297 2304 1499 260 680 0
-2220 -2262 0
-2220 -2297 0
-2220 -2304 0
-2220 -1499 0
-2220 -260 0
-2220 -680 0
-2262 -2297 0
-2262 -2304 0
-2262 -1499 0
-2262 -260 0
-2262 -680 0
-2297 -2304 0
-2297 -1499 0
-2297 -260 0
-2297 -680 0
-2304 -1499 0
-2304 -260 0
-2304 -680 0
-1499 -260 0
-1499 -680 0
-260 -680 0
2221 2263 2298 2305 1500 261 681 0
-2221 -2263 0
-2221 -2298 0
-2221 -2305 0
-2221 -1500 0
-2221 -261 0
-2221 -681 0
-2263 -2298 0
-2263 -2305 0
-2263 -1500 0
-2263 -261 0
-2263 -681 0
-2298 -2305 0
-2298 -1500 0
-2298 -261 0
-2298 -681 0
-2305 -1500 0
-2305 -261 0
-2305 -681 0
-1500 -261 0
-1500 -681 0
-261 -681 0
2222 2264 2299 2306 1501 262 682 0
-2222 -2264 0
-2222 -2299 0
-2222 -2306 0
-2222 -1501 0
-2222 -262 0
-2222 -682 0
-2264 -2299 0
-2264 -2306 0
-2264 -1501 0
-2264 -262 0
-2264 -682 0
-2299 -2306 0
-2299 -1501 0
-2299 -262 0
-2299 -682 0
-2306 -1501 0
-2306 -262 0
-2306 -682 0
-1501 -262 0
-1501 -682 0
-262 -682 0
2223 2265 2300 2307 1502 263 683 0
-2223 -2265 0
-2223 -2300 0
-2223 -2307 0
-2223 -1502 0
-2223 -263 0
-2223 -683 0
-2265 -2300 0
-2265 -2307 0
-2265 -1502 0
-2265 -263 0
-2265 -683 0
-2300 -2307 0
-2300 -1502 0
-2300 -263 0
-2300 -683 0
-2307 -1502 0
-2307 -263 0
-2307 -683 0
-1502 -263 0
-1502 -683 0
-263 -683 0
2224 2266 2301 2308 1503 264 684 0
-2224 -2266 0
-2224 -2301 0
-2224 -2308 0
-2224 -1503 0
-2224 -264 0
-2224 -684 0
-2266 -2301 0
-2266 -2308 0
-2266 -1503 0
-2266 -264 0
-2266 -684 0
-2301 -2308 0
-2301 -1503 0
-2301 -264 0
-2301 -684 0
-2308 -1503 0
-2308 -264 0
-2308 -684 0
-1503 -264 0
-1503 -684 0
-264 -684 0
2225 2267 2288 2309 1567 265 685 0
-2225 -2267 0
-2225 -2288 0
-2225 -2309 0
-2225 -1567 0
-2225 -265 0
-2225 -685 0
-2267 -2288 0
-2267 -2309 0
-2267 -1567 0
-2267 -265 0
-2267 -685 0
-2288 -2309 0
-2288 -1567 0
-2288 -265 0
-2288 -685 0
-2309 -1567 0
-2309 -265 0
-2309 -685 0
-1567 -265 0
-1567 -685 0
-265 -685 0
2226 2268 2289 2310 1568 266 686 0
-2226 -2268 0
-2226 -2289 0
-2226 -2310 0
-2226 -1568 0
-2226 -266 0
-2226 -686 0
-2268 -2289 0
-2268 -2310 0
-2268 -1568 0
-2268 -266 0
-2268 -686 0
-2289 -2310 0
-2289 -1568 0
-2289 -266 0
-2289 -686 0
-2310 -1568 0
-2310 -266 0
-2310 -686 0
-1568 -266 0
-1568 -686 0
-266 -686 0
2227 2269 2290 2311 1569 267 687 0
-2227 -2269 0
-2227 -2290 0
-2227 -2311 0
-2227 -1569 0
-2227 -267 0
-2227 -687 0
-2269 -2290 0
-2269 -2311 0
-2269 -1569 0
-2269 -267 0
-2269 -687 0
-2290 -2311 0
-2290 -1569 0
-2290 -267 0
-2290 -687 0
-2311 -1569 0
-2311 -267 0
-2311 -687 0
-1569 -267 0
-1569 -687 0
-267 -687 0
2228 2270 2291 2312 1570 268 688 0
-2228 -2270 0
-2228 -2291 0
-2228 -2312 0
-2228 -1570 0
-2228 -268 0
-2228 -688 0
-2270 -2291 0
-2270 -2312 0
-2270 -1570 0
-2270 -268 0
-2270 -688 0
-2291 -2312 0
-2291 -1570 0
-2291 -268 0
-2291 -688 0
-2312 -1570 0
-2312 -268 0
-2312 -688 0
-1570 -268 0
-1570 -688 0
-268 -688 0
2229 2271 2292 2313 1571 269 689 0
-2229 -2271 0
-2229 -2292 0
-2229 -2313 0
-2229 -1571 0
-2229 -269 0
-2229 -689 0
-2271 -2292 0
-2271 -2313 0
-2271 -1571 0
-2271 -269 0
-2271 -689 0
-2292 -2313 0
-2292 -1571 0
-2292 -269 0
-2292 -689 0
-2313 -1571 0
-2313 -269 0
-2313 -689 0
-1571 -269 0
-1571 -689 0
-269 -689 0
2230 2272 2293 2314 1572 270 690 0
-2230 -2272 0
-2230 -2293 0
-2230 -2314 0
-2230 -1572 0
-2230 -270 0
-2230 -690 0
-2272 -2293 0
-2272 -2314 0
-2272 -1572 0
-2272 -270 0
-2272 -690 0
-2293 -2314 0
-2293 -1572 0
-2293 -270 0
-2293 -690 0
-2314 -1572 0
-2314 -270 0
-2314 -690 0
-1572 -270 0
-1572 -690 0
-270 -690 0
2231 2273 2294 2315 1573 271 691 0
-2231 -2273 0
-2231 -2294 0
-2231 -2315 0
-2231 -1573 0
-2231 -271 0
-2231 -691 0
-2273 -2294 0
-2273 -2315 0
-2273 -1573 0
-2273 -271 0
-2273 -691 0
-2294 -2315 0
-2294 -1573 0
-2294 -271 0
-2294 -691 0
-2315 -1573 0
-2315 -271 0
-2315 -691 0
-1573 -271 0
-1573 -691 0
-271 -691 0
2232 2274 2295 2309 1637 272 692 0
-2232 -2274 0
-2232 -2295 0
-2232 -2309 0
-2232 -1637 0
-2232 -272 0
-2232 -692 0
-2274 -2295 0
-2274 -2309 0
-2274 -1637 0
-2274 -272 0
-2274 -692 0
-2295 -2309 0
-2295 -1637 0
-2295 -272 0
-2295 -692 0
-2309 -1637 0
-2309 -272 0
-2309 -692 0
-1637 -272 0
-1637 -692 0
-272 -692 0
2233 2275 2296 2310 1638 273 693 0
-2233 -2275 0
-2233 -2296 0
-2233 -2310 0
-2233 -1638 0
-2233 -273 0
-2233 -693 0
-2275 -2296 0
-2275 -2310 0
-2275 -1638 0
-2275 -273 0
-2275 -693 0
-2296 -2310 0
-2296 -1638 0
-2296 -273 0
-2296 -693 0
-2310 -1638 0
-2310 -273 0
-2310 -693 0
-1638 -273 0
-1638 -693 0
-273 -693 0
2234 2276 2297 2311 1639 274 694 0
-2234 -2276 0
-2234 -2297 0
-2234 -2311 0
-2234 -1639 0
-2234 -274 0
-2234 -694 0
-2276 -2297 0
-2276 -2311 0
-2276 -1639 0
-2276 -274 0
-2276 -694 0
-2297 -2311 0
-2297 -1639 0
-2297 -274 0
-2297 -694 0
-2311 -1639 0
-2311 -274 0
-2311 -694 0
-1639 -274 0
-1639 -694 0
-274 -694 0
2235 2277 2298 2312 1640 275 695 0
-2235 -2277 0
-2235 -2298 0
-2235 -2312 0
-2235 -1640 0
-2235 -275 0
-2235 -695 0
-2277 -2298 0
-2277 -2312 0
-2277 -1640 0
-2277 -275 0
-2277 -695 0
-2298 -2312 0
-2298 -1640 0
-2298 -275 0
-2298 -695 0
-2312 -1640 0
-2312 -275 0
-2312 -695 0
-1640 -275 0
-1640 -695 0
-275 -695 0
2236 2278 2299 2313 1641 276 696 0
-2236 -2278 0
-2236 -2299 0
-2236 -2313 0
-2236 -1641 0
-2236 -276 0
-2236 -696 0
-2278 -2299 0
-2278 -2313 0
-2278 -1641 0
-2278 -276 0
-2278 -696 0
-2299 -2313 0
-2299 -1641 0
-2299 -276 0
-2299 -696 0
-2313 -1641 0
-2313 -276 0
-2313 -696 0
-1641 -276 0
-1641 -696 0
-276 -696 0
2237 2279 2300 2314 1642 277 697 0
-2237 -2279 0
-2237 -2300 0
-2237 -2314 0
-2237 -1642 0
-2237 -277 0
-2237 -697 0
-2279 -2300 0
-2279 -2314 0
-2279 -1642 0
-2279 -277 0
-2279 -697 0
-2300 -2314 0
-2300 -1642 0
-2300 -277 0
-2300 -697 0
-2314 -1642 0
-2314 -277 0
-2314 -697 0
-1642 -277 0
-1642 -697 0
-277 -697 0
2238 2280 2301 2315 1643 278 698 0
-2238 -2280 0
-2238 -2301 0
-2238 -2315 0
-2238 -1643 0
-2238 -278 0
-2238 -698 0
-2280 -2301 0
-2280 -2315 0
-2280 -1643 0
-2280 -278 0
-2280 -698 0
-2301 -2315 0
-2301 -1643 0
-2301 -278 0
-2301 -698 0
-2315 -1643 0
-2315 -278 0
-2315 -698 0
-1643 -278 0
-1643 -698 0
-278 -698 0
2239 2281 2302 2309 1707 279 699 0
-2239 -2281 0
-2239 -2302 0
-2239 -2309 0
-2239 -1707 0
-2239 -279 0
-2239 -699 0
-2281 -2302 0
-2281 -2309 0
-2281 -1707 0
-2281 -279 0
-2281 -699 0
-2302 -2309 0
-2302 -1707 0
-2302 -279 0
-2302 -699 0
-2309 -1707 0
-2309 -279 0
-2309 -699 0
-1707 -279 0
-1707 -699 0
-279 -699 0
2240 2282 2303 2310 1708 280 700 0
-2240 -2282 0
-2240 -2303 0
-2240 -2310 0
-2240 -1708 0
-2240 -280 0
-2240 -700 0
-2282 -2303 0
-2282 -2310 0
-2282 -1708 0
-2282 -280 0
-2282 -700 0
-2303 -2310 0
-2303 -1708 0
-2303 -280 0
-2303 -700 0
-2310 -1708 0
-2310 -280 0
-2310 -700 0
-1708 -280 0
-1708 -700 0
-280 -700 0
2241 2283 2304 2311 1709 281 701 0
-2241 -2283 0
-2241 -2304 0
-2241 -2311 0
-2241 -1709 0
-2241 -281 0
-2241 -701 0
-2283 -2304 0
-2283 -2311 0
-2283 -1709 0
-2283 -281 0
-2283 -701 0
-2304 -2311 0
-2304 -1709 0
-2304 -281 0
-2304 -701 0
-2311 -1709 0
-2311 -281 0
-2311 -701 0
-1709 -281 0
-1709 -701 0
-281 -701 0
2242 2284 2305 2312 1710 282 702 0
-2242 -2284 0
-2242 -2305 0
-2242 -2312 0
-2242 -1710 0
-2242 -282 0
-2242 -702 0
-2284 -2305 0
-2284 -2312 0
-2284 -1710 0
-2284 -282 0
-2284 -702 0
-2305 -2312 0
-2305 -1710 0
-2305 -282 0
-2305 -702 0
-2312 -1710 0
-2312 -282 0
-2312 -702 0
-1710 -282 0
-1710 -702 0
-282 -702 0
2243 2285 2306 2313 1711 283 703 0
-2243 -2285 0
-2243 -2306 0
-2243 -2313 0
-2243 -1711 0
-2243 -283 0
-2243 -703 0
-2285 -2306 0
-2285 -2313 0
-2285 -1711 0
-2285 -283 0
-2285 -703 0
-2306 -2313 0
-2306 -1711 0
-2306 -283 0
-2306 -703 0
-2313 -1711 0
-2313 -283 0
-2313 -703 0
-1711 -283 0
-1711 -703 0
-283 -703 0
2244 2286 2307 2314 1712 284 704 0
-2244 -2286 0
-2244 -2307 0
-2244 -2314 0
-2244 -1712 0
-2244 -284 0
-2244 -704 0
-2286 -2307 0
-2286 -2314 0
-2286 -1712 0
-2286 -284 0
-2286 -704 0
-2307 -2314 0
-2307 -1712 0
-2307 -284 0
-2307 -704 0
-2314 -1712 0
-2314 -284 0
-2314 -704 0
-1712 -284 0
-1712 -704 0
-284 -704 0
2245 2287 2308 2315 1713 285 705 0
-2245 -2287 0
-2245 -2308 0
-2245 -2315 0
-2245 -1713 0
-2245 -285 0
-2245 -705 0
-2287 -2308 0
-2287 -2315 0
-2287 -1713 0
-2287 -285 0
-2287 -705 0
-2308 -2315 0
-2308 -1713 0
-2308 -285 0
-2308 -705 0
-2315 -1713 0
-2315 -285 0
-2315 -705 0
-1713 -285 0
-1713 -705 0
-285 -705 0
2316 2323 2330 2337 734 286 391 0
-2316 -2323 0
-2316 -2330 0
-2316 -2337 0
-2316 -734 0
-2316 -286 0
-2316 -391 0
-2323 -2330 0
-2323 -2337 0
-2323 -734 0
-2323 -286 0
-2323 -391 0
-2330 -2337 0
-2330 -734 0
-2330 -286 0
-2330 -391 0
-2337 -734 0
-2337 -286 0
-2337 -391 0
-734 -286 0
-734 -391 0
-286 -391 0
2317 2324 2331 2338 735 287 392 0
-2317 -2324 0
-2317 -2331 0
-2317 -2338 0
-2317 -735 0
-2317 -287 0
-2317 -392 0
-2324 -2331 0
-2324 -2338 0
-2324 -735 0
-2324 -287 0
-2324 -392 0
-2331 -2338 0
-2331 -735 0
-2331 -287 0
-2331 -392 0
-2338 -735 0
-2338 -287 0
-2338 -392 0
-735 -287 0
-735 -392 0
-287 -392 0
2318 2325 2332 2339 736 288 393 0
-2318 -2325 0
-2318 -2332 0
-2318 -2339 0
-2318 -736 0
-2318 -288 0
-2318 -393 0
-2325 -2332 0
-2325 -2339 0
-2325 -736 0
-2325 -288 0
-2325 -393 0
-2332 -2339 0
-2332 -736 0
-2332 -288 0
-2332 -393 0
-2339 -736 0
-2339 -288 0
-2339 -393 0
-736 -288 0
-736 -393 0
-288 -393 0
2319 2326 2333 2340 737 289 394 0
-2319 -2326 0
-2319 -2333 0
-2319 -2340 0
-2319 -737 0
-2319 -289 0
-2319 -394 0
-2326 -2333 0
-2326 -2340 0
-2326 -737 0
-2326 -289 0
-2326 -394 0
-2333 -2340 0
-2333 -737 0
-2333 -289 0
-2333 -394 0
-2340 -737 0
-2340 -289 0
-2340 -394 0
-737 -289 0
-737 -394 0
-289 -394 0
2320 2327 2334 2341 738 290 395 0
-2320 -2327 0
-2320 -2334 0
-2320 -2341 0
-2320 -738 0
-2320 -290 0
-2320 -395 0
-2327 -2334 0
-2327 -2341 0
-2327 -738 0
-2327 -290 0
-2327 -395 0
-2334 -2341 0
-2334 -738 0
-2334 -290 0
-2334 -395 0
-2341 -738 0
-2341 -290 0
-2341 -395 0
-738 -290 0
-738 -395 0
-290 -395 0
2321 2328 2335 2342 739 291 396 0
-2321 -2328 0
-2321 -2335 0
-2321 -2342 0
-2321 -739 0
-2321 -291 0
-2321 -396 0
-2328 -2335 0
-2328 -2342 0
-2328 -739 0
-2328 -291 0
-2328 -396 0
-2335 -2342 0
-2335 -739 0
-2335 -291 0
-2335 -396 0
-2342 -739 0
-2342 -291 0
-2342 -396 0
-739 -291 0
-739 -396 0
-291 -396 0
2322 2329 2336 2343 740 292 397 0
-2322 -2329 0
-2322 -2336 0
-2322 -2343 0
-2322 -740 0
-2322 -292 0
-2322 -397 0
-2329 -2336 0
-2329 -2343 0
-2329 -740 0
-2329 -292 0
-2329 -397 0
-2336 -2343 0
-2336 -740 0
-2336 -292 0
-2336 -397 0
-2343 -740 0
-2343 -292 0
-2343 -397 0
-740 -292 0
-740 -397 0
-292 -397 0
2316 2344 2351 2358 804 293 398 0
-2316 -2344 0
-2316 -2351 0
-2316 -2358 0
-2316 -804 0
-2316 -293 0
-2316 -398 0
-2344 -2351 0
-2344 -2358 0
-2344 -804 0
-2344 -293 0
-2344 -398 0
-2351 -2358 0
-2351 -804 0
-2351 -293 0
-2351 -398 0
-2358 -804 0
-2358 -293 0
-2358 -398 0
-804 -293 0
-804 -398 0
-293 -398 0
2317 2345 2352 2359 805 294 399 0
-2317 -2345 0
-2317 -2352 0
-2317 -2359 0
-2317 -805 0
-2317 -294 0
-2317 -399 0
-2345 -2352 0
-2345 -2359 0
-2345 -805 0
-2345 -294 0
-2345 -399 0
-2352 -2359 0
-2352 -805 0
-2352 -294 0
-2352 -399 0
-2359 -805 0
-2359 -294 0
-2359 -399 0
-805 -294 0
-805 -399 0
-294 -399 0
2318 2346 2353 2360 806 295 400 0
-2318 -2346 0
-2318 -2353 0
-2318 -2360 0
-2318 -806 0
-2318 -295 0
-2318 -400 0
-2346 -2353 0
-2346 -2360 0
-2346 -806 0
-2346 -295 0
-2346 -400 0
-2353 -2360 0
-2353 -806 0
-2353 -295 0
-2353 -400 0
-2360 -806 0
-2360 -295 0
-2360 -400 0
-806 -295 0
-806 -400 0
-295 -400 0
2319 2347 2354 2361 807 296 401 0
-2319 -2347 0
-2319 -2354 0
-2319 -2361 0
-2319 -807 0
-2319 -296 0
-2319 -401 0
-2347 -2354 0
-2347 -2361 0
-2347 -807 0
-2347 -296 0
-2347 -401 0
-2354 -2361 0
-2354 -807 0
-2354 -296 0
-2354 -401 0
-2361 -807 0
-2361 -296 0
-2361 -401 0
-807 -296 0
-807 -401 0
-296 -401 0
2320 2348 2355 2362 808 297 402 0
-2320 -2348 0
-2320 -2355 0
-2320 -2362 0
-2320 -808 0
-2320 -297 0
-2320 -402 0
-2348 -2355 0
-2348 -2362 0
-2348 -808 0
-2348 -297 0
-2348 -402 0
-2355 -2362 0
-2355 -808 0
-2355 -297 0
-2355 -402 0
-2362 -808 0
-2362 -297 0
-2362 -402 0
-808 -297 0
-808 -402 0
-297 -402 0
2321 2349 2356 2363 809 298 403 0
-2321 -2349 0
-2321 -2356 0
-2321 -2363 0
-2321 -809 0
-2321 -298 0
-2321 -403 0
-2349 -2356 0
-2349 -2363 0
-2349 -809 0
-2349 -298 0
-2349 -403 0
-2356 -2363 0
-2356 -809 0
-2356 -298 0
-2356 -403 0
-2363 -809 0
-2363 -298 0
-2363 -403 0
-809 -298 0
-809 -403 0
-298 -403 0
2322 2350 2357 2364 810 299 404 0
-2322 -2350 0
-2322 -2357 0
-2322 -2364 0
-2322 -810 0
-2322 -299 0
-2322 -404 0
-2350 -2357 0
-2350 -2364 0
-2350 -810 0
-2350 -299 0
-2350 -404 0
-2357 -2364 0
-2357 -810 0
-2357 -299 0
-2357 -404 0
-2364 -810 0
-2364 -299 0
-2364 -404 0
-810 -299 0
-810 -404 0
-299 -404 0
2323 2344 2365 2372 874 300 405 0
-2323 -2344 0
-2323 -2365 0
-2323 -2372 0
-2323 -874 0
-2323 -300 0
-2323 -405 0
-2344 -2365 0
-2344 -2372 0
-2344 -874 0
-2344 -300 0
-2344 -405 0
-2365 -2372 0
-2365 -874 0
-2365 -300 0
-2365 -405 0
-2372 -874 0
-2372 -300 0
-2372 -405 0
-874 -300 0
-874 -405 0
-300 -405 0
2324 2345 2366 2373 875 301 406 0
-2324 -2345 0
-2324 -2366 0
-2324 -2373 0
-2324 -875 0
-2324 -301 0
-2324 -406 0
-2345 -2366 0
-2345 -2373 0
-2345 -875 0
-2345 -301 0
-2345 -406 0
-2366 -2373 0
-2366 -875 0
-2366 -301 0
-2366 -406 0
-2373 -875 0
-2373 -301 0
-2373 -406 0
-875 -301 0
-875 -406 0
-301 -406 0
2325 2346 2367 2374 876 302 407 0
-2325 -2346 0
-2325 -2367 0
-2325 -2374 0
-2325 -876 0
-2325 -302 0
-2325 -407 0
-2346 -2367 0
-2346 -2374 0
-2346 -876 0
-2346 -302 0
-2346 -407 0
-2367 -2374 0
-2367 -876 0
-2367 -302 0
-2367 -407 0
-2374 -876 0
-2374 -302 0
-2374 -407 0
-876 -302 0
-876 -407 0
-302 -407 0
2326 2347 2368 2375 877 303 408 0
-2326 -2347 0
-2326 -2368 0
-2326 -2375 0
-2326 -877 0
-2326 -303 0
-2326 -408 0
-2347 -2368 0
-2347 -2375 0
-2347 -877 0
-2347 -303 0
-2347 -408 0
-2368 -2375 0
-2368 -877 0
-2368 -303 0
-2368 -408 0
-2375 -877 0
-2375 -303 0
-2375 -408 0
-877 -303 0
-877 -408 0
-303 -408 0
2327 2348 2369 2376 878 304 409 0
-2327 -2348 0
-2327 -2369 0
-2327 -2376 0
-2327 -878 0
-2327 -304 0
-2327 -409 0
-2348 -2369 0
-2348 -2376 0
-2348 -878 0
-2348 -304 0
-2348 -409 0
-2369 -2376 0
-2369 -878 0
-2369 -304 0
-2369 -409 0
-2376 -878 0
-2376 -304 0
-2376 -409 0
-878 -304 0
-878 -409 0
-304 -409 0
2328 2349 2370 2377 879 305 410 0
-2328 -2349 0
-2328 -2370 0
-2328 -2377 0
-2328 -879 0
-2328 -305 0
-2328 -410 0
-2349 -2370 0
-2349 -2377 0
-2349 -879 0
-2349 -305 0
-2349 -410 0
-2370 -2377 0
-2370 -879 0
-2370 -305 0
-2370 -410 0
-2377 -879 0
-2377 -305 0
-2377 -410 0
-879 -305 0
-879 -410 0
-305 -410 0
2329 2350 2371 2378 880 306 411 0
-2329 -2350 0
-2329 -2371 0
-2329 -2378 0
-2329 -880 0
-2329 -306 0
-2329 -411 0
-2350 -2371 0
-2350 -2378 0
-2350 -880 0
-2350 -306 0
-2350 -411 0
-2371 -2378 0
-2371 -880 0
-2371 -306 0
-2371 -411 0
-2378 -880 0
-2378 -306 0
-2378 -411 0
-880 -306 0
-880 -411 0
-306 -411 0
2330 2351 2365 2379 944 307 412 0
-2330 -2351 0
-2330 -2365 0
-2330 -2379 0
-2330 -944 0
-2330 -307 0
-2330 -412 0
-2351 -2365 0
-2351 -2379 0
-2351 -944 0
-2351 -307 0
-2351 -412 0
-2365 -2379 0
-2365 -944 0
-2365 -307 0
-2365 -412 0
-2379 -944 0
-2379 -307 0
-2379 -412 0
-944 -307 0
-944 -412 0
-307 -412 0
2331 2352 2366 2380 945 308 413 0
-2331 -2352 0
-2331 -2366 0
-2331 -2380 0
-2331 -945 0
-2331 -308 0
-2331 -413 0
-2352 -2366 0
-2352 -2380 0
-2352 -945 0
-2352 -308 0
-2352 -413 0
-2366 -2380 0
-2366 -945 0
-2366 -308 0
-2366 -413 0
-2380 -945 0
-2380 -308 0
-2380 -413 0
-945 -308 0
-945 -413 0
-308 -413 0
2332 2353 2367 2381 946 309 414 0
-2332 -2353 0
-2332 -2367 0
-2332 -2381 0
-2332 -946 0
-2332 -309 0
-2332 -414 0
-2353 -2367 0
-2353 -2381 0
-2353 -946 0
-2353 -309 0
-2353 -414 0
-2367 -2381 0
-2367 -946 0
-2367 -309 0
-2367 -414 0
-2381 -946 0
-2381 -309 0
-2381 -414 0
-946 -309 0
-946 -414 0
-309 -414 0
2333 2354 2368 2382 947 310 415 0
-2333 -2354 0
-2333 -2368 0
-2333 -2382 0
-2333 -947 0
-2333 -310 0
-2333 -415 0
-2354 -2368 0
-2354 -2382 0
-2354 -947 0
-2354 -310 0
-2354 -415 0
-2368 -2382 0
-2368 -947 0
-2368 -310 0
-2368 -415 0
-2382 -947 0
-2382 -310 0
-2382 -415 0
-947 -310 0
-947 -415 0
-310 -415 0
2334 2355 2369 2383 948 311 416 0
-2334 -2355 0
-2334 -2369 0
-2334 -2383 0
-2334 -948 0
-2334 -311 0
-2334 -416 0
-2355 -2369 0
-2355 -2383 0
-2355 -948 0
-2355 -311 0
-2355 -416 0
-2369 -2383 0
-2369 -948 0
-2369 -311 0
-2369 -416 0
-2383 -948 0
-2383 -311 0
-2383 -416 0
-948 -311 0
-948 -416 0
-311 -416 0
2335 2356 2370 2384 949 312 417 0
-2335 -2356 0
-2335 -2370 0
-2335 -2384 0
-2335 -949 0
-2335 -312 0
-2335 -417 0
-2356 -2370 0
-2356 -2384 0
-2356 -949 0
-2356 -312 0
-2356 -417 0
-2370 -2384 0
-2370 -949 0
-2370 -312 0
-2370 -417 0
-2384 -949 0
-2384 -312 0
-2384 -417 0
-949 -312 0
-949 -417 0
-312 -417 0
2336 2357 2371 2385 950 313 418 0
-2336 -2357 0
-2336 -2371 0
-2336 -2385 0
-2336 -950 0
-2336 -313 0
-2336 -418 0
-2357 -2371 0
-2357 -2385 0
-2357 -950 0
-2357 -313 0
-2357 -418 0
-2371 -2385 0
-2371 -950 0
-2371 -313 0
-2371 -418 0
-2385 -950 0
-2385 -313 0
-2385 -418 0
-950 -313 0
-950 -418 0
-313 -418 0
2337 2358 2372 2379 1014 314 419 0
-2337 -2358 0
-2337 -2372 0
-2337 -2379 0
-2337 -1014 0
-2337 -314 0
-2337 -419 0
-2358 -2372 0
-2358 -2379 0
-2358 -1014 0
-2358 -314 0
-2358 -419 0
-2372 -2379 0
-2372 -1014 0
-2372 -314 0
-2372 -419 0
-2379 -1014 0
-2379 -314 0
-2379 -419 0
-1014 -314 0
-1014 -419 0
-314 -419 0
2338 2359 2373 2380 1015 315 420 0
-2338 -2359 0
-2338 -2373 0
-2338 -2380 0
-2338 -1015 0
-2338 -315 0
-2338 -420 0
-2359 -2373 0
-2359 -2380 0
-2359 -1015 0
-2359 -315 0
-2359 -420 0
-2373 -2380 0
-2373 -1015 0
-2373 -315 0
-2373 -420 0
-2380 -1015 0
-2380 -315 0
-2380 -420 0
-1015 -315 0
-1015 -420 0
-315 -420 0
2339 2360 2374 2381 1016 316 421 0
-2339 -2360 0
-2339 -2374 0
-2339 -2381 0
-2339 -1016 0
-2339 -316 0
-2339 -421 0
-2360 -2374 0
-2360 -2381 0
-2360 -1016 0
-2360 -316 0
-2360 -421 0
-2374 -2381 0
-2374 -1016 0
-2374 -316 0
-2374 -421 0
-2381 -1016 0
-2381 -316 0
-2381 -421 0
-1016 -316 0
-1016 -421 0
-316 -421 0
2340 2361 2375 2382 1017 317 422 0
-2340 -2361 0
-2340 -2375 0
-2340 -2382 0
-2340 -1017 0
-2340 -317 0
-2340 -422 0
-2361 -2375 0
-2361 -2382 0
-2361 -1017 0
-2361 -317 0
-2361 -422 0
-2375 -2382 0
-2375 -1017 0
-2375 -317 0
-2375 -422 0
-2382 -1017 0
-2382 -317 0
-2382 -422 0
-1017 -317 0
-1017 -422 0
-317 -422 0
2341 2362 2376 2383 1018 318 423 0
-2341 -2362 0
-2341 -2376 0
-2341 -2383 0
-2341 -1018 0
-2341 -318 0
-2341 -423 0
-2362 -2376 0
-2362 -2383 0
-2362 -1018 0
-2362 -318 0
-2362 -423 0
-2376 -2383 0
-2376 -1018 0
-2376 -318 0
-2376 -423 0
-2383 -1018 0
-2383 -318 0
-2383 -423 0
-1018 -318 0
-1018 -423 0
-318 -423 0
2342 2363 2377 2384 1019 319 424 0
-2342 -2363 0
-2342 -2377 0
-2342 -2384 0
-2342 -1019 0
-2342 -319 0
-2342 -424 0
-2363 -2377 0
-2363 -2384 0
-2363 -1019 0
-2363 -319 0
-2363 -424 0
-2377 -2384 0
-2377 -1019 0
-2377 -319 0
-2377 -424 0
-2384 -1019 0
-2384 -319 0
-2384 -424 0
-1019 -319 0
-1019 -424 0
-319 -424 0
2343 2364 2378 2385 1020 320 425 0
-2343 -2364 0
-2343 -2378 0
-2343 -2385 0
-2343 -1020 0
-2343 -320 0
-2343 -425 0
-2364 -2378 0
-2364 -2385 0
-2364 -1020 0
-2364 -320 0
-2364 -425 0
-2378 -2385 0
-2378 -1020 0
-2378 -320 0
-2378 -425 0
-2385 -1020 0
-2385 -320 0
-2385 -425 0
-1020 -320 0
-1020 -425 0
-320 -425 0
2316 2386 2393 2400 1084 321 426 0
-2316 -2386 0
-2316 -2393 0
-2316 -2400 0
-2316 -1084 0
-2316 -321 0
-2316 -426 0
-2386 -2393 0
-2386 -2400 0
-2386 -1084 0
-2386 -321 0
-2386 -426 0
-2393 -2400 0
-2393 -1084 0
-2393 -321 0
-2393 -426 0
-2400 -1084 0
-2400 -321 0
-2400 -426 0
-1084 -321 0
-1084 -426 0
-321 -426 0
2317 2387 2394 2401 1085 322 427 0
-2317 -2387 0
-2317 -2394 0
-2317 -2401 0
-2317 -1085 0
-2317 -322 0
-2317 -427 0
-2387 -2394 0
-2387 -2401 0
-2387 -1085 0
-2387 -322 0
-2387 -427 0
-2394 -2401 0
-2394 -1085 0
-2394 -322 0
-2394 -427 0
-2401 -1085 0
-2401 -322 0
-2401 -427 0
-1085 -322 0
-1085 -427 0
-322 -427 0
2318 2388 2395 2402 1086 323 428 0
-2318 -2388 0
-2318 -2395 0
-2318 -2402 0
-2318 -1086 0
-2318 -323 0
-2318 -428 0
-2388 -2395 0
-2388 -2402 0
-2388 -1086 0
-2388 -323 0
-2388 -428 0
-2395 -2402 0
-2395 -1086 0
-2395 -323 0
-2395 -428 0
-2402 -1086 0
-2402 -323 0
-2402 -428 0
-1086 -323 0
-1086 -428 0
-323 -428 0
2319 2389 2396 2403 1087 324 429 0
-2319 -2389 0
-2319 -2396 0
-2319 -2403 0
-2319 -1087 0
-2319 -324 0
-2319 -429 0
-2389 -2396 0
-2389 -2403 0
-2389 -1087 0
-2389 -324 0
-2389 -429 0
-2396 -2403 0
-2396 -1087 0
-2396 -324 0
-2396 -429 0
-2403 -1087 0
-2403 -324 0
-2403 -429 0
-1087 -324 0
-1087 -429 0
-324 -429 0
2320 2390 2397 2404 1088 325 430 0
-2320 -2390 0
-2320 -2397 0
-2320 -2404 0
-2320 -1088 0
-2320 -325 0
-2320 -430 0
-2390 -2397 0
-2390 -2404 0
-2390 -1088 0
-2390 -325 0
-2390 -430 0
-2397 -2404 0
-2397 -1088 0
-2397 -325 0
-2397 -430 0
-2404 -1088 0
-2404 -325 0
-2404 -430 0
-1088 -325 0
-1088 -430 0
-325 -430 0
2321 2391 2398 2405 1089 326 431 0
-2321 -2391 0
-2321 -2398 0
-2321 -2405 0
-2321 -1089 0
-2321 -326 0
-2321 -431 0
-2391 -2398 0
-2391 -2405 0
-2391 -1089 0
-2391 -326 0
-2391 -431 0
-2398 -2405 0
-2398 -1089 0
-2398 -326 0
-2398 -431 0
-2405 -1089 0
-2405 -326 0
-2405 -431 0
-1089 -326 0
-1089 -431 0
-326 -431 0
2322 2392 2399 2406 1090 327 432 0
-2322 -2392 0
-2322 -2399 0
-2322 -2406 0
-2322 -1090 0
-2322 -327 0
-2322 -432 0
-2392 -2399 0
-2392 -2406 0
-2392 -1090 0
-2392 -327 0
-2392 -432 0
-2399 -2406 0
-2399 -1090 0
-2399 -327 0
-2399 -432 0
-2406 -1090 0
-2406 -327 0
-2406 -432 0
-1090 -327 0
-1090 -432 0
-327 -432 0
2323 2386 2407 2414 1154 328 433 0
-2323 -2386 0
-2323 -2407 0
-2323 -2414 0
-2323 -1154 0
-2323 -328 0
-2323 -433 0
-2386 -2407 0
-2386 -2414 0
-2386 -1154 0
-2386 -328 0
-2386 -433 0
-2407 -2414 0
-2407 -1154 0
-2407 -328 0
-2407 -433 0
-2414 -1154 0
-2414 -328 0
-2414 -433 0
-1154 -328 0
-1154 -433 0
-328 -433 0
2324 2387 2408 2415 1155 329 434 0
-2324 -2387 0
-2324 -2408 0
-2324 -2415 0
-2324 -1155 0
-2324 -329 0
-2324 -434 0
-2387 -2408 0
-2387 -2415 0
-2387 -1155 0
-2387 -329 0
-2387 -434 0
-2408 -2415 0
-2408 -1155 0
-2408 -329 0
-2408 -434 0
-2415 -1155 0
-2415 -329 0
-2415 -434 0
-1155 -329 0
-1155 -434 0
-329 -434 0
2325 2388 2409 2416 1156 330 435 0
-2325 -2388 0
-2325 -2409 0
-2325 -2416 0
-2325 -1156 0
-2325 -330 0
-2325 -435 0
-2388 -2409 0
-2388 -2416 0
-2388 -1156 0
-2388 -330 0
-2388 -435 0
-2409 -2416 0
-2409 -1156 0
-2409 -330 0
-2409 -435 0
-2416 -1156 0
-2416 -330 0
-2416 -435 0
-1156 -330 0
-1156 -435 0
-330 -435 0
2326 2389 2410 2417 1157 331 436 0
-2326 -2389 0
-2326 -2410 0
-2326 -2417 0
-2326 -1157 0
-2326 -331 0
-2326 -436 0
-2389 -2410 0
-2389 -2417 0
-2389 -1157 0
-2389 -331 0
-2389 -436 0
-2410 -2417 0
-2410 -1157 0
-2410 -331 0
-2410 -436 0
-2417 -1157 0
-2417 -331 0
-2417 -436 0
-1157 -331 0
-1157 -436 0
-331 -436 0
2327 2390 2411 2418 1158 332 437 0
-2327 -2390 0
-2327 -2411 0
-2327 -2418 0
-2327 -1158 0
-2327 -332 0
-2327 -437 0
-2390 -2411 0
-2390 -2418 0
-2390 -1158 0
-2390 -332 0
-2390 -437 0
-2411 -2418 0
-2411 -1158 0
-2411 -332 0
-2411 -437 0
-2418 -1158 0
-2418 -332 0
-2418 -437 0
-1158 -332 0
-1158 -437 0
-332 -437 0
2328 2391 2412 2419 1159 333 438 0
-2328 -2391 0
-2328 -2412 0
-2328 -2419 0
-2328 -1159 0
-2328 -333 0
-2328 -438 0
-2391 -2412 0
-2391 -2419 0
-2391 -1159 0
-2391 -333 0
-2391 -438 0
-2412 -2419 0
-2412 -1159 0
-2412 -333 0
-2412 -438 0
-2419 -1159 0
-2419 -333 0
-2419 -438 0
-1159 -333 0
-1159 -438 0
-333 -438 0
2329 2392 2413 2420 1160 334 439 0
-2329 -2392 0
-2329 -2413 0
-2329 -2420 0
-2329 -1160 0
-2329 -334 0
-2329 -439 0
-2392 -2413 0
-2392 -2420 0
-2392 -1160 0
-2392 -334 0
-2392 -439 0
-2413 -2420 0
-2413 -1160 0
-2413 -334 0
-2413 -439 0
-2420 -1160 0
-2420 -334 0
-2420 -439 0
-1160 -334 0
-1160 -439 0
-334 -439 0
2330 2393 2407 2421 1224 335 440 0
-2330 -2393 0
-2330 -2407 0
-2330 -2421 0
-2330 -1224 0
-2330 -335 0
-2330 -440 0
-2393 -2407 0
-2393 -2421 0
-2393 -1224 0
-2393 -335 0
-2393 -440 0
-2407 -2421 0
-2407 -1224 0
-2407 -335 0
-2407 -440 0
-2421 -1224 0
-2421 -335 0
-2421 -440 0
-1224 -335 0
-1224 -440 0
-335 -440 0
2331 2394 2408 2422 1225 336 441 0
-2331 -2394 0
-2331 -2408 0
-2331 -2422 0
-2331 -1225 0
-2331 -336 0
-2331 -441 0
-2394 -2408 0
-2394 -2422 0
-2394 -1225 0
-2394 -336 0
-2394 -441 0
-2408 -2422 0
-2408 -1225 0
-2408 -336 0
-2408 -441 0
-2422 -1225 0
-2422 -336 0
-2422 -441 0
-1225 -336 0
-1225 -441 0
-336 -441 0
2332 2395 2409 2423 1226 337 442 0
-2332 -2395 0
-2332 -2409 0
-2332 -2423 0
-2332 -1226 0
-2332 -337 0
-2332 -442 0
-2395 -2409 0
-2395 -2423 0
-2395 -1226 0
-2395 -337 0
-2395 -442 0
-2409 -2423 0
-2409 -1226 0
-2409 -337 0
-2409 -442 0
-2423 -1226 0
-2423 -337 0
-2423 -442 0
-1226 -337 0
-1226 -442 0
-337 -442 0
2333 2396 2410 2424 1227 338 443 0
-2333 -2396 0
-2333 -2410 0
-2333 -2424 0
-2333 -1227 0
-2333 -338 0
-2333 -443 0
-2396 -2410 0
-2396 -2424 0
-2396 -1227 0
-2396 -338 0
-2396 -443 0
-2410 -2424 0
-2410 -1227 0
-2410 -338 0
-2410 -443 0
-2424 -1227 0
-2424 -338 0
-2424 -443 0
-1227 -338 0
-1227 -443 0
-338 -443 0
2334 2397 2411 2425 1228 339 444 0
-2334 -2397 0
-2334 -2411 0
-2334 -2425 0
-2334 -1228 0
-2334 -339 0
-2334 -444 0
-2397 -2411 0
-2397 -2425 0
-2397 -1228 0
-2397 -339 0
-2397 -444 0
-2411 -2425 0
-2411 -1228 0
-2411 -339 0
-2411 -444 0
-2425 -1228 0
-2425 -339 0
-2425 -444 0
-1228 -339 0
-1228 -444 0
-339 -444 0
2335 2398 2412 2426 1229 340 445 0
-2335 -2398 0
-2335 -2412 0
-2335 -2426 0
-2335 -1229 0
-2335 -340 0
-2335 -445 0
-2398 -2412 0
-2398 -2426 0
-2398 -1229 0
-2398 -340 0
-2398 -445 0
-2412 -2426 0
-2412 -1229 0
-2412 -340 0
-2412 -445 0
-2426 -1229 0
-2426 -340 0
-2426 -445 0
-1229 -340 0
-1229 -445 0
-340 -445 0
2336 2399 2413 2427 1230 341 446 0
-2336 -2399 0
-2336 -2413 0
-2336 -2427 0
-2336 -1230 0
-2336 -341 0
-2336 -446 0
-2399 -2413 0
-2399 -2427 0
-2399 -1230 0
-2399 -341 0
-2399 -446 0
-2413 -2427 0
-2413 -1230 0
-2413 -341 0
-2413 -446 0
-2427 -1230 0
-2427 -341 0
-2427 -446 0
-1230 -341 0
-1230 -446 0
-341 -446 0
2337 2400 2414 2421 1294 342 447 0
-2337 -2400 0
-2337 -2414 0
-2337 -2421 0
-2337 -1294 0
-2337 -342 0
-2337 -447 0
-2400 -2414 0
-2400 -2421 0
-2400 -1294 0
-2400 -342 0
-2400 -447 0
-2414 -2421 0
-2414 -1294 0
-2414 -342 0
-2414 -447 0
-2421 -1294 0
-2421 -342 0
-2421 -447 0
-1294 -342 0
-1294 -447 0
-342 -447 0
2338 2401 2415 2422 1295 343 448 0
-2338 -2401 0
-2338 -2415 0
-2338 -2422 0
-2338 -1295 0
-2338 -343 0
-2338 -448 0
-2401 -2415 0
-2401 -2422 0
-2401 -1295 0
-2401 -343 0
-2401 -448 0
-2415 -2422 0
-2415 -1295 0
-2415 -343 0
-2415 -448 0
-2422 -1295 0
-2422 -343 0
-2422 -448 0
-1295 -343 0
-1295 -448 0
-343 -448 0
2339 2402 2416 2423 1296 344 449 0
-2339 -2402 0
-2339 -2416 0
-2339 -2423 0
-2339 -1296 0
-2339 -344 0
-2339 -449 0
-2402 -2416 0
-2402 -2423 0
-2402 -1296 0
-2402 -344 0
-2402 -449 0
-2416 -2423 0
-2416 -1296 0
-2416 -344 0
-2416 -449 0
-2423 -1296 0
-2423 -344 0
-2423 -449 0
-1296 -344 0
-1296 -449 0
-344 -449 0
2340 2403 2417 2424 1297 345 450 0
-2340 -2403 0
-2340 -2417 0
-2340 -2424 0
-2340 -1297 0
-2340 -345 0
-2340 -450 0
-2403 -2417 0
-2403 -2424 0
-2403 -1297 0
-2403 -345 0
-2403 -450 0
-2417 -2424 0
-2417 -1297 0
-2417 -345 0
-2417 -450 0
-2424 -1297 0
-2424 -345 0
-2424 -450 0
-1297 -345 0
-1297 -450 0
-345 -450 0
2341 2404 2418 2425 1298 346 451 0
-2341 -2404 0
-2341 -2418 0
-2341 -2425 0
-2341 -1298 0
-2341 -346 0
-2341 -451 0
-2404 -2418 0
-2404 -2425 0
-2404 -1298 0
-2404 -346 0
-2404 -451 0
-2418 -2425 0
-2418 -1298 0
-2418 -346 0
-2418 -451 0
-2425 -1298 0
-2425 -346 0
-2425 -451 0
-1298 -346 0
-1298 -451 0
-346 -451 0
2342 2405 2419 2426 1299 347 452 0
-2342 -2405 0
-2342 -2419 0
-2342 -2426 0
-2342 -1299 0
-2342 -347 0
-2342 -452 0
-2405 -2419 0
-2405 -2426 0
-2405 -1299 0
-2405 -347 0
-2405 -452 0
-2419 -2426 0
-2419 -1299 0
-2419 -347 0
-2419 -452 0
-2426 -1299 0
-2426 -347 0
-2426 -452 0
-1299 -347 0
-1299 -452 0
-347 -452 0
2343 2406 2420 2427 1300 348 453 0
-2343 -2406 0
-2343 -2420 0
-2343 -2427 0
-2343 -1300 0
-2343 -348 0
-2343 -453 0
-2406 -2420 0
-2406 -2427 0
-2406 -1300 0
-2406 -348 0
-2406 -453 0
-2420 -2427 0
-2420 -1300 0
-2420 -348 0
-2420 -453 0
-2427 -1300 0
-2427 -348 0
-2427 -453 0
-1300 -348 0
-1300 -453 0
-348 -453 0
2344 2386 2428 2435 1364 349 454 0
-2344 -2386 0
-2344 -2428 0
-2344 -2435 0
-2344 -1364 0
-2344 -349 0
-2344 -454 0
-2386 -2428 0
-2386 -2435 0
-2386 -1364 0
-2386 -349 0
-2386 -454 0
-2428 -2435 0
-2428 -1364 0
-2428 -349 0
-2428 -454 0
-2435 -1364 0
-2435 -349 0
-2435 -454 0
-1364 -349 0
-1364 -454 0
-349 -454 0
2345 2387 2429 2436 1365 350 455 0
-2345 -2387 0
-2345 -2429 0
-2345 -2436 0
-2345 -1365 0
-2345 -350 0
-2345 -455 0
-2387 -2429 0
-2387 -2436 0
-2387 -1365 0
-2387 -350 0
-2387 -455 0
-2429 -2436 0
-2429 -1365 0
-2429 -350 0
-2429 -455 0
-2436 -1365 0
-2436 -350 0
-2436 -455 0
-1365 -350 0
-1365 -455 0
-350 -455 0
2346 2388 2430 2437 1366 351 456 0
-2346 -2388 0
-2346 -2430 0
-2346 -2437 0
-2346 -1366 0
-2346 -351 0
-2346 -456 0
-2388 -2430 0
-2388 -2437 0
-2388 -1366 0
-2388 -351 0
-2388 -456 0
-2430 -2437 0
-2430 -1366 0
-2430 -351 0
-2430 -456 0
-2437 -1366 0
-2437 -351 0
-2437 -456 0
-1366 -351 0
-1366 -456 0
-351 -456 0
2347 2389 2431 2438 1367 352 457 0
-2347 -2389 0
-2347 -2431 0
-2347 -2438 0
-2347 -1367 0
-2347 -352 0
-2347 -457 0
-2389 -2431 0
-2389 -2438 0
-2389 -1367 0
-2389 -352 0
-2389 -457 0
-2431 -2438 0
-2431 -1367 0
-2431 -352 0
-2431 -457 0
-2438 -1367 0
-2438 -352 0
-2438 -457 0
-1367 -352 0
-1367 -457 0
-352 -457 0
2348 2390 2432 2439 1368 353 458 0
-2348 -2390 0
-2348 -2432 0
-2348 -2439 0
-2348 -1368 0
-2348 -353 0
-2348 -458 0
-2390 -2432 0
-2390 -2439 0
-2390 -1368 0
-2390 -353 0
-2390 -458 0
-2432 -2439 0
-2432 -1368 0
-2432 -353 0
-2432 -458 0
-2439 -1368 0
-2439 -353 0
-2439 -458 0
-1368 -353 0
-1368 -458 0
-353 -458 0
2349 2391 2433 2440 1369 354 459 0
-2349 -2391 0
-2349 -2433 0
-2349 -2440 0
-2349 -1369 0
-2349 -354 0
-2349 -459 0
-2391 -2433 0
-2391 -2440 0
-2391 -1369 0
-2391 -354 0
-2391 -459 0
-2433 -2440 0
-2433 -1369 0
-2433 -354 0
-2433 -459 0
-2440 -1369 0
-2440 -354 0
-2440 -459 0
-1369 -354 0
-1369 -459 0
-354 -459 0
2350 2392 2434 2441 1370 355 460 0
-2350 -2392 0
-2350 -2434 0
-2350 -2441 0
-2350 -1370 0
-2350 -355 0
-2350 -460 0
-2392 -2434 0
-2392 -2441 0
-2392 -1370 0
-2392 -355 0
-2392 -460 0
-2434 -2441 0
-2434 -1370 0
-2434 -355 0
-2434 -460 0
-2441 -1370 0
-2441 -355 0
-2441 -460 0
-1370 -355 0
-1370 -460 0
-355 -460 0
2351 2393 2428 2442 1434 356 461 0
-2351 -2393 0
-2351 -2428 0
-2351 -2442 0
-2351 -1434 0
-2351 -356 0
-2351 -461 0
-2393 -2428 0
-2393 -2442 0
-2393 -1434 0
-2393 -356 0
-2393 -461 0
-2428 -2442 0
-2428 -1434 0
-2428 -356 0
-2428 -461 0
-2442 -1434 0
-2442 -356 0
-2442 -461 0
-1434 -356 0
-1434 -461 0
-356 -461 0
2352 2394 2429 2443 1435 357 462 0
-2352 -2394 0
-2352 -2429 0
-2352 -2443 0
-2352 -1435 0
-2352 -357 0
-2352 -462 0
-2394 -2429 0
-2394 -2443 0
-2394 -1435 0
-2394 -357 0
-2394 -462 0
-2429 -2443 0
-2429 -1435 0
-2429 -357 0
-2429 -462 0
-2443 -1435 0
-2443 -357 0
-2443 -462 0
-1435 -357 0
-1435 -462 0
-357 -462 0
2353 2395 2430 2444 1436 358 463 0
-2353 -2395 0
-2353 -2430 0
-2353 -2444 0
-2353 -1436 0
-2353 -358 0
-2353 -463 0
-2395 -2430 0
-2395 -2444 0
-2395 -1436 0
-2395 -358 0
-2395 -463 0
-2430 -2444 0
-2430 -1436 0
-2430 -358 0
-2430 -463 0
-2444 -1436 0
-2444 -358 0
-2444 -463 0
-1436 -358 0
-1436 -463 0
-358 -463 0
2354 2396 2431 2445 1437 359 464 0
-2354 -2396 0
-2354 -2431 0
-2354 -2445 0
-2354 -1437 0
-2354 -359 0
-2354 -464 0
-2396 -2431 0
-2396 -2445 0
-2396 -1437 0
-2396 -359 0
-2396 -464 0
-2431 -2445 0
-2431 -1437 0
-2431 -359 0
-2431 -464 0
-2445 -1437 0
-2445 -359 0
-2445 -464 0
-1437 -359 0
-1437 -464 0
-359 -464 0
2355 2397 2432 2446 1438 360 465 0
-2355 -2397 0
-2355 -2432 0
-2355 -2446 0
-2355 -1438 0
-2355 -360 0
-2355 -465 0
-2397 -2432 0
-2397 -2446 0
-2397 -1438 0
-2397 -360 0
-2397 -465 0
-2432 -2446 0
-2432 -1438 0
-2432 -360 0
-2432 -465 0
-2446 -1438 0
-2446 -360 0
-2446 -465 0
-1438 -360 0
-1438 -465 0
-360 -465 0
2356 2398 2433 2447 1439 361 466 0
-2356 -2398 0
-2356 -2433 0
-2356 -2447 0
-2356 -1439 0
-2356 -361 0
-2356 -466 0
-2398 -2433 0
-2398 -2447 0
-2398 -1439 0
-2398 -361 0
-2398 -466 0
-2433 -2447 0
-2433 -1439 0
-2433 -361 0
-2433 -466 0
-2447 -1439 0
-2447 -361 0
-2447 -466 0
-1439 -361 0
-1439 -466 0
-361 -466 0
2357 2399 2434 2448 1440 362 467 0
-2357 -2399 0
-2357 -2434 0
-2357 -2448 0
-2357 -1440 0
-2357 -362 0
-2357 -467 0
-2399 -2434 0
-2399 -2448 0
-2399 -1440 0
-2399 -362 0
-2399 -467 0
-2434 -2448 0
-2434 -1440 0
-2434 -362 0
-2434 -467 0
-2448 -1440 0
-2448 -362 0
-2448 -467 0
-1440 -362 0
-1440 -467 0
-362 -467 0
2358 2400 2435 2442 1504 363 468 0
-2358 -2400 0
-2358 -2435 0
-2358 -2442 0
-2358 -1504 0
-2358 -363 0
-2358 -468 0
-2400 -2435 0
-2400 -2442 0
-2400 -1504 0
-2400 -363 0
-2400 -468 0
-2435 -2442 0
-2435 -1504 0
-2435 -363 0
-2435 -468 0
-2442 -1504 0
-2442 -363 0
-2442 -468 0
-1504 -363 0
-1504 -468 0
-363 -468 0
2359 2401 2436 2443 1505 364 469 0
-2359 -2401 0
-2359 -2436 0
-2359 -2443 0
-2359 -1505 0
-2359 -364 0
-2359 -469 0
-2401 -2436 0
-2401 -2443 0
-2401 -1505 0
-2401 -364 0
-2401 -469 0
-2436 -2443 0
-2436 -1505 0
-2436 -364 0
-2436 -469 0
-2443 -1505 0
-2443 -364 0
-2443 -469 0
-1505 -364 0
-1505 -469 0
-364 -469 0
2360 2402 2437 2444 1506 365 470 0
-2360 -2402 0
-2360 -2437 0
-2360 -2444 0
-2360 -1506 0
-2360 -365 0
-2360 -470 0
-2402 -2437 0
-2402 -2444 0
-2402 -1506 0
-2402 -365 0
-2402 -470 0
-2437 -2444 0
-2437 -1506 0
-2437 -365 0
-2437 -470 0
-2444 -1506 0
-2444 -365 0
-2444 -470 0
-1506 -365 0
-1506 -470 0
-365 -470 0
2361 2403 2438 2445 1507 366 471 0
-2361 -2403 0
-2361 -2438 0
-2361 -2445 0
-2361 -1507 0
-2361 -366 0
-2361 -471 0
-2403 -2438 0
-2403 -2445 0
-2403 -1507 0
-2403 -366 0
-2403 -471 0
-2438 -2445 0
-2438 -1507 0
-2438 -366 0
-2438 -471 0
-2445 -1507 0
-2445 -366 0
-2445 -471 0
-1507 -366 0
-1507 -471 0
-366 -471 0
2362 2404 2439 2446 1508 367 472 0
-2362 -2404 0
-2362 -2439 0
-2362 -2446 0
-2362 -1508 0
-2362 -367 0
-2362 -472 0
-2404 -2439 0
-2404 -2446 0
-2404 -1508 0
-2404 -367 0
-2404 -472 0
-2439 -2446 0
-2439 -1508 0
-2439 -367 0
-2439 -472 0
-2446 -1508 0
-2446 -367 0
-2446 -472 0
-1508 -367 0
-1508 -472 0
-367 -472 0
2363 2405 2440 2447 1509 368 473 0
-2363 -2405 0
-2363 -2440 0
-2363 -2447 0
-2363 -1509 0
-2363 -368 0
-2363 -473 0
-2405 -2440 0
-2405 -2447 0
-2405 -1509 0
-2405 -368 0
-2405 -473 0
-2440 -2447 0
-2440 -1509 0
-2440 -368 0
-2440 -473 0
-2447 -1509 0
-2447 -368 0
-2447 -473 0
-1509 -368 0
-1509 -473 0
-368 -473 0
2364 2406 2441 2448 1510 369 474 0
-2364 -2406 0
-2364 -2441 0
-2364 -2448 0
-2364 -1510 0
-2364 -369 0
-2364 -474 0
-2406 -2441 0
-2406 -2448 0
-2406 -1510 0
-2406 -369 0
-2406 -474 0
-2441 -2448 0
-2441 -1510 0
-2441 -369 0
-2441 -474 0
-2448 -1510 0
-2448 -369 0
-2448 -474 0
-1510 -369 0
-1510 -474 0
-369 -474 0
2365 2407 2428 2449 1574 370 475 0
-2365 -2407 0
-2365 -2428 0
-2365 -2449 0
-2365 -1574 0
-2365 -370 0
-2365 -475 0
-2407 -2428 0
-2407 -2449 0
-2407 -1574 0
-2407 -370 0
-2407 -475 0
-2428 -2449 0
-2428 -1574 0
-2428 -370 0
-2428 -475 0
-2449 -1574 0
-2449 -370 0
-2449 -475 0
-1574 -370 0
-1574 -475 0
-370 -475 0
2366 2408 2429 2450 1575 371 476 0
-2366 -2408 0
-2366 -2429 0
-2366 -2450 0
-2366 -1575 0
-2366 -371 0
-2366 -476 0
-2408 -2429 0
-2408 -2450 0
-2408 -1575 0
-2408 -371 0
-2408 -476 0
-2429 -2450 0
-2429 -1575 0
-2429 -371 0
-2429 -476 0
-2450 -1575 0
-2450 -371 0
-2450 -476 0
-1575 -371 0
-1575 -476 0
-371 -476 0
2367 2409 2430 2451 1576 372 477 0
-2367 -2409 0
-2367 -2430 0
-2367 -2451 0
-2367 -1576 0
-2367 -372 0
-2367 -477 0
-2409 -2430 0
-2409 -2451 0
-2409 -1576 0
-2409 -372 0
-2409 -477 0
-2430 -2451 0
-2430 -1576 0
-2430 -372 0
-2430 -477 0
-2451 -1576 0
-2451 -372 0
-2451 -477 0
-1576 -372 0
-1576 -477 0
-372 -477 0
2368 2410 2431 2452 1577 373 478 0
-2368 -2410 0
-2368 -2431 0
-2368 -2452 0
-2368 -1577 0
-2368 -373 0
-2368 -478 0
-2410 -2431 0
-2410 -2452 0
-2410 -1577 0
-2410 -373 0
-2410 -478 0
-2431 -2452 0
-2431 -1577 0
-2431 -373 0
-2431 -478 0
-2452 -1577 0
-2452 -373 0
-2452 -478 0
-1577 -373 0
-1577 -478 0
-373 -478 0
2369 2411 2432 2453 1578 374 479 0
-2369 -2411 0
-2369 -2432 0
-2369 -2453 0
-2369 -1578 0
-2369 -374 0
-2369 -479 0
-2411 -2432 0
-2411 -2453 0
-2411 -1578 0
-2411 -374 0
-2411 -479 0
-2432 -2453 0
-2432 -1578 0
-2432 -374 0
-2432 -479 0
-2453 -1578 0
-2453 -374 0
-2453 -479 0
-1578 -374 0
-1578 -479 0
-374 -479 0
2370 2412 2433 2454 1579 375 480 0
-2370 -2412 0
-2370 -2433 0
-2370 -2454 0
-2370 -1579 0
-2370 -375 0
-2370 -480 0
-2412 -2433 0
-2412 -2454 0
-2412 -1579 0
-2412 -375 0
-2412 -480 0
-2433 -2454 0
-2433 -1579 0
-2433 -375 0
-2433 -480 0
-2454 -1579 0
-2454 -375 0
-2454 -480 0
-1579 -375 0
-1579 -480 0
-375 -480 0
2371 2413 2434 2455 1580 376 481 0
-2371 -2413 0
-2371 -2434 0
-2371 -2455 0
-2371 -1580 0
-2371 -376 0
-2371 -481 0
-2413 -2434 0
-2413 -2455 0
-2413 -1580 0
-2413 -376 0
-2413 -481 0
-2434 -2455 0
-2434 -1580 0
-2434 -376 0
-2434 -481 0
-2455 -1580 0
-2455 -376 0
-2455 -481 0
-1580 -376 0
-1580 -481 0
-376 -481 0
2372 2414 2435 2449 1644 377 482 0
-2372 -2414 0
-2372 -2435 0
-2372 -2449 0
-2372 -1644 0
-2372 -377 0
-2372 -482 0
-2414 -2435 0
-2414 -2449 0
-2414 -1644 0
-2414 -377 0
-2414 -482 0
-2435 -2449 0
-2435 -1644 0
-2435 -377 0
-2435 -482 0
-2449 -1644 0
-2449 -377 0
-2449 -482 0
-1644 -377 0
-1644 -482 0
-377 -482 0
2373 2415 2436 2450 1645 378 483 0
-2373 -2415 0
-2373 -2436 0
-2373 -2450 0
-2373 -1645 0
-2373 -378 0
-2373 -483 0
-2415 -2436 0
-2415 -2450 0
-2415 -1645 0
-2415 -378 0
-2415 -483 0
-2436 -2450 0
-2436 -1645 0
-2436 -378 0
-2436 -483 0
-2450 -1645 0
-2450 -378 0
-2450 -483 0
-1645 -378 0
-1645 -483 0
-378 -483 0
2374 2416 2437 2451 1646 379 484 0
-2374 -2416 0
-2374 -2437 0
-2374 -2451 0
-2374 -1646 0
-2374 -379 0
-2374 -484 0
-2416 -2437 0
-2416 -2451 0
-2416 -1646 0
-2416 -379 0
-2416 -484 0
-2437 -2451 0
-2437 -1646 0
-2437 -379 0
-2437 -484 0
-2451 -1646 0
-2451 -379 0
-2451 -484 0
-1646 -379 0
-1646 -484 0
-379 -484 0
2375 2417 2438 2452 1647 380 485 0
-2375 -2417 0
-2375 -2438 0
-2375 -2452 0
-2375 -1647 0
-2375 -380 0
-2375 -485 0
-2417 -2438 0
-2417 -2452 0
-2417 -1647 0
-2417 -380 0
-2417 -485 0
-2438 -2452 0
-2438 -1647 0
-2438 -380 0
-2438 -485 0
-2452 -1647 0
-2452 -380 0
-2452 -485 0
-1647 -380 0
-1647 -485 0
-380 -485 0
2376 2418 2439 2453 1648 381 486 0
-2376 -2418 0
-2376 -2439 0
-2376 -2453 0
-2376 -1648 0
-2376 -381 0
-2376 -486 0
-2418 -2439 0
-2418 -2453 0
-2418 -1648 0
-2418 -381 0
-2418 -486 0
-2439 -2453 0
-2439 -1648 0
-2439 -381 0
-2439 -486 0
-2453 -1648 0
-2453 -381 0
-2453 -486 0
-1648 -381 0
-1648 -486 0
-381 -486 0
2377 2419 2440 2454 1649 382 487 0
-2377 -2419 0
-2377 -2440 0
-2377 -2454 0
-2377 -1649 0
-2377 -382 0
-2377 -487 0
-2419 -2440 0
-2419 -2454 0
-2419 -1649 0
-2419 -382 0
-2419 -487 0
-2440 -2454 0
-2440 -1649 0
-2440 -382 0
-2440 -487 0
-2454 -1649 0
-2454 -382 0
-2454 -487 0
-1649 -382 0
-1649 -487 0
-382 -487 0
2378 2420 2441 2455 1650 383 488 0
-2378 -2420 0
-2378 -2441 0
-2378 -2455 0
-2378 -1650 0
-2378 -383 0
-2378 -488 0
-2420 -2441 0
-2420 -2455 0
-2420 -1650 0
-2420 -383 0
-2420 -488 0
-2441 -2455 0
-2441 -1650 0
-2441 -383 0
-2441 -488 0
-2455 -1650 0
-2455 -383 0
-2455 -488 0
-1650 -383 0
-1650 -488 0
-383 -488 0
2379 2421 2442 2449 1714 384 489 0
-2379 -2421 0
-2379 -2442 0
-2379 -2449 0
-2379 -1714 0
-2379 -384 0
-2379 -489 0
-2421 -2442 0
-2421 -2449 0
-2421 -1714 0
-2421 -384 0
-2421 -489 0
-2442 -2449 0
-2442 -1714 0
-2442 -384 0
-2442 -489 0
-2449 -1714 0
-2449 -384 0
-2449 -489 0
-1714 -384 0
-1714 -489 0
-384 -489 0
2380 2422 2443 2450 1715 385 490 0
-2380 -2422 0
-2380 -2443 0
-2380 -2450 0
-2380 -1715 0
-2380 -385 0
-2380 -490 0
-2422 -2443 0
-2422 -2450 0
-2422 -1715 0
-2422 -385 0
-2422 -490 0
-2443 -2450 0
-2443 -1715 0
-2443 -385 0
-2443 -490 0
-2450 -1715 0
-2450 -385 0
-2450 -490 0
-1715 -385 0
-1715 -490 0
-385 -490 0
2381 2423 2444 2451 1716 386 491 0
-2381 -2423 0
-2381 -2444 0
-2381 -2451 0
-2381 -1716 0
-2381 -386 0
-2381 -491 0
-2423 -2444 0
-2423 -2451 0
-2423 -1716 0
-2423 -386 0
-2423 -491 0
-2444 -2451 0
-2444 -1716 0
-2444 -386 0
-2444 -491 0
-2451 -1716 0
-2451 -386 0
-2451 -491 0
-1716 -386 0
-1716 -491 0
-386 -491 0
2382 2424 2445 2452 1717 387 492 0
-2382 -2424 0
-2382 -2445 0
-2382 -2452 0
-2382 -1717 0
-2382 -387 0
-2382 -492 0
-2424 -2445 0
-2424 -2452 0
-2424 -1717 0
-2424 -387 0
-2424 -492 0
-2445 -2452 0
-2445 -1717 0
-2445 -387 0
-2445 -492 0
-2452 -1717 0
-2452 -387 0
-2452 -492 0
-1717 -387 0
-1717 -492 0
-387 -492 0
2383 2425 2446 2453 1718 388 493 0
-2383 -2425 0
-2383 -2446 0
-2383 -2453 0
-2383 -1718 0
-2383 -388 0
-2383 -493 0
-2425 -2446 0
-2425 -2453 0
-2425 -1718 0
-2425 -388 0
-2425 -493 0
-2446 -2453 0
-2446 -1718 0
-2446 -388 0
-2446 -493 0
-2453 -1718 0
-2453 -388 0
-2453 -493 0
-1718 -388 0
-1718 -493 0
-388 -493 0
2384 2426 2447 2454 1719 389 494 0
-2384 -2426 0
-2384 -2447 0
-2384 -2454 0
-2384 -1719 0
-2384 -389 0
-2384 -494 0
-2426 -2447 0
-2426 -2454 0
-2426 -1719 0
-2426 -389 0
-2426 -494 0
-2447 -2454 0
-2447 -1719 0
-2447 -389 0
-2447 -494 0
-2454 -1719 0
-2454 -389 0
-2454 -494 0
-1719 -389 0
-1719 -494 0
-389 -494 0
2385 2427 2448 2455 1720 390 495 0
-2385 -2427 0
-2385 -2448 0
-2385 -2455 0
-2385 -1720 0
-2385 -390 0
-2385 -495 0
-2427 -2448 0
-2427 -2455 0
-2427 -1720 0
-2427 -390 0
-2427 -495 0
-2448 -2455 0
-2448 -1720 0
-2448 -390 0
-2448 -495 0
-2455 -1720 0
-2455 -390 0
-2455 -495 0
-1720 -390 0
-1720 -495 0
-390 -495 0
2456 2463 2470 2477 741 286 496 0
-2456 -2463 0
-2456 -2470 0
-2456 -2477 0
-2456 -741 0
-2456 -286 0
-2456 -496 0
-2463 -2470 0
-2463 -2477 0
-2463 -741 0
-2463 -286 0
-2463 -496 0
-2470 -2477 0
-2470 -741 0
-2470 -286 0
-2470 -496 0
-2477 -741 0
-2477 -286 0
-2477 -496 0
-741 -286 0
-741 -496 0
-286 -496 0
2457 2464 2471 2478 742 287 497 0
-2457 -2464 0
-2457 -2471 0
-2457 -2478 0
-2457 -742 0
-2457 -287 0
-2457 -497 0
-2464 -2471 0
-2464 -2478 0
-2464 -742 0
-2464 -287 0
-2464 -497 0
-2471 -2478 0
-2471 -742 0
-2471 -287 0
-2471 -497 0
-2478 -742 0
-2478 -287 0
-2478 -497 0
-742 -287 0
-742 -497 0
-287 -497 0
2458 2465 2472 2479 743 288 498 0
-2458 -2465 0
-2458 -2472 0
-2458 -2479 0
-2458 -743 0
-2458 -288 0
-2458 -498 0
-2465 -2472 0
-2465 -2479 0
-2465 -743 0
-2465 -288 0
-2465 -498 0
-2472 -2479 0
-2472 -743 0
-2472 -288 0
-2472 -498 0
-2479 -743 0
-2479 -288 0
-2479 -498 0
-743 -288 0
-743 -498 0
-288 -498 0
2459 2466 2473 2480 744 289 499 0
-2459 -2466 0
-2459 -2473 0
-2459 -2480 0
-2459 -744 0
-2459 -289 0
-2459 -499 0
-2466 -2473 0
-2466 -2480 0
-2466 -744 0
-2466 -289 0
-2466 -499 0
-2473 -2480 0
-2473 -744 0
-2473 -289 0
-2473 -499 0
-2480 -744 0
-2480 -289 0
-2480 -499 0
-744 -289 0
-744 -499 0
-289 -499 0
2460 2467 2474 2481 745 290 500 0
-2460 -2467 0
-2460 -2474 0
-2460 -2481 0
-2460 -745 0
-2460 -290 0
-2460 -500 0
-2467 -2474 0
-2467 -2481 0
-2467 -745 0
-2467 -290 0
-2467 -500 0
-2474 -2481 0
-2474 -745 0
-2474 -290 0
-2474 -500 0
-2481 -745 0
-2481 -290 0
-2481 -500 0
-745 -290 0
-745 -500 0
-290 -500 0
2461 2468 2475 2482 746 291 501 0
-2461 -2468 0
-2461 -2475 0
-2461 -2482 0
-2461 -746 0
-2461 -291 0
-2461 -501 0
-2468 -2475 0
-2468 -2482 0
-2468 -746 0
-2468 -291 0
-2468 -501 0
-2475 -2482 0
-2475 -746 0
-2475 -291 0
-2475 -501 0
-2482 -746 0
-2482 -291 0
-2482 -501 0
-746 -291 0
-746 -501 0
-291 -501 0
2462 2469 2476 2483 747 292 502 0
-2462 -2469 0
-2462 -2476 0
-2462 -2483 0
-2462 -747 0
-2462 -292 0
-2462 -502 0
-2469 -2476 0
-2469 -2483 0
-2469 -747 0
-2469 -292 0
-2469 -502 0
-2476 -2483 0
-2476 -747 0
-2476 -292 0
-2476 -502 0
-2483 -747 0
-2483 -292 0
-2483 -502 0
-747 -292 0
-747 -502 0
-292 -502 0
2456 2484 2491 2498 811 293 503 0
-2456 -2484 0
-2456 -2491 0
-2456 -2498 0
-2456 -811 0
-2456 -293 0
-2456 -503 0
-2484 -2491 0
-2484 -2498 0
-2484 -811 0
-2484 -293 0
-2484 -503 0
-2491 -2498 0
-2491 -811 0
-2491 -293 0
-2491 -503 0
-2498 -811 0
-2498 -293 0
-2498 -503 0
-811 -293 0
-811 -503 0
-293 -503 0
2457 2485 2492 2499 812 294 504 0
-2457 -2485 0
-2457 -2492 0
-2457 -2499 0
-2457 -812 0
-2457 -294 0
-2457 -504 0
-2485 -2492 0
-2485 -2499 0
-2485 -812 0
-2485 -294 0
-2485 -504 0
-2492 -2499 0
-2492 -812 0
-2492 -294 0
-2492 -504 0
-2499 -812 0
-2499 -294 0
-2499 -504 0
-812 -294 0
-812 -504 0
-294 -504 0
2458 2486 2493 2500 813 295 505 0
-2458 -2486 0
-2458 -2493 0
-2458 -2500 0
-2458 -813 0
-2458 -295 0
-2458 -505 0
-2486 -2493 0
-2486 -2500 0
-2486 -813 0
-2486 -295 0
-2486 -505 0
-2493 -2500 0
-2493 -813 0
-2493 -295 0
-2493 -505 0
-2500 -813 0
-2500 -295 0
-2500 -505 0
-813 -295 0
-813 -505 0
-295 -505 0
2459 2487 2494 2501 814 296 506 0
-2459 -2487 0
-2459 -2494 0
-2459 -2501 0
-2459 -814 0
-2459 -296 0
-2459 -506 0
-2487 -2494 0
-2487 -2501 0
-2487 -814 0
-2487 -296 0
-2487 -506 0
-2494 -2501 0
-2494 -814 0
-2494 -296 0
-2494 -506 0
-2501 -814 0
-2501 -296 0
-2501 -506 0
-814 -296 0
-814 -506 0
-296 -506 0
2460 2488 2495 2502 815 297 507 0
-2460 -2488 0
-2460 -2495 0
-2460 -2502 0
-2460 -815 0
-2460 -297 0
-2460 -507 0
-2488 -2495 0
-2488 -2502 0
-2488 -815 0
-2488 -297 0
-2488 -507 0
-2495 -2502 0
-2495 -815 0
-2495 -297 0
-2495 -507 0
-2502 -815 0
-2502 -297 0
-2502 -507 0
-815 -297 0
-815 -507 0
-297 -507 0
2461 2489 2496 2503 816 298 508 0
-2461 -2489 0
-2461 -2496 0
-2461 -2503 0
-2461 -816 0
-2461 -298 0
-2461 -508 0
-2489 -2496 0
-2489 -2503 0
-2489 -816 0
-2489 -298 0
-2489 -508 0
-2496 -2503 0
-2496 -816 0
-2496 -298 0
-2496 -508 0
-2503 -816 0
-2503 -298 0
-2503 -508 0
-816 -298 0
-816 -508 0
-298 -508 0
2462 2490 2497 2504 817 299 509 0
-2462 -2490 0
-2462 -2497 0
-2462 -2504 0
-2462 -817 0
-2462 -299 0
-2462 -509 0
-2490 -2497 0
-2490 -2504 0
-2490 -817 0
-2490 -299 0
-2490 -509 0
-2497 -2504 0
-2497 -817 0
-2497 -299 0
-2497 -509 0
-2504 -817 0
-2504 -299 0
-2504 -509 0
-817 -299 0
-817 -509 0
-299 -509 0
2463 2484 2505 2512 881 300 510 0
-2463 -2484 0
-2463 -2505 0
-2463 -2512 0
-2463 -881 0
-2463 -300 0
-2463 -510 0
-2484 -2505 0
-2484 -2512 0
-2484 -881 0
-2484 -300 0
-2484 -510 0
-2505 -2512 0
-2505 -881 0
-2505 -300 0
-2505 -510 0
-2512 -881 0
-2512 -300 0
-2512 -510 0
-881 -300 0
-881 -510 0
-300 -510 0
2464 2485 2506 2513 882 301 511 0
-2464 -2485 0
-2464 -2506 0
-2464 -2513 0
-2464 -882 0
-2464 -301 0
-2464 -511 0
-2485 -2506 0
-2485 -2513 0
-2485 -882 0
-2485 -301 0
-2485 -511 0
-2506 -2513 0
-2506 -882 0
-2506 -301 0
-2506 -511 0
-2513 -882 0
-2513 -301 0
-2513 -511 0
-882 -301 0
-882 -511 0
-301 -511 0
2465 2486 2507 2514 883 302 512 0
-2465 -2486 0
-2465 -2507 0
-2465 -2514 0
-2465 -883 0
-2465 -302 0
-2465 -512 0
-2486 -2507 0
-2486 -2514 0
-2486 -883 0
-2486 -302 0
-2486 -512 0
-2507 -2514 0
-2507 -883 0
-2507 -302 0
-2507 -512 0
-2514 -883 0
-2514 -302 0
-2514 -512 0
-883 -302 0
-883 -512 0
-302 -512 0
2466 2487 2508 2515 884 303 513 0
-2466 -2487 0
-2466 -2508 0
-2466 -2515 0
-2466 -884 0
-2466 -303 0
-2466 -513 0
-2487 -2508 0
-2487 -2515 0
-2487 -884 0
-2487 -303 0
-2487 -513 0
-2508 -2515 0
-2508 -884 0
-2508 -303 0
-2508 -513 0
-2515 -884 0
-2515 -303 0
-2515 -513 0
-884 -303 0
-884 -513 0
-303 -513 0
2467 2488 2509 2516 885 304 514 0
-2467 -2488 0
-2467 -2509 0
-2467 -2516 0
-2467 -885 0
-2467 -304 0
-2467 -514 0
-2488 -2509 0
-2488 -2516 0
-2488 -885 0
-2488 -304 0
-2488 -514 0
-2509 -2516 0
-2509 -885 0
-2509 -304 0
-2509 -514 0
-2516 -885 0
-2516 -304 0
-2516 -514 0
-885 -304 0
-885 -514 0
-304 -514 0
2468 2489 2510 2517 886 305 515 0
-2468 -2489 0
-2468 -2510 0
-2468 -2517 0
-2468 -886 0
-2468 -305 0
-2468 -515 0
-2489 -2510 0
-2489 -2517 0
-2489 -886 0
-2489 -305 0
-2489 -515 0
-2510 -2517 0
-2510 -886 0
-2510 -305 0
-2510 -515 0
-2517 -886 0
-2517 -305 0
-2517 -515 0
-886 -305 0
-886 -515 0
-305 -515 0
2469 2490 2511 2518 887 306 516 0
-2469 -2490 0
-2469 -2511 0
-2469 -2518 0
-2469 -887 0
-2469 -306 0
-2469 -516 0
-2490 -2511 0
-2490 -2518 0
-2490 -887 0
-2490 -306 0
-2490 -516 0
-2511 -2518 0
-2511 -887 0
-2511 -306 0
-2511 -516 0
-2518 -887 0
-2518 -306 0
-2518 -516 0
-887 -306 0
-887 -516 0
-306 -516 0
2470 2491 2505 2519 951 307 517 0
-2470 -2491 0
-2470 -2505 0
-2470 -2519 0
-2470 -951 0
-2470 -307 0
-2470 -517 0
-2491 -2505 0
-2491 -2519 0
-2491 -951 0
-2491 -307 0
-2491 -517 0
-2505 -2519 0
-2505 -951 0
-2505 -307 0
-2505 -517 0
-2519 -951 0
-2519 -307 0
-2519 -517 0
-951 -307 0
-951 -517 0
-307 -517 0
2471 2492 2506 2520 952 308 518 0
-2471 -2492 0
-2471 -2506 0
-2471 -2520 0
-2471 -952 0
-2471 -308 0
-2471 -518 0
-2492 -2506 0
-2492 -2520 0
-2492 -952 0
-2492 -308 0
-2492 -518 0
-2506 -2520 0
-2506 -952 0
-2506 -308 0
-2506 -518 0
-2520 -952 0
-2520 -308 0
-2520 -518 0
-952 -308 0
-952 -518 0
-308 -518 0
2472 2493 2507 2521 953 309 519 0
-2472 -2493 0
-2472 -2507 0
-2472 -2521 0
-2472 -953 0
-2472 -309 0
-2472 -519 0
-2493 -2507 0
-2493 -2521 0
-2493 -953 0
-2493 -309 0
-2493 -519 0
-2507 -2521 0
-2507 -953 0
-2507 -309 0
-2507 -519 0
-2521 -953 0
-2521 -309 0
-2521 -519 0
-953 -309 0
-953 -519 0
-309 -519 0
2473 2494 2508 2522 954 310 520 0
-2473 -2494 0
-2473 -2508 0
-2473 -2522 0
-2473 -954 0
-2473 -310 0
-2473 -520 0
-2494 -2508 0
-2494 -2522 0
-2494 -954 0
-2494 -310 0
-2494 -520 0
-2508 -2522 0
-2508 -954 0
-2508 -310 0
-2508 -520 0
-2522 -954 0
-2522 -310 0
-2522 -520 0
-954 -310 0
-954 -520 0
-310 -520 0
2474 2495 2509 2523 955 311 521 0
-2474 -2495 0
-2474 -2509 0
-2474 -2523 0
-2474 -955 0
-2474 -311 0
-2474 -521 0
-2495 -2509 0
-2495 -2523 0
-2495 -955 0
-2495 -311 0
-2495 -521 0
-2509 -2523 0
-2509 -955 0
-2509 -311 0
-2509 -521 0
-2523 -955 0
-2523 -311 0
-2523 -521 0
-955 -311 0
-955 -521 0
-311 -521 0
2475 2496 2510 2524 956 312 522 0
-2475 -2496 0
-2475 -2510 0
-2475 -2524 0
-2475 -956 0
-2475 -312 0
-2475 -522 0
-2496 -2510 0
-2496 -2524 0
-2496 -956 0
-2496 -312 0
-2496 -522 0
-2510 -2524 0
-2510 -956 0
-2510 -312 0
-2510 -522 0
-2524 -956 0
-2524 -312 0
-2524 -522 0
-956 -312 0
-956 -522 0
-312 -522 0
2476 2497 2511 2525 957 313 523 0
-2476 -2497 0
-2476 -2511 0
-2476 -2525 0
-2476 -957 0
-2476 -313 0
-2476 -523 0
-2497 -2511 0
-2497 -2525 0
-2497 -957 0
-2497 -313 0
-2497 -523 0
-2511 -2525 0
-2511 -957 0
-2511 -313 0
-2511 -523 0
-2525 -957 0
-2525 -313 0
-2525 -523 0
-957 -313 0
-957 -523 0
-313 -523 0
2477 2498 2512 2519 1021 314 524 0
-2477 -2498 0
-2477 -2512 0
-2477 -2519 0
-2477 -1021 0
-2477 -314 0
-2477 -524 0
-2498 -2512 0
-2498 -2519 0
-2498 -1021 0
-2498 -314 0
-2498 -524 0
-2512 -2519 0
-2512 -1021 0
-2512 -314 0
-2512 -524 0
-2519 -1021 0
-2519 -314 0
-2519 -524 0
-1021 -314 0
-1021 -524 0
-314 -524 0
2478 2499 2513 2520 1022 315 525 0
-2478 -2499 0
-2478 -2513 0
-2478 -2520 0
-2478 -1022 0
-2478 -315 0
-2478 -525 0
-2499 -2513 0
-2499 -2520 0
-2499 -1022 0
-2499 -315 0
-2499 -525 0
-2513 -2520 0
-2513 -1022 0
-2513 -315 0
-2513 -525 0
-2520 -1022 0
-2520 -315 0
-2520 -525 0
-1022 -315 0
-1022 -525 0
-315 -525 0
2479 2500 2514 2521 1023 316 526 0
-2479 -2500 0
-2479 -2514 0
-2479 -2521 0
-2479 -1023 0
-2479 -316 0
-2479 -526 0
-2500 -2514 0
-2500 -2521 0
-2500 -1023 0
-2500 -316 0
-2500 -526 0
-2514 -2521 0
-2514 -1023 0
-2514 -316 0
-2514 -526 0
-2521 -1023 0
-2521 -316 0
-2521 -526 0
-1023 -316 0
-1023 -526 0
-316 -526 0
2480 2501 2515 2522 1024 317 527 0
-2480 -2501 0
-2480 -2515 0
-2480 -2522 0
-2480 -1024 0
-2480 -317 0
-2480 -527 0
-2501 -2515 0
-2501 -2522 0
-2501 -1024 0
-2501 -317 0
-2501 -527 0
-2515 -2522 0
-2515 -1024 0
-2515 -317 0
-2515 -527 0
-2522 -1024 0
-2522 -317 0
-2522 -527 0
-1024 -317 0
-1024 -527 0
-317 -527 0
2481 2502 2516 2523 1025 318 528 0
-2481 -2502 0
-2481 -2516 0
-2481 -2523 0
-2481 -1025 0
-2481 -318 0
-2481 -528 0
-2502 -2516 0
-2502 -2523 0
-2502 -1025 0
-2502 -318 0
-2502 -528 0
-2516 -2523 0
-2516 -1025 0
-2516 -318 0
-2516 -528 0
-2523 -1025 0
-2523 -318 0
-2523 -528 0
-1025 -318 0
-1025 -528 0
-318 -528 0
2482 2503 2517 2524 1026 319 529 0
-2482 -2503 0
-2482 -2517 0
-2482 -2524 0
-2482 -1026 0
-2482 -319 0
-2482 -529 0
-2503 -2517 0
-2503 -2524 0
-2503 -1026 0
-2503 -319 0
-2503 -529 0
-2517 -2524 0
-2517 -1026 0
-2517 -319 0
-2517 -529 0
-2524 -1026 0
-2524 -319 0
-2524 -529 0
-1026 -319 0
-1026 -529 0
-319 -529 0
2483 2504 2518 2525 1027 320 530 0
-2483 -2504 0
-2483 -2518 0
-2483 -2525 0
-2483 -1027 0
-2483 -320 0
-2483 -530 0
-2504 -2518 0
-2504 -2525 0
-2504 -1027 0
-2504 -320 0
-2504 -530 0
-2518 -2525 0
-2518 -1027 0
-2518 -320 0
-2518 -530 0
-2525 -1027 0
-2525 -320 0
-2525 -530 0
-1027 -320 0
-1027 -530 0
-320 -530 0
2456 2526 2533 2540 1091 321 531 0
-2456 -2526 0
-2456 -2533 0
-2456 -2540 0
-2456 -1091 0
-2456 -321 0
-2456 -531 0
-2526 -2533 0
-2526 -2540 0
-2526 -1091 0
-2526 -321 0
-2526 -531 0
-2533 -2540 0
-2533 -1091 0
-2533 -321 0
-2533 -531 0
-2540 -1091 0
-2540 -321 0
-2540 -531 0
-1091 -321 0
-1091 -531 0
-321 -531 0
2457 2527 2534 2541 1092 322 532 0
-2457 -2527 0
-2457 -2534 0
-2457 -2541 0
-2457 -1092 0
-2457 -322 0
-2457 -532 0
-2527 -2534 0
-2527 -2541 0
-2527 -1092 0
-2527 -322 0
-2527 -532 0
-2534 -2541 0
-2534 -1092 0
-2534 -322 0
-2534 -532 0
-2541 -1092 0
-2541 -322 0
-2541 -532 0
-1092 -322 0
-1092 -532 0
-322 -532 0
2458 2528 2535 2542 1093 323 533 0
-2458 -2528 0
-2458 -2535 0
-2458 -2542 0
-2458 -1093 0
-2458 -323 0
-2458 -533 0
-2528 -2535 0
-2528 -2542 0
-2528 -1093 0
-2528 -323 0
-2528 -533 0
-2535 -2542 0
-2535 -1093 0
-2535 -323 0
-2535 -533 0
-2542 -1093 0
-2542 -323 0
-2542 -533 0
-1093 -323 0
-1093 -533 0
-323 -533 0
2459 2529 2536 2543 1094 324 534 0
-2459 -2529 0
-2459 -2536 0
-2459 -2543 0
-2459 -1094 0
-2459 -324 0
-2459 -534 0
-2529 -2536 0
-2529 -2543 0
-2529 -1094 0
-2529 -324 0
-2529 -534 0
-2536 -2543 0
-2536 -1094 0
-2536 -324 0
-2536 -534 0
-2543 -1094 0
-2543 -324 0
-2543 -534 0
-1094 -324 0
-1094 -534 0
-324 -534 0
2460 2530 2537 2544 1095 325 535 0
-2460 -2530 0
-2460 -2537 0
-2460 -2544 0
-2460 -1095 0
-2460 -325 0
-2460 -535 0
-2530 -2537 0
-2530 -2544 0
-2530 -1095 0
-2530 -325 0
-2530 -535 0
-2537 -2544 0
-2537 -1095 0
-2537 -325 0
-2537 -535 0
-2544 -1095 0
-2544 -325 0
-2544 -535 0
-1095 -325 0
-1095 -535 0
-325 -535 0
2461 2531 2538 2545 1096 326 536 0
-2461 -2531 0
-2461 -2538 0
-2461 -2545 0
-2461 -1096 0
-2461 -326 0
-2461 -536 0
-2531 -2538 0
-2531 -2545 0
-2531 -1096 0
-2531 -326 0
-2531 -536 0
-2538 -2545 0
-2538 -1096 0
-2538 -326 0
-2538 -536 0
-2545 -1096 0
-2545 -326 0
-2545 -536 0
-1096 -326 0
-1096 -536 0
-326 -536 0
2462 2532 2539 2546 1097 327 537 0
-2462 -2532 0
-2462 -2539 0
-2462 -2546 0
-2462 -1097 0
-2462 -327 0
-2462 -537 0
-2532 -2539 0
-2532 -2546 0
-2532 -1097 0
-2532 -327 0
-2532 -537 0
-2539 -2546 0
-2539 -1097 0
-2539 -327 0
-2539 -537 0
-2546 -1097 0
-2546 -327 0
-2546 -537 0
-1097 -327 0
-1097 -537 0
-327 -537 0
2463 2526 2547 2554 1161 328 538 0
-2463 -2526 0
-2463 -2547 0
-2463 -2554 0
-2463 -1161 0
-2463 -328 0
-2463 -538 0
-2526 -2547 0
-2526 -2554 0
-2526 -1161 0
-2526 -328 0
-2526 -538 0
-2547 -2554 0
-2547 -1161 0
-2547 -328 0
-2547 -538 0
-2554 -1161 0
-2554 -328 0
-2554 -538 0
-1161 -328 0
-1161 -538 0
-328 -538 0
2464 2527 2548 2555 1162 329 539 0
-2464 -2527 0
-2464 -2548 0
-2464 -2555 0
-2464 -1162 0
-2464 -329 0
-2464 -539 0
-2527 -2548 0
-2527 -2555 0
-2527 -1162 0
-2527 -329 0
-2527 -539 0
-2548 -2555 0
-2548 -1162 0
-2548 -329 0
-2548 -539 0
-2555 -1162 0
-2555 -329 0
-2555 -539 0
-1162 -329 0
-1162 -539 0
-329 -539 0
2465 2528 2549 2556 1163 330 540 0
-2465 -2528 0
-2465 -2549 0
-2465 -2556 0
-2465 -1163 0
-2465 -330 0
-2465 -540 0
-2528 -2549 0
-2528 -2556 0
-2528 -1163 0
-2528 -330 0
-2528 -540 0
-2549 -2556 0
-2549 -1163 0
-2549 -330 0
-2549 -540 0
-2556 -1163 0
-2556 -330 0
-2556 -540 0
-1163 -330 0
-1163 -540 0
-330 -540 0
2466 2529 2550 2557 1164 331 541 0
-2466 -2529 0
-2466 -2550 0
-2466 -2557 0
-2466 -1164 0
-2466 -331 0
-2466 -541 0
-2529 -2550 0
-2529 -2557 0
-2529 -1164 0
-2529 -331 0
-2529 -541 0
-2550 -2557 0
-2550 -1164 0
-2550 -331 0
-2550 -541 0
-2557 -1164 0
-2557 -331 0
-2557 -541 0
-1164 -331 0
-1164 -541 0
-331 -541 0
2467 2530 2551 2558 1165 332 542 0
-2467 -2530 0
-2467 -2551 0
-2467 -2558 0
-2467 -1165 0
-2467 -332 0
-2467 -542 0
-2530 -2551 0
-2530 -2558 0
-2530 -1165 0
-2530 -332 0
-2530 -542 0
-2551 -2558 0
-2551 -1165 0
-2551 -332 0
-2551 -542 0
-2558 -1165 0
-2558 -332 0
-2558 -542 0
-1165 -332 0
-1165 -542 0
-332 -542 0
2468 2531 2552 2559 1166 333 543 0
-2468 -2531 0
-2468 -2552 0
-2468 -2559 0
-2468 -1166 0
-2468 -333 0
-2468 -543 0
-2531 -2552 0
-2531 -2559 0
-2531 -1166 0
-2531 -333 0
-2531 -543 0
-2552 -2559 0
-2552 -1166 0
-2552 -333 0
-2552 -543 0
-2559 -1166 0
-2559 -333 0
-2559 -543 0
-1166 -333 0
-1166 -543 0
-333 -543 0
2469 2532 2553 2560 1167 334 544 0
-2469 -2532 0
-2469 -2553 0
-2469 -2560 0
-2469 -1167 0
-2469 -334 0
-2469 -544 0
-2532 -2553 0
-2532 -2560 0
-2532 -1167 0
-2532 -334 0
-2532 -544 0
-2553 -2560 0
-2553 -1167 0
-2553 -334 0
-2553 -544 0
-2560 -1167 0
-2560 -334 0
-2560 -544 0
-1167 -334 0
-1167 -544 0
-334 -544 0
2470 2533 2547 2561 1231 335 545 0
-2470 -2533 0
-2470 -2547 0
-2470 -2561 0
-2470 -1231 0
-2470 -335 0
-2470 -545 0
-2533 -2547 0
-2533 -2561 0
-2533 -1231 0
-2533 -335 0
-2533 -545 0
-2547 -2561 0
-2547 -1231 0
-2547 -335 0
-2547 -545 0
-2561 -1231 0
-2561 -335 0
-2561 -545 0
-1231 -335 0
-1231 -545 0
-335 -545 0
2471 2534 2548 2562 1232 336 546 0
-2471 -2534 0
-2471 -2548 0
-2471 -2562 0
-2471 -1232 0
-2471 -336 0
-2471 -546 0
-2534 -2548 0
-2534 -2562 0
-2534 -1232 0
-2534 -336 0
-2534 -546 0
-2548 -2562 0
-2548 -1232 0
-2548 -336 0
-2548 -546 0
-2562 -1232 0
-2562 -336 0
-2562 -546 0
-1232 -336 0
-1232 -546 0
-336 -546 0
2472 2535 2549 2563 1233 337 547 0
-2472 -2535 0
-2472 -2549 0
-2472 -2563 0
-2472 -1233 0
-2472 -337 0
-2472 -547 0
-2535 -2549 0
-2535 -2563 0
-2535 -1233 0
-2535 -337 0
-2535 -547 0
-2549 -2563 0
-2549 -1233 0
-2549 -337 0
-2549 -547 0
-2563 -1233 0
-2563 -337 0
-2563 -547 0
-1233 -337 0
-1233 -547 0
-337 -547 0
2473 2536 2550 2564 1234 338 548 0
-2473 -2536 0
-2473 -2550 0
-2473 -2564 0
-2473 -1234 0
-2473 -338 0
-2473 -548 0
-2536 -2550 0
-2536 -2564 0
-2536 -1234 0
-2536 -338 0
-2536 -548 0
-2550 -2564 0
-2550 -1234 0
-2550 -338 0
-2550 -548 0
-2564 -1234 0
-2564 -338 0
-2564 -548 0
-1234 -338 0
-1234 -548 0
-338 -548 0
2474 2537 2551 2565 1235 339 549 0
-2474 -2537 0
-2474 -2551 0
-2474 -2565 0
-2474 -1235 0
-2474 -339 0
-2474 -549 0
-2537 -2551 0
-2537 -2565 0
-2537 -1235 0
-2537 -339 0
-2537 -549 0
-2551 -2565 0
-2551 -1235 0
-2551 -339 0
-2551 -549 0
-2565 -1235 0
-2565 -339 0
-2565 -549 0
-1235 -339 0
-1235 -549 0
-339 -549 0
2475 2538 2552 2566 1236 340 550 0
-2475 -2538 0
-2475 -2552 0
-2475 -2566 0
-2475 -1236 0
-2475 -340 0
-2475 -550 0
-2538 -2552 0
-2538 -2566 0
-2538 -1236 0
-2538 -340 0
-2538 -550 0
-2552 -2566 0
-2552 -1236 0
-2552 -340 0
-2552 -550 0
-2566 -1236 0
-2566 -340 0
-2566 -550 0
-1236 -340 0
-1236 -550 0
-340 -550 0
2476 2539 2553 2567 1237 341 551 0
-2476 -2539 0
-2476 -2553 0
-2476 -2567 0
-2476 -1237 0
-2476 -341 0
-2476 -551 0
-2539 -2553 0
-2539 -2567 0
-2539 -1237 0
-2539 -341 0
-2539 -551 0
-2553 -2567 0
-2553 -1237 0
-2553 -341 0
-2553 -551 0
-2567 -1237 0
-2567 -341 0
-2567 -551 0
-1237 -341 0
-1237 -551 0
-341 -551 0
2477 2540 2554 2561 1301 342 552 0
-2477 -2540 0
-2477 -2554 0
-2477 -2561 0
-2477 -1301 0
-2477 -342 0
-2477 -552 0
-2540 -2554 0
-2540 -2561 0
-2540 -1301 0
-2540 -342 0
-2540 -552 0
-2554 -2561 0
-2554 -1301 0
-2554 -342 0
-2554 -552 0
-2561 -1301 0
-2561 -342 0
-2561 -552 0
-1301 -342 0
-1301 -552 0
-342 -552 0
2478 2541 2555 2562 1302 343 553 0
-2478 -2541 0
-2478 -2555 0
-2478 -2562 0
-2478 -1302 0
-2478 -343 0
-2478 -553 0
-2541 -2555 0
-2541 -2562 0
-2541 -1302 0
-2541 -343 0
-2541 -553 0
-2555 -2562 0
-2555 -1302 0
-2555 -343 0
-2555 -553 0
-2562 -1302 0
-2562 -343 0
-2562 -553 0
-1302 -343 0
-1302 -553 0
-343 -553 0
2479 2542 2556 2563 1303 344 554 0
-2479 -2542 0
-2479 -2556 0
-2479 -2563 0
-2479 -1303 0
-2479 -344 0
-2479 -554 0
-2542 -2556 0
-2542 -2563 0
-2542 -1303 0
-2542 -344 0
-2542 -554 0
-2556 -2563 0
-2556 -1303 0
-2556 -344 0
-2556 -554 0
-2563 -1303 0
-2563 -344 0
-2563 -554 0
-1303 -344 0
-1303 -554 0
-344 -554 0
2480 2543 2557 2564 1304 345 555 0
-2480 -2543 0
-2480 -2557 0
-2480 -2564 0
-2480 -1304 0
-2480 -345 0
-2480 -555 0
-2543 -2557 0
-2543 -2564 0
-2543 -1304 0
-2543 -345 0
-2543 -555 0
-2557 -2564 0
-2557 -1304 0
-2557 -345 0
-2557 -555 0
-2564 -1304 0
-2564 -345 0
-2564 -555 0
-1304 -345 0
-1304 -555 0
-345 -555 0
2481 2544 2558 2565 1305 346 556 0
-2481 -2544 0
-2481 -2558 0
-2481 -2565 0
-2481 -1305 0
-2481 -346 0
-2481 -556 0
-2544 -2558 0
-2544 -2565 0
-2544 -1305 0
-2544 -346 0
-2544 -556 0
-2558 -2565 0
-2558 -1305 0
-2558 -346 0
-2558 -556 0
-2565 -1305 0
-2565 -346 0
-2565 -556 0
-1305 -346 0
-1305 -556 0
-346 -556 0
2482 2545 2559 2566 1306 347 557 0
-2482 -2545 0
-2482 -2559 0
-2482 -2566 0
-2482 -1306 0
-2482 -347 0
-2482 -557 0
-2545 -2559 0
-2545 -2566 0
-2545 -1306 0
-2545 -347 0
-2545 -557 0
-2559 -2566 0
-2559 -1306 0
-2559 -347 0
-2559 -557 0
-2566 -1306 0
-2566 -347 0
-2566 -557 0
-1306 -347 0
-1306 -557 0
-347 -557 0
2483 2546 2560 2567 1307 348 558 0
-2483 -2546 0
-2483 -2560 0
-2483 -2567 0
-2483 -1307 0
-2483 -348 0
-2483 -558 0
-2546 -2560 0
-2546 -2567 0
-2546 -1307 0
-2546 -348 0
-2546 -558 0
-2560 -2567 0
-2560 -1307 0
-2560 -348 0
-2560 -558 0
-2567 -1307 0
-2567 -348 0
-2567 -558 0
-1307 -348 0
-1307 -558 0
-348 -558 0
2484 2526 2568 2575 1371 349 559 0
-2484 -2526 0
-2484 -2568 0
-2484 -2575 0
-2484 -1371 0
-2484 -349 0
-2484 -559 0
-2526 -2568 0
-2526 -2575 0
-2526 -1371 0
-2526 -349 0
-2526 -559 0
-2568 -2575 0
-2568 -1371 0
-2568 -349 0
-2568 -559 0
-2575 -1371 0
-2575 -349 0
-2575 -559 0
-1371 -349 0
-1371 -559 0
-349 -559 0
2485 2527 2569 2576 1372 350 560 0
-2485 -2527 0
-2485 -2569 0
-2485 -2576 0
-2485 -1372 0
-2485 -350 0
-2485 -560 0
-2527 -2569 0
-2527 -2576 0
-2527 -1372 0
-2527 -350 0
-2527 -560 0
-2569 -2576 0
-2569 -1372 0
-2569 -350 0
-2569 -560 0
-2576 -1372 0
-2576 -350 0
-2576 -560 0
-1372 -350 0
-1372 -560 0
-350 -560 0
2486 2528 2570 2577 1373 351 561 0
-2486 -2528 0
-2486 -2570 0
-2486 -2577 0
-2486 -1373 0
-2486 -351 0
-2486 -561 0
-2528 -2570 0
-2528 -2577 0
-2528 -1373 0
-2528 -351 0
-2528 -561 0
-2570 -2577 0
-2570 -1373 0
-2570 -351 0
-2570 -561 0
-2577 -1373 0
-2577 -351 0
-2577 -561 0
-1373 -351 0
-1373 -561 0
-351 -561 0
2487 2529 2571 2578 1374 352 562 0
-2487 -2529 0
-2487 -2571 0
-2487 -2578 0
-2487 -1374 0
-2487 -352 0
-2487 -562 0
-2529 -2571 0
-2529 -2578 0
-2529 -1374 0
-2529 -352 0
-2529 -562 0
-2571 -2578 0
-2571 -1374 0
-2571 -352 0
-2571 -562 0
-2578 -1374 0
-2578 -352 0
-2578 -562 0
-1374 -352 0
-1374 -562 0
-352 -562 0
2488 2530 2572 2579 1375 353 563 0
-2488 -2530 0
-2488 -2572 0
-2488 -2579 0
-2488 -1375 0
-2488 -353 0
-2488 -563 0
-2530 -2572 0
-2530 -2579 0
-2530 -1375 0
-2530 -353 0
-2530 -563 0
-2572 -2579 0
-2572 -1375 0
-2572 -353 0
-2572 -563 0
-2579 -1375 0
-2579 -353 0
-2579 -563 0
-1375 -353 0
-1375 -563 0
-353 -563 0
2489 2531 2573 2580 1376 354 564 0
-2489 -2531 0
-2489 -2573 0
-2489 -2580 0
-2489 -1376 0
-2489 -354 0
-2489 -564 0
-2531 -2573 0
-2531 -2580 0
-2531 -1376 0
-2531 -354 0
-2531 -564 0
-2573 -2580 0
-2573 -1376 0
-2573 -354 0
-2573 -564 0
-2580 -1376 0
-2580 -354 0
-2580 -564 0
-1376 -354 0
-1376 -564 0
-354 -564 0
2490 2532 2574 2581 1377 355 565 0
-2490 -2532 0
-2490 -2574 0
-2490 -2581 0
-2490 -1377 0
-2490 -355 0
-2490 -565 0
-2532 -2574 0
-2532 -2581 0
-2532 -1377 0
-2532 -355 0
-2532 -565 0
-2574 -2581 0
-2574 -1377 0
-2574 -355 0
-2574 -565 0
-2581 -1377 0
-2581 -355 0
-2581 -565 0
-1377 -355 0
-1377 -565 0
-355 -565 0
2491 2533 2568 2582 1441 356 566 0
-2491 -2533 0
-2491 -2568 0
-2491 -2582 0
-2491 -1441 0
-2491 -356 0
-2491 -566 0
-2533 -2568 0
-2533 -2582 0
-2533 -1441 0
-2533 -356 0
-2533 -566 0
-2568 -2582 0
-2568 -1441 0
-2568 -356 0
-2568 -566 0
-2582 -1441 0
-2582 -356 0
-2582 -566 0
-1441 -356 0
-1441 -566 0
-356 -566 0
2492 2534 2569 2583 1442 357 567 0
-2492 -2534 0
-2492 -2569 0
-2492 -2583 0
-2492 -1442 0
-2492 -357 0
-2492 -567 0
-2534 -2569 0
-2534 -2583 0
-2534 -1442 0
-2534 -357 0
-2534 -567 0
-2569 -2583 0
-2569 -1442 0
-2569 -357 0
-2569 -567 0
-2583 -1442 0
-2583 -357 0
-2583 -567 0
-1442 -357 0
-1442 -567 0
-357 -567 0
2493 2535 2570 2584 1443 358 568 0
-2493 -2535 0
-2493 -2570 0
-2493 -2584 0
-2493 -1443 0
-2493 -358 0
-2493 -568 0
-2535 -2570 0
-2535 -2584 0
-2535 -1443 0
-2535 -358 0
-2535 -568 0
-2570 -2584 0
-2570 -1443 0
-2570 -358 0
-2570 -568 0
-2584 -1443 0
-2584 -358 0
-2584 -568 0
-1443 -358 0
-1443 -568 0
-358 -568 0
2494 2536 2571 2585 1444 359 569 0
-2494 -2536 0
-2494 -2571 0
-2494 -2585 0
-2494 -1444 0
-2494 -359 0
-2494 -569 0
-2536 -2571 0
-2536 -2585 0
-2536 -1444 0
-2536 -359 0
-2536 -569 0
-2571 -2585 0
-2571 -1444 0
-2571 -359 0
-2571 -569 0
-2585 -1444 0
-2585 -359 0
-2585 -569 0
-1444 -359 0
-1444 -569 0
-359 -569 0
2495 2537 2572 2586 1445 360 570 0
-2495 -2537 0
-2495 -2572 0
-2495 -2586 0
-2495 -1445 0
-2495 -360 0
-2495 -570 0
-2537 -2572 0
-2537 -2586 0
-2537 -1445 0
-2537 -360 0
-2537 -570 0
-2572 -2586 0
-2572 -1445 0
-2572 -360 0
-2572 -570 0
-2586 -1445 0
-2586 -360 0
-2586 -570 0
-1445 -360 0
-1445 -570 0
-360 -570 0
2496 2538 2573 2587 1446 361 571 0
-2496 -2538 0
-2496 -2573 0
-2496 -2587 0
-2496 -1446 0
-2496 -361 0
-2496 -571 0
-2538 -2573 0
-2538 -2587 0
-2538 -1446 0
-2538 -361 0
-2538 -571 0
-2573 -2587 0
-2573 -1446 0
-2573 -361 0
-2573 -571 0
-2587 -1446 0
-2587 -361 0
-2587 -571 0
-1446 -361 0
-1446 -571 0
-361 -571 0
2497 2539 2574 2588 1447 362 572 0
-2497 -2539 0
-2497 -2574 0
-2497 -2588 0
-2497 -1447 0
-2497 -362 0
-2497 -572 0
-2539 -2574 0
-2539 -2588 0
-2539 -1447 0
-2539 -362 0
-2539 -572 0
-2574 -2588 0
-2574 -1447 0
-2574 -362 0
-2574 -572 0
-2588 -1447 0
-2588 -362 0
-2588 -572 0
-1447 -362 0
-1447 -572 0
-362 -572 0
2498 2540 2575 2582 1511 363 573 0
-2498 -2540 0
-2498 -2575 0
-2498 -2582 0
-2498 -1511 0
-2498 -363 0
-2498 -573 0
-2540 -2575 0
-2540 -2582 0
-2540 -1511 0
-2540 -363 0
-2540 -573 0
-2575 -2582 0
-2575 -1511 0
-2575 -363 0
-2575 -573 0
-2582 -1511 0
-2582 -363 0
-2582 -573 0
-1511 -363 0
-1511 -573 0
-363 -573 0
2499 2541 2576 2583 1512 364 574 0
-2499 -2541 0
-2499 -2576 0
-2499 -2583 0
-2499 -1512 0
-2499 -364 0
-2499 -574 0
-2541 -2576 0
-2541 -2583 0
-2541 -1512 0
-2541 -364 0
-2541 -574 0
-2576 -2583 0
-2576 -1512 0
-2576 -364 0
-2576 -574 0
-2583 -1512 0
-2583 -364 0
-2583 -574 0
-1512 -364 0
-1512 -574 0
-364 -574 0
2500 2542 2577 2584 1513 365 575 0
-2500 -2542 0
-2500 -2577 0
-2500 -2584 0
-2500 -1513 0
-2500 -365 0
-2500 -575 0
-2542 -2577 0
-2542 -2584 0
-2542 -1513 0
-2542 -365 0
-2542 -575 0
-2577 -2584 0
-2577 -1513 0
-2577 -365 0
-2577 -575 0
-2584 -1513 0
-2584 -365 0
-2584 -575 0
-1513 -365 0
-1513 -575 0
-365 -575 0
2501 2543 2578 2585 1514 366 576 0
-2501 -2543 0
-2501 -2578 0
-2501 -2585 0
-2501 -1514 0
-2501 -366 0
-2501 -576 0
-2543 -2578 0
-2543 -2585 0
-2543 -1514 0
-2543 -366 0
-2543 -576 0
-2578 -2585 0
-2578 -1514 0
-2578 -366 0
-2578 -576 0
-2585 -1514 0
-2585 -366 0
-2585 -576 0
-1514 -366 0
-1514 -576 0
-366 -576 0
2502 2544 2579 2586 1515 367 577 0
-2502 -2544 0
-2502 -2579 0
-2502 -2586 0
-2502 -1515 0
-2502 -367 0
-2502 -577 0
-2544 -2579 0
-2544 -2586 0
-2544 -1515 0
-2544 -367 0
-2544 -577 0
-2579 -2586 0
-2579 -1515 0
-2579 -367 0
-2579 -577 0
-2586 -1515 0
-2586 -367 0
-2586 -577 0
-1515 -367 0
-1515 -577 0
-367 -577 0
2503 2545 2580 2587 1516 368 578 0
-2503 -2545 0
-2503 -2580 0
-2503 -2587 0
-2503 -1516 0
-2503 -368 0
-2503 -578 0
-2545 -2580 0
-2545 -2587 0
-2545 -1516 0
-2545 -368 0
-2545 -578 0
-2580 -2587 0
-2580 -1516 0
-2580 -368 0
-2580 -578 0
-2587 -1516 0
-2587 -368 0
-2587 -578 0
-1516 -368 0
-1516 -578 0
-368 -578 0
2504 2546 2581 2588 1517 369 579 0
-2504 -2546 0
-2504 -2581 0
-2504 -2588 0
-2504 -1517 0
-2504 -369 0
-2504 -579 0
-2546 -2581 0
-2546 -2588 0
-2546 -1517 0
-2546 -369 0
-2546 -579 0
-2581 -2588 0
-2581 -1517 0
-2581 -369 0
-2581 -579 0
-2588 -1517 0
-2588 -369 0
-2588 -579 0
-1517 -369 0
-1517 -579 0
-369 -579 0
2505 2547 2568 2589 1581 370 580 0
-2505 -2547 0
-2505 -2568 0
-2505 -2589 0
-2505 -1581 0
-2505 -370 0
-2505 -580 0
-2547 -2568 0
-2547 -2589 0
-2547 -1581 0
-2547 -370 0
-2547 -580 0
-2568 -2589 0
-2568 -1581 0
-2568 -370 0
-2568 -580 0
-2589 -1581 0
-2589 -370 0
-2589 -580 0
-1581 -370 0
-1581 -580 0
-370 -580 0
2506 2548 2569 2590 1582 371 581 0
-2506 -2548 0
-2506 -2569 0
-2506 -2590 0
-2506 -1582 0
-2506 -371 0
-2506 -581 0
-2548 -2569 0
-2548 -2590 0
-2548 -1582 0
-2548 -371 0
-2548 -581 0
-2569 -2590 0
-2569 -1582 0
-2569 -371 0
-2569 -581 0
-2590 -1582 0
-2590 -371 0
-2590 -581 0
-1582 -371 0
-1582 -581 0
-371 -581 0
2507 2549 2570 2591 1583 372 582 0
-2507 -2549 0
-2507 -2570 0
-2507 -2591 0
-2507 -1583 0
-2507 -372 0
-2507 -582 0
-2549 -2570 0
-2549 -2591 0
-2549 -1583 0
-2549 -372 0
-2549 -582 0
-2570 -2591 0
-2570 -1583 0
-2570 -372 0
-2570 -582 0
-2591 -1583 0
-2591 -372 0
-2591 -582 0
-1583 -372 0
-1583 -582 0
-372 -582 0
2508 2550 2571 2592 1584 373 583 0
-2508 -2550 0
-2508 -2571 0
-2508 -2592 0
-2508 -1584 0
-2508 -373 0
-2508 -583 0
-2550 -2571 0
-2550 -2592 0
-2550 -1584 0
-2550 -373 0
-2550 -583 0
-2571 -2592 0
-2571 -1584 0
-2571 -373 0
-2571 -583 0
-2592 -1584 0
-2592 -373 0
-2592 -583 0
-1584 -373 0
-1584 -583 0
-373 -583 0
2509 2551 2572 2593 1585 374 584 0
-2509 -2551 0
-2509 -2572 0
-2509 -2593 0
-2509 -1585 0
-2509 -374 0
-2509 -584 0
-2551 -2572 0
-2551 -2593 0
-2551 -1585 0
-2551 -374 0
-2551 -584 0
-2572 -2593 0
-2572 -1585 0
-2572 -374 0
-2572 -584 0
-2593 -1585 0
-2593 -374 0
-2593 -584 0
-1585 -374 0
-1585 -584 0
-374 -584 0
2510 2552 2573 2594 1586 375 585 0
-2510 -2552 0
-2510 -2573 0
-2510 -2594 0
-2510 -1586 0
-2510 -375 0
-2510 -585 0
-2552 -2573 0
-2552 -2594 0
-2552 -1586 0
-2552 -375 0
-2552 -585 0
-2573 -2594 0
-2573 -1586 0
-2573 -375 0
-2573 -585 0
-2594 -1586 0
-2594 -375 0
-2594 -585 0
-1586 -375 0
-1586 -585 0
-375 -585 0
2511 2553 2574 2595 1587 376 586 0
-2511 -2553 0
-2511 -2574 0
-2511 -2595 0
-2511 -1587 0
-2511 -376 0
-2511 -586 0
-2553 -2574 0
-2553 -2595 0
-2553 -1587 0
-2553 -376 0
-2553 -586 0
-2574 -2595 0
-2574 -1587 0
-2574 -376 0
-2574 -586 0
-2595 -1587 0
-2595 -376 0
-2595 -586 0
-1587 -376 0
-1587 -586 0
-376 -586 0
2512 2554 2575 2589 1651 377 587 0
-2512 -2554 0
-2512 -2575 0
-2512 -2589 0
-2512 -1651 0
-2512 -377 0
-2512 -587 0
-2554 -2575 0
-2554 -2589 0
-2554 -1651 0
-2554 -377 0
-2554 -587 0
-2575 -2589 0
-2575 -1651 0
-2575 -377 0
-2575 -587 0
-2589 -1651 0
-2589 -377 0
-2589 -587 0
-1651 -377 0
-1651 -587 0
-377 -587 0
2513 2555 2576 2590 1652 378 588 0
-2513 -2555 0
-2513 -2576 0
-2513 -2590 0
-2513 -1652 0
-2513 -378 0
-2513 -588 0
-2555 -2576 0
-2555 -2590 0
-2555 -1652 0
-2555 -378 0
-2555 -588 0
-2576 -2590 0
-2576 -1652 0
-2576 -378 0
-2576 -588 0
-2590 -1652 0
-2590 -378 0
-2590 -588 0
-1652 -378 0
-1652 -588 0
-378 -588 0
2514 2556 2577 2591 1653 379 589 0
-2514 -2556 0
-2514 -2577 0
-2514 -2591 0
-2514 -1653 0
-2514 -379 0
-2514 -589 0
-2556 -2577 0
-2556 -2591 0
-2556 -1653 0
-2556 -379 0
-2556 -589 0
-2577 -2591 0
-2577 -1653 0
-2577 -379 0
-2577 -589 0
-2591 -1653 0
-2591 -379 0
-2591 -589 0
-1653 -379 0
-1653 -589 0
-379 -589 0
2515 2557 2578 2592 1654 380 590 0
-2515 -2557 0
-2515 -2578 0
-2515 -2592 0
-2515 -1654 0
-2515 -380 0
-2515 -590 0
-2557 -2578 0
-2557 -2592 0
-2557 -1654 0
-2557 -380 0
-2557 -590 0
-2578 -2592 0
-2578 -1654 0
-2578 -380 0
-2578 -590 0
-2592 -1654 0
-2592 -380 0
-2592 -590 0
-1654 -380 0
-1654 -590 0
-380 -590 0
2516 2558 2579 2593 1655 381 591 0
-2516 -2558 0
-2516 -2579 0
-2516 -2593 0
-2516 -1655 0
-2516 -381 0
-2516 -591 0
-2558 -2579 0
-2558 -2593 0
-2558 -1655 0
-2558 -381 0
-2558 -591 0
-2579 -2593 0
-2579 -1655 0
-2579 -381 0
-2579 -591 0
-2593 -1655 0
-2593 -381 0
-2593 -591 0
-1655 -381 0
-1655 -591 0
-381 -591 0
2517 2559 2580 2594 1656 382 592 0
-2517 -2559 0
-2517 -2580 0
-2517 -2594 0
-2517 -1656 0
-2517 -382 0
-2517 -592 0
-2559 -2580 0
-2559 -2594 0
-2559 -1656 0
-2559 -382 0
-2559 -592 0
-2580 -2594 0
-2580 -1656 0
-2580 -382 0
-2580 -592 0
-2594 -1656 0
-2594 -382 0
-2594 -592 0
-1656 -382 0
-1656 -592 0
-382 -592 0
2518 2560 2581 2595 1657 383 593 0
-2518 -2560 0
-2518 -2581 0
-2518 -2595 0
-2518 -1657 0
-2518 -383 0
-2518 -593 0
-2560 -2581 0
-2560 -2595 0
-2560 -1657 0
-2560 -383 0
-2560 -593 0
-2581 -2595 0
-2581 -1657 0
-2581 -383 0
-2581 -593 0
-2595 -1657 0
-2595 -383 0
-2595 -593 0
-1657 -383 0
-1657 -593 0
-383 -593 0
2519 2561 2582 2589 1721 384 594 0
-2519 -2561 0
-2519 -2582 0
-2519 -2589 0
-2519 -1721 0
-2519 -384 0
-2519 -594 0
-2561 -2582 0
-2561 -2589 0
-2561 -1721 0
-2561 -384 0
-2561 -594 0
-2582 -2589 0
-2582 -1721 0
-2582 -384 0
-2582 -594 0
-2589 -1721 0
-2589 -384 0
-2589 -594 0
-1721 -384 0
-1721 -594 0
-384 -594 0
2520 2562 2583 2590 1722 385 595 0
-2520 -2562 0
-2520 -2583 0
-2520 -2590 0
-2520 -1722 0
-2520 -385 0
-2520 -595 0
-2562 -2583 0
-2562 -2590 0
-2562 -1722 0
-2562 -385 0
-2562 -595 0
-2583 -2590 0
-2583 -1722 0
-2583 -385 0
-2583 -595 0
-2590 -1722 0
-2590 -385 0
-2590 -595 0
-1722 -385 0
-1722 -595 0
-385 -595 0
2521 2563 2584 2591 1723 386 596 0
-2521 -2563 0
-2521 -2584 0
-2521 -2591 0
-2521 -1723 0
-2521 -386 0
-2521 -596 0
-2563 -2584 0
-2563 -2591 0
-2563 -1723 0
-2563 -386 0
-2563 -596 0
-2584 -2591 0
-2584 -1723 0
-2584 -386 0
-2584 -596 0
-2591 -1723 0
-2591 -386 0
-2591 -596 0
-1723 -386 0
-1723 -596 0
-386 -596 0
2522 2564 2585 2592 1724 387 597 0
-2522 -2564 0
-2522 -2585 0
-2522 -2592 0
-2522 -1724 0
-2522 -387 0
-2522 -597 0
-2564 -2585 0
-2564 -2592 0
-2564 -1724 0
-2564 -387 0
-2564 -597 0
-2585 -2592 0
-2585 -1724 0
-2585 -387 0
-2585 -597 0
-2592 -1724 0
-2592 -387 0
-2592 -597 0
-1724 -387 0
-1724 -597 0
-387 -597 0
2523 2565 2586 2593 1725 388 598 0
-2523 -2565 0
-2523 -2586 0
-2523 -2593 0
-2523 -1725 0
-2523 -388 0
-2523 -598 0
-2565 -2586 0
-2565 -2593 0
-2565 -1725 0
-2565 -388 0
-2565 -598 0
-2586 -2593 0
-2586 -1725 0
-2586 -388 0
-2586 -598 0
-2593 -1725 0
-2593 -388 0
-2593 -598 0
-1725 -388 0
-1725 -598 0
-388 -598 0
2524 2566 2587 2594 1726 389 599 0
-2524 -2566 0
-2524 -2587 0
-2524 -2594 0
-2524 -1726 0
-2524 -389 0
-2524 -599 0
-2566 -2587 0
-2566 -2594 0
-2566 -1726 0
-2566 -389 0
-2566 -599 0
-2587 -2594 0
-2587 -1726 0
-2587 -389 0
-2587 -599 0
-2594 -1726 0
-2594 -389 0
-2594 -599 0
-1726 -389 0
-1726 -599 0
-389 -599 0
2525 2567 2588 2595 1727 390 600 0
-2525 -2567 0
-2525 -2588 0
-2525 -2595 0
-2525 -1727 0
-2525 -390 0
-2525 -600 0
-2567 -2588 0
-2567 -2595 0
-2567 -1727 0
-2567 -390 0
-2567 -600 0
-2588 -2595 0
-2588 -1727 0
-2588 -390 0
-2588 -600 0
-2595 -1727 0
-2595 -390 0
-2595 -600 0
-1727 -390 0
-1727 -600 0
-390 -600 0
2596 2603 2610 2617 748 286 601 0
-2596 -2603 0
-2596 -2610 0
-2596 -2617 0
-2596 -748 0
-2596 -286 0
-2596 -601 0
-2603 -2610 0
-2603 -2617 0
-2603 -748 0
-2603 -286 0
-2603 -601 0
-2610 -2617 0
-2610 -748 0
-2610 -286 0
-2610 -601 0
-2617 -748 0
-2617 -286 0
-2617 -601 0
-748 -286 0
-748 -601 0
-286 -601 0
2597 2604 2611 2618 749 287 602 0
-2597 -2604 0
-2597 -2611 0
-2597 -2618 0
-2597 -749 0
-2597 -287 0
-2597 -602 0
-2604 -2611 0
-2604 -2618 0
-2604 -749 0
-2604 -287 0
-2604 -602 0
-2611 -2618 0
-2611 -749 0
-2611 -287 0
-2611 -602 0
-2618 -749 0
-2618 -287 0
-2618 -602 0
-749 -287 0
-749 -602 0
-287 -602 0
2598 2605 2612 2619 750 288 603 0
-2598 -2605 0
-2598 -2612 0
-2598 -2619 0
-2598 -750 0
-2598 -288 0
-2598 -603 0
-2605 -2612 0
-2605 -2619 0
-2605 -750 0
-2605 -288 0
-2605 -603 0
-2612 -2619 0
-2612 -750 0
-2612 -288 0
-2612 -603 0
-2619 -750 0
-2619 -288 0
-2619 -603 0
-750 -288 0
-750 -603 0
-288 -603 0
2599 2606 2613 2620 751 289 604 0
-2599 -2606 0
-2599 -2613 0
-2599 -2620 0
-2599 -751 0
-2599 -289 0
-2599 -604 0
-2606 -2613 0
-2606 -2620 0
-2606 -751 0
-2606 -289 0
-2606 -604 0
-2613 -2620 0
-2613 -751 0
-2613 -289 0
-2613 -604 0
-2620 -751 0
-2620 -289 0
-2620 -604 0
-751 -289 0
-751 -604 0
-289 -604 0
2600 2607 2614 2621 752 290 605 0
-2600 -2607 0
-2600 -2614 0
-2600 -2621 0
-2600 -752 0
-2600 -290 0
-2600 -605 0
-2607 -2614 0
-2607 -2621 0
-2607 -752 0
-2607 -290 0
-2607 -605 0
-2614 -2621 0
-2614 -752 0
-2614 -290 0
-2614 -605 0
-2621 -752 0
-2621 -290 0
-2621 -605 0
-752 -290 0
-752 -605 0
-290 -605 0
2601 2608 2615 2622 753 291 606 0
-2601 -2608 0
-2601 -2615 0
-2601 -2622 0
-2601 -753 0
-2601 -291 0
-2601 -606 0
-2608 -2615 0
-2608 -2622 0
-2608 -753 0
-2608 -291 0
-2608 -606 0
-2615 -2622 0
-2615 -753 0
-2615 -291 0
-2615 -606 0
-2622 -753 0
-2622 -291 0
-2622 -606 0
-753 -291 0
-753 -606 0
-291 -606 0
2602 2609 2616 2623 754 292 607 0
-2602 -2609 0
-2602 -2616 0
-2602 -2623 0
-2602 -754 0
-2602 -292 0
-2602 -607 0
-2609 -2616 0
-2609 -2623 0
-2609 -754 0
-2609 -292 0
-2609 -607 0
-2616 -2623 0
-2616 -754 0
-2616 -292 0
-2616 -607 0
-2623 -754 0
-2623 -292 0
-2623 -607 0
-754 -292 0
-754 -607 0
-292 -607 0
2596 2624 2631 2638 818 293 608 0
-2596 -2624 0
-2596 -2631 0
-2596 -2638 0
-2596 -818 0
-2596 -293 0
-2596 -608 0
-2624 -2631 0
-2624 -2638 0
-2624 -818 0
-2624 -293 0
-2624 -608 0
-2631 -2638 0
-2631 -818 0
-2631 -293 0
-2631 -608 0
-2638 -818 0
-2638 -293 0
-2638 -608 0
-818 -293 0
-818 -608 0
-293 -608 0
2597 2625 2632 2639 819 294 609 0
-2597 -2625 0
-2597 -2632 0
-2597 -2639 0
-2597 -819 0
-2597 -294 0
-2597 -609 0
-2625 -2632 0
-2625 -2639 0
-2625 -819 0
-2625 -294 0
-2625 -609 0
-2632 -2639 0
-2632 -819 0
-2632 -294 0
-2632 -609 0
-2639 -819 0
-2639 -294 0
-2639 -609 0
-819 -294 0
-819 -609 0
-294 -609 0
2598 2626 2633 2640 820 295 610 0
-2598 -2626 0
-2598 -2633 0
-2598 -2640 0
-2598 -820 0
-2598 -295 0
-2598 -610 0
-2626 -2633 0
-2626 -2640 0
-2626 -820 0
-2626 -295 0
-2626 -610 0
-2633 -2640 0
-2633 -820 0
-2633 -295 0
-2633 -610 0
-2640 -820 0
-2640 -295 0
-2640 -610 0
-820 -295 0
-820 -610 0
-295 -610 0
2599 2627 2634 2641 821 296 611 0
-2599 -2627 0
-2599 -2634 0
-2599 -2641 0
-2599 -821 0
-2599 -296 0
-2599 -611 0
-2627 -2634 0
-2627 -2641 0
-2627 -821 0
-2627 -296 0
-2627 -611 0
-2634 -2641 0
-2634 -821 0
-2634 -296 0
-2634 -611 0
-2641 -821 0
-2641 -296 0
-2641 -611 0
-821 -296 0
-821 -611 0
-296 -611 0
2600 2628 2635 2642 822 297 612 0
-2600 -2628 0
-2600 -2635 0
-2600 -2642 0
-2600 -822 0
-2600 -297 0
-2600 -612 0
-2628 -2635 0
-2628 -2642 0
-2628 -822 0
-2628 -297 0
-2628 -612 0
-2635 -2642 0
-2635 -822 0
-2635 -297 0
-2635 -612 0
-2642 -822 0
-2642 -297 0
-2642 -612 0
-822 -297 0
-822 -612 0
-297 -612 0
2601 2629 2636 2643 823 298 613 0
-2601 -2629 0
-2601 -2636 0
-2601 -2643 0
-2601 -823 0
-2601 -298 0
-2601 -613 0
-2629 -2636 0
-2629 -2643 0
-2629 -823 0
-2629 -298 0
-2629 -613 0
-2636 -2643 0
-2636 -823 0
-2636 -298 0
-2636 -613 0
-2643 -823 0
-2643 -298 0
-2643 -613 0
-823 -298 0
-823 -613 0
-298 -613 0
2602 2630 2637 2644 824 299 614 0
-2602 -2630 0
-2602 -2637 0
-2602 -2644 0
-2602 -824 0
-2602 -299 0
-2602 -614 0
-2630 -2637 0
-2630 -2644 0
-2630 -824 0
-2630 -299 0
-2630 -614 0
-2637 -2644 0
-2637 -824 0
-2637 -299 0
-2637 -614 0
-2644 -824 0
-2644 -299 0
-2644 -614 0
-824 -299 0
-824 -614 0
-299 -614 0
2603 2624 2645 2652 888 300 615 0
-2603 -2624 0
-2603 -2645 0
-2603 -2652 0
-2603 -888 0
-2603 -300 0
-2603 -615 0
-2624 -2645 0
-2624 -2652 0
-2624 -888 0
-2624 -300 0
-2624 -615 0
-2645 -2652 0
-2645 -888 0
-2645 -300 0
-2645 -615 0
-2652 -888 0
-2652 -300 0
-2652 -615 0
-888 -300 0
-888 -615 0
-300 -615 0
2604 2625 2646 2653 889 301 616 0
-2604 -2625 0
-2604 -2646 0
-2604 -2653 0
-2604 -889 0
-2604 -301 0
-2604 -616 0
-2625 -2646 0
-2625 -2653 0
-2625 -889 0
-2625 -301 0
-2625 -616 0
-2646 -2653 0
-2646 -889 0
-2646 -301 0
-2646 -616 0
-2653 -889 0
-2653 -301 0
-2653 -616 0
-889 -301 0
-889 -616 0
-301 -616 0
2605 2626 2647 2654 890 302 617 0
-2605 -2626 0
-2605 -2647 0
-2605 -2654 0
-2605 -890 0
-2605 -302 0
-2605 -617 0
-2626 -2647 0
-2626 -2654 0
-2626 -890 0
-2626 -302 0
-2626 -617 0
-2647 -2654 0
-2647 -890 0
-2647 -302 0
-2647 -617 0
-2654 -890 0
-2654 -302 0
-2654 -617 0
-890 -302 0
-890 -617 0
-302 -617 0
2606 2627 2648 2655 891 303 618 0
-2606 -2627 0
-2606 -2648 0
-2606 -2655 0
-2606 -891 0
-2606 -303 0
-2606 -618 0
-2627 -2648 0
-2627 -2655 0
-2627 -891 0
-2627 -303 0
-2627 -618 0
-2648 -2655 0
-2648 -891 0
-2648 -303 0
-2648 -618 0
-2655 -891 0
-2655 -303 0
-2655 -618 0
-891 -303 0
-891 -618 0
-303 -618 0
2607 2628 2649 2656 892 304 619 0
-2607 -2628 0
-2607 -2649 0
-2607 -2656 0
-2607 -892 0
-2607 -304 0
-2607 -619 0
-2628 -2649 0
-2628 -2656 0
-2628 -892 0
-2628 -304 0
-2628 -619 0
-2649 -2656 0
-2649 -892 0
-2649 -304 0
-2649 -619 0
-2656 -892 0
-2656 -304 0
-2656 -619 0
-892 -304 0
-892 -619 0
-304 -619 0
2608 2629 2650 2657 893 305 620 0
-2608 -2629 0
-2608 -2650 0
-2608 -2657 0
-2608 -893 0
-2608 -305 0
-2608 -620 0
-2629 -2650 0
-2629 -2657 0
-2629 -893 0
-2629 -305 0
-2629 -620 0
-2650 -2657 0
-2650 -893 0
-2650 -305 0
-2650 -620 0
-2657 -893 0
-2657 -305 0
-2657 -620 0
-893 -305 0
-893 -620 0
-305 -620 0
2609 2630 2651 2658 894 306 621 0
-2609 -2630 0
-2609 -2651 0
-2609 -2658 0
-2609 -894 0
-2609 -306 0
-2609 -621 0
-2630 -2651 0
-2630 -2658 0
-2630 -894 0
-2630 -306 0
-2630 -621 0
-2651 -2658 0
-2651 -894 0
-2651 -306 0
-2651 -621 0
-2658 -894 0
-2658 -306 0
-2658 -621 0
-894 -306 0
-894 -621 0
-306 -621 0
2610 2631 2645 2659 958 307 622 0
-2610 -2631 0
-2610 -2645 0
-2610 -2659 0
-2610 -958 0
-2610 -307 0
-2610 -622 0
-2631 -2645 0
-2631 -2659 0
-2631 -958 0
-2631 -307 0
-2631 -622 0
-2645 -2659 0
-2645 -958 0
-2645 -307 0
-2645 -622 0
-2659 -958 0
-2659 -307 0
-2659 -622 0
-958 -307 0
-958 -622 0
-307 -622 0
2611 2632 2646 2660 959 308 623 0
-2611 -2632 0
-2611 -2646 0
-2611 -2660 0
-2611 -959 0
-2611 -308 0
-2611 -623 0
-2632 -2646 0
-2632 -2660 0
-2632 -959 0
-2632 -308 0
-2632 -623 0
-2646 -2660 0
-2646 -959 0
-2646 -308 0
-2646 -623 0
-2660 -959 0
-2660 -308 0
-2660 -623 0
-959 -308 0
-959 -623 0
-308 -623 0
2612 2633 2647 2661 960 309 624 0
-2612 -2633 0
-2612 -2647 0
-2612 -2661 0
-2612 -960 0
-2612 -309 0
-2612 -624 0
-2633 -2647 0
-2633 -2661 0
-2633 -960 0
-2633 -309 0
-2633 -624 0
-2647 -2661 0
-2647 -960 0
-2647 -309 0
-2647 -624 0
-2661 -960 0
-2661 -309 0
-2661 -624 0
-960 -309 0
-960 -624 0
-309 -624 0
2613 2634 2648 2662 961 310 625 0
-2613 -2634 0
-2613 -2648 0
-2613 -2662 0
-2613 -961 0
-2613 -310 0
-2613 -625 0
-2634 -2648 0
-2634 -2662 0
-2634 -961 0
-2634 -310 0
-2634 -625 0
-2648 -2662 0
-2648 -961 0
-2648 -310 0
-2648 -625 0
-2662 -961 0
-2662 -310 0
-2662 -625 0
-961 -310 0
-961 -625 0
-310 -625 0
2614 2635 2649 2663 962 311 626 0
-2614 -2635 0
-2614 -2649 0
-2614 -2663 0
-2614 -962 0
-2614 -311 0
-2614 -626 0
-2635 -2649 0
-2635 -2663 0
-2635 -962 0
-2635 -311 0
-2635 -626 0
-2649 -2663 0
-2649 -962 0
-2649 -311 0
-2649 -626 0
-2663 -962 0
-2663 -311 0
-2663 -626 0
-962 -311 0
-962 -626 0
-311 -626 0
2615 2636 2650 2664 963 312 627 0
-2615 -2636 0
-2615 -2650 0
-2615 -2664 0
-2615 -963 0
-2615 -312 0
-2615 -627 0
-2636 -2650 0
-2636 -2664 0
-2636 -963 0
-2636 -312 0
-2636 -627 0
-2650 -2664 0
-2650 -963 0
-2650 -312 0
-2650 -627 0
-2664 -963 0
-2664 -312 0
-2664 -627 0
-963 -312 0
-963 -627 0
-312 -627 0
2616 2637 2651 2665 964 313 628 0
-2616 -2637 0
-2616 -2651 0
-2616 -2665 0
-2616 -964 0
-2616 -313 0
-2616 -628 0
-2637 -2651 0
-2637 -2665 0
-2637 -964 0
-2637 -313 0
-2637 -628 0
-2651 -2665 0
-2651 -964 0
-2651 -313 0
-2651 -628 0
-2665 -964 0
-2665 -313 0
-2665 -628 0
-964 -313 0
-964 -628 0
-313 -628 0
2617 2638 2652 2659 1028 314 629 0
-2617 -2638 0
-2617 -2652 0
-2617 -2659 0
-2617 -1028 0
-2617 -314 0
-2617 -629 0
-2638 -2652 0
-2638 -2659 0
-2638 -1028 0
-2638 -314 0
-2638 -629 0
-2652 -2659 0
-2652 -1028 0
-2652 -314 0
-2652 -629 0
-2659 -1028 0
-2659 -314 0
-2659 -629 0
-1028 -314 0
-1028 -629 0
-314 -629 0
2618 2639 2653 2660 1029 315 630 0
-2618 -2639 0
-2618 -2653 0
-2618 -2660 0
-2618 -1029 0
-2618 -315 0
-2618 -630 0
-2639 -2653 0
-2639 -2660 0
-2639 -1029 0
-2639 -315 0
-2639 -630 0
-2653 -2660 0
-2653 -1029 0
-2653 -315 0
-2653 -630 0
-2660 -1029 0
-2660 -315 0
-2660 -630 0
-1029 -315 0
-1029 -630 0
-315 -630 0
2619 2640 2654 2661 1030 316 631 0
-2619 -2640 0
-2619 -2654 0
-2619 -2661 0
-2619 -1030 0
-2619 -316 0
-2619 -631 0
-2640 -2654 0
-2640 -2661 0
-2640 -1030 0
-2640 -316 0
-2640 -631 0
-2654 -2661 0
-2654 -1030 0
-2654 -316 0
-2654 -631 0
-2661 -1030 0
-2661 -316 0
-2661 -631 0
-1030 -316 0
-1030 -631 0
-316 -631 0
2620 2641 2655 2662 1031 317 632 0
-2620 -2641 0
-2620 -2655 0
-2620 -2662 0
-2620 -1031 0
-2620 -317 0
-2620 -632 0
-2641 -2655 0
-2641 -2662 0
-2641 -1031 0
-2641 -317 0
-2641 -632 0
-2655 -2662 0
-2655 -1031 0
-2655 -317 0
-2655 -632 0
-2662 -1031 0
-2662 -317 0
-2662 -632 0
-1031 -317 0
-1031 -632 0
-317 -632 0
2621 2642 2656 2663 1032 318 633 0
-2621 -2642 0
-2621 -2656 0
-2621 -2663 0
-2621 -1032 0
-2621 -318 0
-2621 -633 0
-2642 -2656 0
-2642 -2663 0
-2642 -1032 0
-2642 -318 0
-2642 -633 0
-2656 -2663 0
-2656 -1032 0
-2656 -318 0
-2656 -633 0
-2663 -1032 0
-2663 -318 0
-2663 -633 0
-1032 -318 0
-1032 -633 0
-318 -633 0
2622 2643 2657 2664 1033 319 634 0
-2622 -2643 0
-2622 -2657 0
-2622 -2664 0
-2622 -1033 0
-2622 -319 0
-2622 -634 0
-2643 -2657 0
-2643 -2664 0
-2643 -1033 0
-2643 -319 0
-2643 -634 0
-2657 -2664 0
-2657 -1033 0
-2657 -319 0
-2657 -634 0
-2664 -1033 0
-2664 -319 0
-2664 -634 0
-1033 -319 0
-1033 -634 0
-319 -634 0
2623 2644 2658 2665 1034 320 635 0
-2623 -2644 0
-2623 -2658 0
-2623 -2665 0
-2623 -1034 0
-2623 -320 0
-2623 -635 0
-2644 -2658 0
-2644 -2665 0
-2644 -1034 0
-2644 -320 0
-2644 -635 0
-2658 -2665 0
-2658 -1034 0
-2658 -320 0
-2658 -635 0
-2665 -1034 0
-2665 -320 0
-2665 -635 0
-1034 -320 0
-1034 -635 0
-320 -635 0
2596 2666 2673 2680 1098 321 636 0
-2596 -2666 0
-2596 -2673 0
-2596 -2680 0
-2596 -1098 0
-2596 -321 0
-2596 -636 0
-2666 -2673 0
-2666 -2680 0
-2666 -1098 0
-2666 -321 0
-2666 -636 0
-2673 -2680 0
-2673 -1098 0
-2673 -321 0
-2673 -636 0
-2680 -1098 0
-2680 -321 0
-2680 -636 0
-1098 -321 0
-1098 -636 0
-321 -636 0
2597 2667 2674 2681 1099 322 637 0
-2597 -2667 0
-2597 -2674 0
-2597 -2681 0
-2597 -1099 0
-2597 -322 0
-2597 -637 0
-2667 -2674 0
-2667 -2681 0
-2667 -1099 0
-2667 -322 0
-2667 -637 0
-2674 -2681 0
-2674 -1099 0
-2674 -322 0
-2674 -637 0
-2681 -1099 0
-2681 -322 0
-2681 -637 0
-1099 -322 0
-1099 -637 0
-322 -637 0
2598 2668 2675 2682 1100 323 638 0
-2598 -2668 0
-2598 -2675 0
-2598 -2682 0
-2598 -1100 0
-2598 -323 0
-2598 -638 0
-2668 -2675 0
-2668 -2682 0
-2668 -1100 0
-2668 -323 0
-2668 -638 0
-2675 -2682 0
-2675 -1100 0
-2675 -323 0
-2675 -638 0
-2682 -1100 0
-2682 -323 0
-2682 -638 0
-1100 -323 0
-1100 -638 0
-323 -638 0
2599 2669 2676 2683 1101 324 639 0
-2599 -2669 0
-2599 -2676 0
-2599 -2683 0
-2599 -1101 0
-2599 -324 0
-2599 -639 0
-2669 -2676 0
-2669 -2683 0
-2669 -1101 0
-2669 -324 0
-2669 -639 0
-2676 -2683 0
-2676 -1101 0
-2676 -324 0
-2676 -639 0
-2683 -1101 0
-2683 -324 0
-2683 -639 0
-1101 -324 0
-1101 -639 0
-324 -639 0
2600 2670 2677 2684 1102 325 640 0
-2600 -2670 0
-2600 -2677 0
-2600 -2684 0
-2600 -1102 0
-2600 -325 0
-2600 -640 0
-2670 -2677 0
-2670 -2684 0
-2670 -1102 0
-2670 -325 0
-2670 -640 0
-2677 -2684 0
-2677 -1102 0
-2677 -325 0
-2677 -640 0
-2684 -1102 0
-2684 -325 0
-2684 -640 0
-1102 -325 0
-1102 -640 0
-325 -640 0
2601 2671 2678 2685 1103 326 641 0
-2601 -2671 0
-2601 -2678 0
-2601 -2685 0
-2601 -1103 0
-2601 -326 0
-2601 -641 0
-2671 -2678 0
-2671 -2685 0
-2671 -1103 0
-2671 -326 0
-2671 -641 0
-2678 -2685 0
-2678 -1103 0
-2678 -326 0
-2678 -641 0
-2685 -1103 0
-2685 -326 0
-2685 -641 0
-1103 -326 0
-1103 -641 0
-326 -641 0
2602 2672 2679 2686 1104 327 642 0
-2602 -2672 0
-2602 -2679 0
-2602 -2686 0
-2602 -1104 0
-2602 -327 0
-2602 -642 0
-2672 -2679 0
-2672 -2686 0
-2672 -1104 0
-2672 -327 0
-2672 -642 0
-2679 -2686 0
-2679 -1104 0
-2679 -327 0
-2679 -642 0
-2686 -1104 0
-2686 -327 0
-2686 -642 0
-1104 -327 0
-1104 -642 0
-327 -642 0
2603 2666 2687 2694 1168 328 643 0
-2603 -2666 0
-2603 -2687 0
-2603 -2694 0
-2603 -1168 0
-2603 -328 0
-2603 -643 0
-2666 -2687 0
-2666 -2694 0
-2666 -1168 0
-2666 -328 0
-2666 -643 0
-2687 -2694 0
-2687 -1168 0
-2687 -328 0
-2687 -643 0
-2694 -1168 0
-2694 -328 0
-2694 -643 0
-1168 -328 0
-1168 -643 0
-328 -643 0
2604 2667 2688 2695 1169 329 644 0
-2604 -2667 0
-2604 -2688 0
-2604 -2695 0
-2604 -1169 0
-2604 -329 0
-2604 -644 0
-2667 -2688 0
-2667 -2695 0
-2667 -1169 0
-2667 -329 0
-2667 -644 0
-2688 -2695 0
-2688 -1169 0
-2688 -329 0
-2688 -644 0
-2695 -1169 0
-2695 -329 0
-2695 -644 0
-1169 -329 0
-1169 -644 0
-329 -644 0
2605 2668 2689 2696 1170 330 645 0
-2605 -2668 0
-2605 -2689 0
-2605 -2696 0
-2605 -1170 0
-2605 -330 0
-2605 -645 0
-2668 -2689 0
-2668 -2696 0
-2668 -1170 0
-2668 -330 0
-2668 -645 0
-2689 -2696 0
-2689 -1170 0
-2689 -330 0
-2689 -645 0
-2696 -1170 0
-2696 -330 0
-2696 -645 0
-1170 -330 0
-1170 -645 0
-330 -645 0
2606 2669 2690 2697 1171 331 646 0
-2606 -2669 0
-2606 -2690 0
-2606 -2697 0
-2606 -1171 0
-2606 -331 0
-2606 -646 0
-2669 -2690 0
-2669 -2697 0
-2669 -1171 0
-2669 -331 0
-2669 -646 0
-2690 -2697 0
-2690 -1171 0
-2690 -331 0
-2690 -646 0
-2697 -1171 0
-2697 -331 0
-2697 -646 0
-1171 -331 0
-1171 -646 0
-331 -646 0
2607 2670 2691 2698 1172 332 647 0
-2607 -2670 0
-2607 -2691 0
-2607 -2698 0
-2607 -1172 0
-2607 -332 0
-2607 -647 0
-2670 -2691 0
-2670 -2698 0
-2670 -1172 0
-2670 -332 0
-2670 -647 0
-2691 -2698 0
-2691 -1172 0
-2691 -332 0
-2691 -647 0
-2698 -1172 0
-2698 -332 0
-2698 -647 0
-1172 -332 0
-1172 -647 0
-332 -647 0
2608 2671 2692 2699 1173 333 648 0
-2608 -2671 0
-2608 -2692 0
-2608 -2699 0
-2608 -1173 0
-2608 -333 0
-2608 -648 0
-2671 -2692 0
-2671 -2699 0
-2671 -1173 0
-2671 -333 0
-2671 -648 0
-2692 -2699 0
-2692 -1173 0
-2692 -333 0
-2692 -648 0
-2699 -1173 0
-2699 -333 0
-2699 -648 0
-1173 -333 0
-1173 -648 0
-333 -648 0
2609 2672 2693 2700 1174 334 649 0
-2609 -2672 0
-2609 -2693 0
-2609 -2700 0
-2609 -1174 0
-2609 -334 0
-2609 -649 0
-2672 -2693 0
-2672 -2700 0
-2672 -1174 0
-2672 -334 0
-2672 -649 0
-2693 -2700 0
-2693 -1174 0
-2693 -334 0
-2693 -649 0
-2700 -1174 0
-2700 -334 0
-2700 -649 0
-1174 -334 0
-1174 -649 0
-334 -649 0
2610 2673 2687 2701 1238 335 650 0
-2610 -2673 0
-2610 -2687 0
-2610 -2701 0
-2610 -1238 0
-2610 -335 0
-2610 -650 0
-2673 -2687 0
-2673 -2701 0
-2673 -1238 0
-2673 -335 0
-2673 -650 0
-2687 -2701 0
-2687 -1238 0
-2687 -335 0
-2687 -650 0
-2701 -1238 0
-2701 -335 0
-2701 -650 0
-1238 -335 0
-1238 -650 0
-335 -650 0
2611 2674 2688 2702 1239 336 651 0
-2611 -2674 0
-2611 -2688 0
-2611 -2702 0
-2611 -1239 0
-2611 -336 0
-2611 -651 0
-2674 -2688 0
-2674 -2702 0
-2674 -1239 0
-2674 -336 0
-2674 -651 0
-2688 -2702 0
-2688 -1239 0
-2688 -336 0
-2688 -651 0
-2702 -1239 0
-2702 -336 0
-2702 -651 0
-1239 -336 0
-1239 -651 0
-336 -651 0
2612 2675 2689 2703 1240 337 652 0
-2612 -2675 0
-2612 -2689 0
-2612 -2703 0
-2612 -1240 0
-2612 -337 0
-2612 -652 0
-2675 -2689 0
-2675 -2703 0
-2675 -1240 0
-2675 -337 0
-2675 -652 0
-2689 -2703 0
-2689 -1240 0
-2689 -337 0
-2689 -652 0
-2703 -1240 0
-2703 -337 0
-2703 -652 0
-1240 -337 0
-1240 -652 0
-337 -652 0
2613 2676 2690 2704 1241 338 653 0
-2613 -2676 0
-2613 -2690 0
-2613 -2704 0
-2613 -1241 0
-2613 -338 0
-2613 -653 0
-2676 -2690 0
-2676 -2704 0
-2676 -1241 0
-2676 -338 0
-2676 -653 0
-2690 -2704 0
-2690 -1241 0
-2690 -338 0
-2690 -653 0
-2704 -1241 0
-2704 -338 0
-2704 -653 0
-1241 -338 0
-1241 -653 0
-338 -653 0
2614 2677 2691 2705 1242 339 654 0
-2614 -2677 0
-2614 -2691 0
-2614 -2705 0
-2614 -1242 0
-2614 -339 0
-2614 -654 0
-2677 -2691 0
-2677 -2705 0
-2677 -1242 0
-2677 -339 0
-2677 -654 0
-2691 -2705 0
-2691 -1242 0
-2691 -339 0
-2691 -654 0
-2705 -1242 0
-2705 -339 0
-2705 -654 0
-1242 -339 0
-1242 -654 0
-339 -654 0
2615 2678 2692 2706 1243 340 655 0
-2615 -2678 0
-2615 -2692 0
-2615 -2706 0
-2615 -1243 0
-2615 -340 0
-2615 -655 0
-2678 -2692 0
-2678 -2706 0
-2678 -1243 0
-2678 -340 0
-2678 -655 0
-2692 -2706 0
-2692 -1243 0
-2692 -340 0
-2692 -655 0
-2706 -1243 0
-2706 -340 0
-2706 -655 0
-1243 -340 0
-1243 -655 0
-340 -655 0
2616 2679 2693 2707 1244 341 656 0
-2616 -2679 0
-2616 -2693 0
-2616 -2707 0
-2616 -1244 0
-2616 -341 0
-2616 -656 0
-2679 -2693 0
-2679 -2707 0
-2679 -1244 0
-2679 -341 0
-2679 -656 0
-2693 -2707 0
-2693 -1244 0
-2693 -341 0
-2693 -656 0
-2707 -1244 0
-2707 -341 0
-2707 -656 0
-1244 -341 0
-1244 -656 0
-341 -656 0
2617 2680 2694 2701 1308 342 657 0
-2617 -2680 0
-2617 -2694 0
-2617 -2701 0
-2617 -1308 0
-2617 -342 0
-2617 -657 0
-2680 -2694 0
-2680 -2701 0
-2680 -1308 0
-2680 -342 0
-2680 -657 0
-2694 -2701 0
-2694 -1308 0
-2694 -342 0
-2694 -657 0
-2701 -1308 0
-2701 -342 0
-2701 -657 0
-1308 -342 0
-1308 -657 0
-342 -657 0
2618 2681 2695 2702 1309 343 658 0
-2618 -2681 0
-2618 -2695 0
-2618 -2702 0
-2618 -1309 0
-2618 -343 0
-2618 -658 0
-2681 -2695 0
-2681 -2702 0
-2681 -1309 0
-2681 -343 0
-2681 -658 0
-2695 -2702 0
-2695 -1309 0
-2695 -343 0
-2695 -658 0
-2702 -1309 0
-2702 -343 0
-2702 -658 0
-1309 -343 0
-1309 -658 0
-343 -658 0
2619 2682 2696 2703 1310 344 659 0
-2619 -2682 0
-2619 -2696 0
-2619 -2703 0
-2619 -1310 0
-2619 -344 0
-2619 -659 0
-2682 -2696 0
-2682 -2703 0
-2682 -1310 0
-2682 -344 0
-2682 -659 0
-2696 -2703 0
-2696 -1310 0
-2696 -344 0
-2696 -659 0
-2703 -1310 0
-2703 -344 0
-2703 -659 0
-1310 -344 0
-1310 -659 0
-344 -659 0
2620 2683 2697 2704 1311 345 660 0
-2620 -2683 0
-2620 -2697 0
-2620 -2704 0
-2620 -1311 0
-2620 -345 0
-2620 -660 0
-2683 -2697 0
-2683 -2704 0
-2683 -1311 0
-2683 -345 0
-2683 -660 0
-2697 -2704 0
-2697 -1311 0
-2697 -345 0
-2697 -660 0
-2704 -1311 0
-2704 -345 0
-2704 -660 0
-1311 -345 0
-1311 -660 0
-345 -660 0
2621 2684 2698 2705 1312 346 661 0
-2621 -2684 0
-2621 -2698 0
-2621 -2705 0
-2621 -1312 0
-2621 -346 0
-2621 -661 0
-2684 -2698 0
-2684 -2705 0
-2684 -1312 0
-2684 -346 0
-2684 -661 0
-2698 -2705 0
-2698 -1312 0
-2698 -346 0
-2698 -661 0
-2705 -1312 0
-2705 -346 0
-2705 -661 0
-1312 -346 0
-1312 -661 0
-346 -661 0
2622 2685 2699 2706 1313 347 662 0
-2622 -2685 0
-2622 -2699 0
-2622 -2706 0
-2622 -1313 0
-2622 -347 0
-2622 -662 0
-2685 -2699 0
-2685 -2706 0
-2685 -1313 0
-2685 -347 0
-2685 -662 0
-2699 -2706 0
-2699 -1313 0
-2699 -347 0
-2699 -662 0
-2706 -1313 0
-2706 -347 0
-2706 -662 0
-1313 -347 0
-1313 -662 0
-347 -662 0
2623 2686 2700 2707 1314 348 663 0
-2623 -2686 0
-2623 -2700 0
-2623 -2707 0
-2623 -1314 0
-2623 -348 0
-2623 -663 0
-2686 -2700 0
-2686 -2707 0
-2686 -1314 0
-2686 -348 0
-2686 -663 0
-2700 -2707 0
-2700 -1314 0
-2700 -348 0
-2700 -663 0
-2707 -1314 0
-2707 -348 0
-2707 -663 0
-1314 -348 0
-1314 -663 0
-348 -663 0
2624 2666 2708 2715 1378 349 664 0
-2624 -2666 0
-2624 -2708 0
-2624 -2715 0
-2624 -1378 0
-2624 -349 0
-2624 -664 0
-2666 -2708 0
-2666 -2715 0
-2666 -1378 0
-2666 -349 0
-2666 -664 0
-2708 -2715 0
-2708 -1378 0
-2708 -349 0
-2708 -664 0
-2715 -1378 0
-2715 -349 0
-2715 -664 0
-1378 -349 0
-1378 -664 0
-349 -664 0
2625 2667 2709 2716 1379 350 665 0
-2625 -2667 0
-2625 -2709 0
-2625 -2716 0
-2625 -1379 0
-2625 -350 0
-2625 -665 0
-2667 -2709 0
-2667 -2716 0
-2667 -1379 0
-2667 -350 0
-2667 -665 0
-2709 -2716 0
-2709 -1379 0
-2709 -350 0
-2709 -665 0
-2716 -1379 0
-2716 -350 0
-2716 -665 0
-1379 -350 0
-1379 -665 0
-350 -665 0
2626 2668 2710 2717 1380 351 666 0
-2626 -2668 0
-2626 -2710 0
-2626 -2717 0
-2626 -1380 0
-2626 -351 0
-2626 -666 0
-2668 -2710 0
-2668 -2717 0
-2668 -1380 0
-2668 -351 0
-2668 -666 0
-2710 -2717 0
-2710 -1380 0
-2710 -351 0
-2710 -666 0
-2717 -1380 0
-2717 -351 0
-2717 -666 0
-1380 -351 0
-1380 -666 0
-351 -666 0
2627 2669 2711 2718 1381 352 667 0
-2627 -2669 0
-2627 -2711 0
-2627 -2718 0
-2627 -1381 0
-2627 -352 0
-2627 -667 0
-2669 -2711 0
-2669 -2718 0
-2669 -1381 0
-2669 -352 0
-2669 -667 0
-2711 -2718 0
-2711 -1381 0
-2711 -352 0
-2711 -667 0
-2718 -1381 0
-2718 -352 0
-2718 -667 0
-1381 -352 0
-1381 -667 0
-352 -667 0
2628 2670 2712 2719 1382 353 668 0
-2628 -2670 0
-2628 -2712 0
-2628 -2719 0
-2628 -1382 0
-2628 -353 0
-2628 -668 0
-2670 -2712 0
-2670 -2719 0
-2670 -1382 0
-2670 -353 0
-2670 -668 0
-2712 -2719 0
-2712 -1382 0
-2712 -353 0
-2712 -668 0
-2719 -1382 0
-2719 -353 0
-2719 -668 0
-1382 -353 0
-1382 -668 0
-353 -668 0
2629 2671 2713 2720 1383 354 669 0
-2629 -2671 0
-2629 -2713 0
-2629 -2720 0
-2629 -1383 0
-2629 -354 0
-2629 -669 0
-2671 -2713 0
-2671 -2720 0
-2671 -1383 0
-2671 -354 0
-2671 -669 0
-2713 -2720 0
-2713 -1383 0
-2713 -354 0
-2713 -669 0
-2720 -1383 0
-2720 -354 0
-2720 -669 0
-1383 -354 0
-1383 -669 0
-354 -669 0
2630 2672 2714 2721 1384 355 670 0
-2630 -2672 0
-2630 -2714 0
-2630 -2721 0
-2630 -1384 0
-2630 -355 0
-2630 -670 0
-2672 -2714 0
-2672 -2721 0
-2672 -1384 0
-2672 -355 0
-2672 -670 0
-2714 -2721 0
-2714 -1384 0
-2714 -355 0
-2714 -670 0
-2721 -1384 0
-2721 -355 0
-2721 -670 0
-1384 -355 0
-1384 -670 0
-355 -670 0
2631 2673 2708 2722 1448 356 671 0
-2631 -2673 0
-2631 -2708 0
-2631 -2722 0
-2631 -1448 0
-2631 -356 0
-2631 -671 0
-2673 -2708 0
-2673 -2722 0
-2673 -1448 0
-2673 -356 0
-2673 -671 0
-2708 -2722 0
-2708 -1448 0
-2708 -356 0
-2708 -671 0
-2722 -1448 0
-2722 -356 0
-2722 -671 0
-1448 -356 0
-1448 -671 0
-356 -671 0
2632 2674 2709 2723 1449 357 672 0
-2632 -2674 0
-2632 -2709 0
-2632 -2723 0
-2632 -1449 0
-2632 -357 0
-2632 -672 0
-2674 -2709 0
-2674 -2723 0
-2674 -1449 0
-2674 -357 0
-2674 -672 0
-2709 -2723 0
-2709 -1449 0
-2709 -357 0
-2709 -672 0
-2723 -1449 0
-2723 -357 0
-2723 -672 0
-1449 -357 0
-1449 -672 0
-357 -672 0
2633 2675 2710 2724 1450 358 673 0
-2633 -2675 0
-2633 -2710 0
-2633 -2724 0
-2633 -1450 0
-2633 -358 0
-2633 -673 0
-2675 -2710 0
-2675 -2724 0
-2675 -1450 0
-2675 -358 0
-2675 -673 0
-2710 -2724 0
-2710 -1450 0
-2710 -358 0
-2710 -673 0
-2724 -1450 0
-2724 -358 0
-2724 -673 0
-1450 -358 0
-1450 -673 0
-358 -673 0
2634 2676 2711 2725 1451 359 674 0
-2634 -2676 0
-2634 -2711 0
-2634 -2725 0
-2634 -1451 0
-2634 -359 0
-2634 -674 0
-2676 -2711 0
-2676 -2725 0
-2676 -1451 0
-2676 -359 0
-2676 -674 0
-2711 -2725 0
-2711 -1451 0
-2711 -359 0
-2711 -674 0
-2725 -1451 0
-2725 -359 0
-2725 -674 0
-1451 -359 0
-1451 -674 0
-359 -674 0
2635 2677 2712 2726 1452 360 675 0
-2635 -2677 0
-2635 -2712 0
-2635 -2726 0
-2635 -1452 0
-2635 -360 0
-2635 -675 0
-2677 -2712 0
-2677 -2726 0
-2677 -1452 0
-2677 -360 0
-2677 -675 0
-2712 -2726 0
-2712 -1452 0
-2712 -360 0
-2712 -675 0
-2726 -1452 0
-2726 -360 0
-2726 -675 0
-1452 -360 0
-1452 -675 0
-360 -675 0
2636 2678 2713 2727 1453 361 676 0
-2636 -2678 0
-2636 -2713 0
-2636 -2727 0
-2636 -1453 0
-2636 -361 0
-2636 -676 0
-2678 -2713 0
-2678 -2727 0
-2678 -1453 0
-2678 -361 0
-2678 -676 0
-2713 -2727 0
-2713 -1453 0
-2713 -361 0
-2713 -676 0
-2727 -1453 0
-2727 -361 0
-2727 -676 0
-1453 -361 0
-1453 -676 0
-361 -676 0
2637 2679 2714 2728 1454 362 677 0
-2637 -2679 0
-2637 -2714 0
-2637 -2728 0
-2637 -1454 0
-2637 -362 0
-2637 -677 0
-2679 -2714 0
-2679 -2728 0
-2679 -1454 0
-2679 -362 0
-2679 -677 0
-2714 -2728 0
-2714 -1454 0
-2714 -362 0
-2714 -677 0
-2728 -1454 0
-2728 -362 0
-2728 -677 0
-1454 -362 0
-1454 -677 0
-362 -677 0
2638 2680 2715 2722 1518 363 678 0
-2638 -2680 0
-2638 -2715 0
-2638 -2722 0
-2638 -1518 0
-2638 -363 0
-2638 -678 0
-2680 -2715 0
-2680 -2722 0
-2680 -1518 0
-2680 -363 0
-2680 -678 0
-2715 -2722 0
-2715 -1518 0
-2715 -363 0
-2715 -678 0
-2722 -1518 0
-2722 -363 0
-2722 -678 0
-1518 -363 0
-1518 -678 0
-363 -678 0
2639 2681 2716 2723 1519 364 679 0
-2639 -2681 0
-2639 -2716 0
-2639 -2723 0
-2639 -1519 0
-2639 -364 0
-2639 -679 0
-2681 -2716 0
-2681 -2723 0
-2681 -1519 0
-2681 -364 0
-2681 -679 0
-2716 -2723 0
-2716 -1519 0
-2716 -364 0
-2716 -679 0
-2723 -1519 0
-2723 -364 0
-2723 -679 0
-1519 -364 0
-1519 -679 0
-364 -679 0
2640 2682 2717 2724 1520 365 680 0
-2640 -2682 0
-2640 -2717 0
-2640 -2724 0
-2640 -1520 0
-2640 -365 0
-2640 -680 0
-2682 -2717 0
-2682 -2724 0
-2682 -1520 0
-2682 -365 0
-2682 -680 0
-2717 -2724 0
-2717 -1520 0
-2717 -365 0
-2717 -680 0
-2724 -1520 0
-2724 -365 0
-2724 -680 0
-1520 -365 0
-1520 -680 0
-365 -680 0
2641 2683 2718 2725 1521 366 681 0
-2641 -2683 0
-2641 -2718 0
-2641 -2725 0
-2641 -1521 0
-2641 -366 0
-2641 -681 0
-2683 -2718 0
-2683 -2725 0
-2683 -1521 0
-2683 -366 0
-2683 -681 0
-2718 -2725 0
-2718 -1521 0
-2718 -366 0
-2718 -681 0
-2725 -1521 0
-2725 -366 0
-2725 -681 0
-1521 -366 0
-1521 -681 0
-366 -681 0
2642 2684 2719 2726 1522 367 682 0
-2642 -2684 0
-2642 -2719 0
-2642 -2726 0
-2642 -1522 0
-2642 -367 0
-2642 -682 0
-2684 -2719 0
-2684 -2726 0
-2684 -1522 0
-2684 -367 0
-2684 -682 0
-2719 -2726 0
-2719 -1522 0
-2719 -367 0
-2719 -682 0
-2726 -1522 0
-2726 -367 0
-2726 -682 0
-1522 -367 0
-1522 -682 0
-367 -682 0
2643 2685 2720 2727 1523 368 683 0
-2643 -2685 0
-2643 -2720 0
-2643 -2727 0
-2643 -1523 0
-2643 -368 0
-2643 -683 0
-2685 -2720 0
-2685 -2727 0
-2685 -1523 0
-2685 -368 0
-2685 -683 0
-2720 -2727 0
-2720 -1523 0
-2720 -368 0
-2720 -683 0
-2727 -1523 0
-2727 -368 0
-2727 -683 0
-1523 -368 0
-1523 -683 0
-368 -683 0
2644 2686 2721 2728 1524 369 684 0
-2644 -2686 0
-2644 -2721 0
-2644 -2728 0
-2644 -1524 0
-2644 -369 0
-2644 -684 0
-2686 -2721 0
-2686 -2728 0
-2686 -1524 0
-2686 -369 0
-2686 -684 0
-2721 -2728 0
-2721 -1524 0
-2721 -369 0
-2721 -684 0
-2728 -1524 0
-2728 -369 0
-2728 -684 0
-1524 -369 0
-1524 -684 0
-369 -684 0
2645 2687 2708 2729 1588 370 685 0
-2645 -2687 0
-2645 -2708 0
-2645 -2729 0
-2645 -1588 0
-2645 -370 0
-2645 -685 0
-2687 -2708 0
-2687 -2729 0
-2687 -1588 0
-2687 -370 0
-2687 -685 0
-2708 -2729 0
-2708 -1588 0
-2708 -370 0
-2708 -685 0
-2729 -1588 0
-2729 -370 0
-2729 -685 0
-1588 -370 0
-1588 -685 0
-370 -685 0
2646 2688 2709 2730 1589 371 686 0
-2646 -2688 0
-2646 -2709 0
-2646 -2730 0
-2646 -1589 0
-2646 -371 0
-2646 -686 0
-2688 -2709 0
-2688 -2730 0
-2688 -1589 0
-2688 -371 0
-2688 -686 0
-2709 -2730 0
-2709 -1589 0
-2709 -371 0
-2709 -686 0
-2730 -1589 0
-2730 -371 0
-2730 -686 0
-1589 -371 0
-1589 -686 0
-371 -686 0
2647 2689 2710 2731 1590 372 687 0
-2647 -2689 0
-2647 -2710 0
-2647 -2731 0
-2647 -1590 0
-2647 -372 0
-2647 -687 0
-2689 -2710 0
-2689 -2731 0
-2689 -1590 0
-2689 -372 0
-2689 -687 0
-2710 -2731 0
-2710 -1590 0
-2710 -372 0
-2710 -687 0
-2731 -1590 0
-2731 -372 0
-2731 -687 0
-1590 -372 0
-1590 -687 0
-372 -687 0
2648 2690 2711 2732 1591 373 688 0
-2648 -2690 0
-2648 -2711 0
-2648 -2732 0
-2648 -1591 0
-2648 -373 0
-2648 -688 0
-2690 -2711 0
-2690 -2732 0
-2690 -1591 0
-2690 -373 0
-2690 -688 0
-2711 -2732 0
-2711 -1591 0
-2711 -373 0
-2711 -688 0
-2732 -1591 0
-2732 -373 0
-2732 -688 0
-1591 -373 0
-1591 -688 0
-373 -688 0
2649 2691 2712 2733 1592 374 689 0
-2649 -2691 0
-2649 -2712 0
-2649 -2733 0
-2649 -1592 0
-2649 -374 0
-2649 -689 0
-2691 -2712 0
-2691 -2733 0
-2691 -1592 0
-2691 -374 0
-2691 -689 0
-2712 -2733 0
-2712 -1592 0
-2712 -374 0
-2712 -689 0
-2733 -1592 0
-2733 -374 0
-2733 -689 0
-1592 -374 0
-1592 -689 0
-374 -689 0
2650 2692 2713 2734 1593 375 690 0
-2650 -2692 0
-2650 -2713 0
-2650 -2734 0
-2650 -1593 0
-2650 -375 0
-2650 -690 0
-2692 -2713 0
-2692 -2734 0
-2692 -1593 0
-2692 -375 0
-2692 -690 0
-2713 -2734 0
-2713 -1593 0
-2713 -375 0
-2713 -690 0
-2734 -1593 0
-2734 -375 0
-2734 -690 0
-1593 -375 0
-1593 -690 0
-375 -690 0
2651 2693 2714 2735 1594 376 691 0
-2651 -2693 0
-2651 -2714 0
-2651 -2735 0
-2651 -1594 0
-2651 -376 0
-2651 -691 0
-2693 -2714 0
-2693 -2735 0
-2693 -1594 0
-2693 -376 0
-2693 -691 0
-2714 -2735 0
-2714 -1594 0
-2714 -376 0
-2714 -691 0
-2735 -1594 0
-2735 -376 0
-2735 -691 0
-1594 -376 0
-1594 -691 0
-376 -691 0
2652 2694 2715 2729 1658 377 692 0
-2652 -2694 0
-2652 -2715 0
-2652 -2729 0
-2652 -1658 0
-2652 -377 0
-2652 -692 0
-2694 -2715 0
-2694 -2729 0
-2694 -1658 0
-2694 -377 0
-2694 -692 0
-2715 -2729 0
-2715 -1658 0
-2715 -377 0
-2715 -692 0
-2729 -1658 0
-2729 -377 0
-2729 -692 0
-1658 -377 0
-1658 -692 0
-377 -692 0
2653 2695 2716 2730 1659 378 693 0
-2653 -2695 0
-2653 -2716 0
-2653 -2730 0
-2653 -1659 0
-2653 -378 0
-2653 -693 0
-2695 -2716 0
-2695 -2730 0
-2695 -1659 0
-2695 -378 0
-2695 -693 0
-2716 -2730 0
-2716 -1659 0
-2716 -378 0
-2716 -693 0
-2730 -1659 0
-2730 -378 0
-2730 -693 0
-1659 -378 0
-1659 -693 0
-378 -693 0
2654 2696 2717 2731 1660 379 694 0
-2654 -2696 0
-2654 -2717 0
-2654 -2731 0
-2654 -1660 0
-2654 -379 0
-2654 -694 0
-2696 -2717 0
-2696 -2731 0
-2696 -1660 0
-2696 -379 0
-2696 -694 0
-2717 -2731 0
-2717 -1660 0
-2717 -379 0
-2717 -694 0
-2731 -1660 0
-2731 -379 0
-2731 -694 0
-1660 -379 0
-1660 -694 0
-379 -694 0
2655 2697 2718 2732 1661 380 695 0
-2655 -2697 0
-2655 -2718 0
-2655 -2732 0
-2655 -1661 0
-2655 -380 0
-2655 -695 0
-2697 -2718 0
-2697 -2732 0
-2697 -1661 0
-2697 -380 0
-2697 -695 0
-2718 -2732 0
-2718 -1661 0
-2718 -380 0
-2718 -695 0
-2732 -1661 0
-2732 -380 0
-2732 -695 0
-1661 -380 0
-1661 -695 0
-380 -695 0
2656 2698 2719 2733 1662 381 696 0
-2656 -2698 0
-2656 -2719 0
-2656 -2733 0
-2656 -1662 0
-2656 -381 0
-2656 -696 0
-2698 -2719 0
-2698 -2733 0
-2698 -1662 0
-2698 -381 0
-2698 -696 0
-2719 -2733 0
-2719 -1662 0
-2719 -381 0
-2719 -696 0
-2733 -1662 0
-2733 -381 0
-2733 -696 0
-1662 -381 0
-1662 -696 0
-381 -696 0
2657 2699 2720 2734 1663 382 697 0
-2657 -2699 0
-2657 -2720 0
-2657 -2734 0
-2657 -1663 0
-2657 -382 0
-2657 -697 0
-2699 -2720 0
-2699 -2734 0
-2699 -1663 0
-2699 -382 0
-2699 -697 0
-2720 -2734 0
-2720 -1663 0
-2720 -382 0
-2720 -697 0
-2734 -1663 0
-2734 -382 0
-2734 -697 0
-1663 -382 0
-1663 -697 0
-382 -697 0
2658 2700 2721 2735 1664 383 698 0
-2658 -2700 0
-2658 -2721 0
-2658 -2735 0
-2658 -1664 0
-2658 -383 0
-2658 -698 0
-2700 -2721 0
-2700 -2735 0
-2700 -1664 0
-2700 -383 0
-2700 -698 0
-2721 -2735 0
-2721 -1664 0
-2721 -383 0
-2721 -698 0
-2735 -1664 0
-2735 -383 0
-2735 -698 0
-1664 -383 0
-1664 -698 0
-383 -698 0
2659 2701 2722 2729 1728 384 699 0
-2659 -2701 0
-2659 -2722 0
-2659 -2729 0
-2659 -1728 0
-2659 -384 0
-2659 -699 0
-2701 -2722 0
-2701 -2729 0
-2701 -1728 0
-2701 -384 0
-2701 -699 0
-2722 -2729 0
-2722 -1728 0
-2722 -384 0
-2722 -699 0
-2729 -1728 0
-2729 -384 0
-2729 -699 0
-1728 -384 0
-1728 -699 0
-384 -699 0
2660 2702 2723 2730 1729 385 700 0
-2660 -2702 0
-2660 -2723 0
-2660 -2730 0
-2660 -1729 0
-2660 -385 0
-2660 -700 0
-2702 -2723 0
-2702 -2730 0
-2702 -1729 0
-2702 -385 0
-2702 -700 0
-2723 -2730 0
-2723 -1729 0
-2723 -385 0
-2723 -700 0
-2730 -1729 0
-2730 -385 0
-2730 -700 0
-1729 -385 0
-1729 -700 0
-385 -700 0
2661 2703 2724 2731 1730 386 701 0
-2661 -2703 0
-2661 -2724 0
-2661 -2731 0
-2661 -1730 0
-2661 -386 0
-2661 -701 0
-2703 -2724 0
-2703 -2731 0
-2703 -1730 0
-2703 -386 0
-2703 -701 0
-2724 -2731 0
-2724 -1730 0
-2724 -386 0
-2724 -701 0
-2731 -1730 0
-2731 -386 0
-2731 -701 0
-1730 -386 0
-1730 -701 0
-386 -701 0
2662 2704 2725 2732 1731 387 702 0
-2662 -2704 0
-2662 -2725 0
-2662 -2732 0
-2662 -1731 0
-2662 -387 0
-2662 -702 0
-2704 -2725 0
-2704 -2732 0
-2704 -1731 0
-2704 -387 0
-2704 -702 0
-2725 -2732 0
-2725 -1731 0
-2725 -387 0
-2725 -702 0
-2732 -1731 0
-2732 -387 0
-2732 -702 0
-1731 -387 0
-1731 -702 0
-387 -702 0
2663 2705 2726 2733 1732 388 703 0
-2663 -2705 0
-2663 -2726 0
-2663 -2733 0
-2663 -1732 0
-2663 -388 0
-2663 -703 0
-2705 -2726 0
-2705 -2733 0
-2705 -1732 0
-2705 -388 0
-2705 -703 0
-2726 -2733 0
-2726 -1732 0
-2726 -388 0
-2726 -703 0
-2733 -1732 0
-2733 -388 0
-2733 -703 0
-1732 -388 0
-1732 -703 0
-388 -703 0
2664 2706 2727 2734 1733 389 704 0
-2664 -2706 0
-2664 -2727 0
-2664 -2734 0
-2664 -1733 0
-2664 -389 0
-2664 -704 0
-2706 -2727 0
-2706 -2734 0
-2706 -1733 0
-2706 -389 0
-2706 -704 0
-2727 -2734 0
-2727 -1733 0
-2727 -389 0
-2727 -704 0
-2734 -1733 0
-2734 -389 0
-2734 -704 0
-1733 -389 0
-1733 -704 0
-389 -704 0
2665 2707 2728 2735 1734 390 705 0
-2665 -2707 0
-2665 -2728 0
-2665 -2735 0
-2665 -1734 0
-2665 -390 0
-2665 -705 0
-2707 -2728 0
-2707 -2735 0
-2707 -1734 0
-2707 -390 0
-2707 -705 0
-2728 -2735 0
-2728 -1734 0
-2728 -390 0
-2728 -705 0
-2735 -1734 0
-2735 -390 0
-2735 -705 0
-1734 -390 0
-1734 -705 0
-390 -705 0
2736 2743 2750 2757 755 391 496 0
-2736 -2743 0
-2736 -2750 0
-2736 -2757 0
-2736 -755 0
-2736 -391 0
-2736 -496 0
-2743 -2750 0
-2743 -2757 0
-2743 -755 0
-2743 -391 0
-2743 -496 0
-2750 -2757 0
-2750 -755 0
-2750 -391 0
-2750 -496 0
-2757 -755 0
-2757 -391 0
-2757 -496 0
-755 -391 0
-755 -496 0
-391 -496 0
2737 2744 2751 2758 756 392 497 0
-2737 -2744 0
-2737 -2751 0
-2737 -2758 0
-2737 -756 0
-2737 -392 0
-2737 -497 0
-2744 -2751 0
-2744 -2758 0
-2744 -756 0
-2744 -392 0
-2744 -497 0
-2751 -2758 0
-2751 -756 0
-2751 -392 0
-2751 -497 0
-2758 -756 0
-2758 -392 0
-2758 -497 0
-756 -392 0
-756 -497 0
-392 -497 0
2738 2745 2752 2759 757 393 498 0
-2738 -2745 0
-2738 -2752 0
-2738 -2759 0
-2738 -757 0
-2738 -393 0
-2738 -498 0
-2745 -2752 0
-2745 -2759 0
-2745 -757 0
-2745 -393 0
-2745 -498 0
-2752 -2759 0
-2752 -757 0
-2752 -393 0
-2752 -498 0
-2759 -757 0
-2759 -393 0
-2759 -498 0
-757 -393 0
-757 -498 0
-393 -498 0
2739 2746 2753 2760 758 394 499 0
-2739 -2746 0
-2739 -2753 0
-2739 -2760 0
-2739 -758 0
-2739 -394 0
-2739 -499 0
-2746 -2753 0
-2746 -2760 0
-2746 -758 0
-2746 -394 0
-2746 -499 0
-2753 -2760 0
-2753 -758 0
-2753 -394 0
-2753 -499 0
-2760 -758 0
-2760 -394 0
-2760 -499 0
-758 -394 0
-758 -499 0
-394 -499 0
2740 2747 2754 2761 759 395 500 0
-2740 -2747 0
-2740 -2754 0
-2740 -2761 0
-2740 -759 0
-2740 -395 0
-2740 -500 0
-2747 -2754 0
-2747 -2761 0
-2747 -759 0
-2747 -395 0
-2747 -500 0
-2754 -2761 0
-2754 -759 0
-2754 -395 0
-2754 -500 0
-2761 -759 0
-2761 -395 0
-2761 -500 0
-759 -395 0
-759 -500 0
-395 -500 0
2741 2748 2755 2762 760 396 501 0
-2741 -2748 0
-2741 -2755 0
-2741 -2762 0
-2741 -760 0
-2741 -396 0
-2741 -501 0
-2748 -2755 0
-2748 -2762 0
-2748 -760 0
-2748 -396 0
-2748 -501 0
-2755 -2762 0
-2755 -760 0
-2755 -396 0
-2755 -501 0
-2762 -760 0
-2762 -396 0
-2762 -501 0
-760 -396 0
-760 -501 0
-396 -501 0
2742 2749 2756 2763 761 397 502 0
-2742 -2749 0
-2742 -2756 0
-2742 -2763 0
-2742 -761 0
-2742 -397 0
-2742 -502 0
-2749 -2756 0
-2749 -2763 0
-2749 -761 0
-2749 -397 0
-2749 -502 0
-2756 -2763 0
-2756 -761 0
-2756 -397 0
-2756 -502 0
-2763 -761 0
-2763 -397 0
-2763 -502 0
-761 -397 0
-761 -502 0
-397 -502 0
2736 2764 2771 2778 825 398 503 0
-2736 -2764 0
-2736 -2771 0
-2736 -2778 0
-2736 -825 0
-2736 -398 0
-2736 -503 0
-2764 -2771 0
-2764 -2778 0
-2764 -825 0
-2764 -398 0
-2764 -503 0
-2771 -2778 0
-2771 -825 0
-2771 -398 0
-2771 -503 0
-2778 -825 0
-2778 -398 0
-2778 -503 0
-825 -398 0
-825 -503 0
-398 -503 0
2737 2765 2772 2779 826 399 504 0
-2737 -2765 0
-2737 -2772 0
-2737 -2779 0
-2737 -826 0
-2737 -399 0
-2737 -504 0
-2765 -2772 0
-2765 -2779 0
-2765 -826 0
-2765 -399 0
-2765 -504 0
-2772 -2779 0
-2772 -826 0
-2772 -399 0
-2772 -504 0
-2779 -826 0
-2779 -399 0
-2779 -504 0
-826 -399 0
-826 -504 0
-399 -504 0
2738 2766 2773 2780 827 400 505 0
-2738 -2766 0
-2738 -2773 0
-2738 -2780 0
-2738 -827 0
-2738 -400 0
-2738 -505 0
-2766 -2773 0
-2766 -2780 0
-2766 -827 0
-2766 -400 0
-2766 -505 0
-2773 -2780 0
-2773 -827 0
-2773 -400 0
-2773 -505 0
-2780 -827 0
-2780 -400 0
-2780 -505 0
-827 -400 0
-827 -505 0
-400 -505 0
2739 2767 2774 2781 828 401 506 0
-2739 -2767 0
-2739 -2774 0
-2739 -2781 0
-2739 -828 0
-2739 -401 0
-2739 -506 0
-2767 -2774 0
-2767 -2781 0
-2767 -828 0
-2767 -401 0
-2767 -506 0
-2774 -2781 0
-2774 -828 0
-2774 -401 0
-2774 -506 0
-2781 -828 0
-2781 -401 0
-2781 -506 0
-828 -401 0
-828 -506 0
-401 -506 0
2740 2768 2775 2782 829 402 507 0
-2740 -2768 0
-2740 -2775 0
-2740 -2782 0
-2740 -829 0
-2740 -402 0
-2740 -507 0
-2768 -2775 0
-2768 -2782 0
-2768 -829 0
-2768 -402 0
-2768 -507 0
-2775 -2782 0
-2775 -829 0
-2775 -402 0
-2775 -507 0
-2782 -829 0
-2782 -402 0
-2782 -507 0
-829 -402 0
-829 -507 0
-402 -507 0
2741 2769 2776 2783 830 403 508 0
-2741 -2769 0
-2741 -2776 0
-2741 -2783 0
-2741 -830 0
-2741 -403 0
-2741 -508 0
-2769 -2776 0
-2769 -2783 0
-2769 -830 0
-2769 -403 0
-2769 -508 0
-2776 -2783 0
-2776 -830 0
-2776 -403 0
-2776 -508 0
-2783 -830 0
-2783 -403 0
-2783 -508 0
-830 -403 0
-830 -508 0
-403 -508 0
2742 2770 2777 2784 831 404 509 0
-2742 -2770 0
-2742 -2777 0
-2742 -2784 0
-2742 -831 0
-2742 -404 0
-2742 -509 0
-2770 -2777 0
-2770 -2784 0
-2770 -831 0
-2770 -404 0
-2770 -509 0
-2777 -2784 0
-2777 -831 0
-2777 -404 0
-2777 -509 0
-2784 -831 0
-2784 -404 0
-2784 -509 0
-831 -404 0
-831 -509 0
-404 -509 0
2743 2764 2785 2792 895 405 510 0
-2743 -2764 0
-2743 -2785 0
-2743 -2792 0
-2743 -895 0
-2743 -405 0
-2743 -510 0
-2764 -2785 0
-2764 -2792 0
-2764 -895 0
-2764 -405 0
-2764 -510 0
-2785 -2792 0
-2785 -895 0
-2785 -405 0
-2785 -510 0
-2792 -895 0
-2792 -405 0
-2792 -510 0
-895 -405 0
-895 -510 0
-405 -510 0
2744 2765 2786 2793 896 406 511 0
-2744 -2765 0
-2744 -2786 0
-2744 -2793 0
-2744 -896 0
-2744 -406 0
-2744 -511 0
-2765 -2786 0
-2765 -2793 0
-2765 -896 0
-2765 -406 0
-2765 -511 0
-2786 -2793 0
-2786 -896 0
-2786 -406 0
-2786 -511 0
-2793 -896 0
-2793 -406 0
-2793 -511 0
-896 -406 0
-896 -511 0
-406 -511 0
2745 2766 2787 2794 897 407 512 0
-2745 -2766 0
-2745 -2787 0
-2745 -2794 0
-2745 -897 0
-2745 -407 0
-2745 -512 0
-2766 -2787 0
-2766 -2794 0
-2766 -897 0
-2766 -407 0
-2766 -512 0
-2787 -2794 0
-2787 -897 0
-2787 -407 0
-2787 -512 0
-2794 -897 0
-2794 -407 0
-2794 -512 0
-897 -407 0
-897 -512 0
-407 -512 0
2746 2767 2788 2795 898 408 513 0
-2746 -2767 0
-2746 -2788 0
-2746 -2795 0
-2746 -898 0
-2746 -408 0
-2746 -513 0
-2767 -2788 0
-2767 -2795 0
-2767 -898 0
-2767 -408 0
-2767 -513 0
-2788 -2795 0
-2788 -898 0
-2788 -408 0
-2788 -513 0
-2795 -898 0
-2795 -408 0
-2795 -513 0
-898 -408 0
-898 -513 0
-408 -513 0
2747 2768 2789 2796 899 409 514 0
-2747 -2768 0
-2747 -2789 0
-2747 -2796 0
-2747 -899 0
-2747 -409 0
-2747 -514 0
-2768 -2789 0
-2768 -2796 0
-2768 -899 0
-2768 -409 0
-2768 -514 0
-2789 -2796 0
-2789 -899 0
-2789 -409 0
-2789 -514 0
-2796 -899 0
-2796 -409 0
-2796 -514 0
-899 -409 0
-899 -514 0
-409 -514 0
2748 2769 2790 2797 900 410 515 0
-2748 -2769 0
-2748 -2790 0
-2748 -2797 0
-2748 -900 0
-2748 -410 0
-2748 -515 0
-2769 -2790 0
-2769 -2797 0
-2769 -900 0
-2769 -410 0
-2769 -515 0
-2790 -2797 0
-2790 -900 0
-2790 -410 0
-2790 -515 0
-2797 -900 0
-2797 -410 0
-2797 -515 0
-900 -410 0
-900 -515 0
-410 -515 0
2749 2770 2791 2798 901 411 516 0
-2749 -2770 0
-2749 -2791 0
-2749 -2798 0
-2749 -901 0
-2749 -411 0
-2749 -516 0
-2770 -2791 0
-2770 -2798 0
-2770 -901 0
-2770 -411 0
-2770 -516 0
-2791 -2798 0
-2791 -901 0
-2791 -411 0
-2791 -516 0
-2798 -901 0
-2798 -411 0
-2798 -516 0
-901 -411 0
-901 -516 0
-411 -516 0
2750 2771 2785 2799 965 412 517 0
-2750 -2771 0
-2750 -2785 0
-2750 -2799 0
-2750 -965 0
-2750 -412 0
-2750 -517 0
-2771 -2785 0
-2771 -2799 0
-2771 -965 0
-2771 -412 0
-2771 -517 0
-2785 -2799 0
-2785 -965 0
-2785 -412 0
-2785 -517 0
-2799 -965 0
-2799 -412 0
-2799 -517 0
-965 -412 0
-965 -517 0
-412 -517 0
2751 2772 2786 2800 966 413 518 0
-2751 -2772 0
-2751 -2786 0
-2751 -2800 0
-2751 -966 0
-2751 -413 0
-2751 -518 0
-2772 -2786 0
-2772 -2800 0
-2772 -966 0
-2772 -413 0
-2772 -518 0
-2786 -2800 0
-2786 -966 0
-2786 -413 0
-2786 -518 0
-2800 -966 0
-2800 -413 0
-2800 -518 0
-966 -413 0
-966 -518 0
-413 -518 0
2752 2773 2787 2801 967 414 519 0
-2752 -2773 0
-2752 -2787 0
-2752 -2801 0
-2752 -967 0
-2752 -414 0
-2752 -519 0
-2773 -2787 0
-2773 -2801 0
-2773 -967 0
-2773 -414 0
-2773 -519 0
-2787 -2801 0
-2787 -967 0
-2787 -414 0
-2787 -519 0
-2801 -967 0
-2801 -414 0
-2801 -519 0
-967 -414 0
-967 -519 0
-414 -519 0
2753 2774 2788 2802 968 415 520 0
-2753 -2774 0
-2753 -2788 0
-2753 -2802 0
-2753 -968 0
-2753 -415 0
-2753 -520 0
-2774 -2788 0
-2774 -2802 0
-2774 -968 0
-2774 -415 0
-2774 -520 0
-2788 -2802 0
-2788 -968 0
-2788 -415 0
-2788 -520 0
-2802 -968 0
-2802 -415 0
-2802 -520 0
-968 -415 0
-968 -520 0
-415 -520 0
2754 2775 2789 2803 969 416 521 0
-2754 -2775 0
-2754 -2789 0
-2754 -2803 0
-2754 -969 0
-2754 -416 0
-2754 -521 0
-2775 -2789 0
-2775 -2803 0
-2775 -969 0
-2775 -416 0
-2775 -521 0
-2789 -2803 0
-2789 -969 0
-2789 -416 0
-2789 -521 0
-2803 -969 0
-2803 -416 0
-2803 -521 0
-969 -416 0
-969 -521 0
-416 -521 0
2755 2776 2790 2804 970 417 522 0
-2755 -2776 0
-2755 -2790 0
-2755 -2804 0
-2755 -970 0
-2755 -417 0
-2755 -522 0
-2776 -2790 0
-2776 -2804 0
-2776 -970 0
-2776 -417 0
-2776 -522 0
-2790 -2804 0
-2790 -970 0
-2790 -417 0
-2790 -522 0
-2804 -970 0
-2804 -417 0
-2804 -522 0
-970 -417 0
-970 -522 0
-417 -522 0
2756 2777 2791 2805 971 418 523 0
-2756 -2777 0
-2756 -2791 0
-2756 -2805 0
-2756 -971 0
-2756 -418 0
-2756 -523 0
-2777 -2791 0
-2777 -2805 0
-2777 -971 0
-2777 -418 0
-2777 -523 0
-2791 -2805 0
-2791 -971 0
-2791 -418 0
-2791 -523 0
-2805 -971 0
-2805 -418 0
-2805 -523 0
-971 -418 0
-971 -523 0
-418 -523 0
2757 2778 2792 2799 1035 419 524 0
-2757 -2778 0
-2757 -2792 0
-2757 -2799 0
-2757 -1035 0
-2757 -419 0
-2757 -524 0
-2778 -2792 0
-2778 -2799 0
-2778 -1035 0
-2778 -419 0
-2778 -524 0
-2792 -2799 0
-2792 -1035 0
-2792 -419 0
-2792 -524 0
-2799 -1035 0
-2799 -419 0
-2799 -524 0
-1035 -419 0
-1035 -524 0
-419 -524 0
2758 2779 2793 2800 1036 420 525 0
-2758 -2779 0
-2758 -2793 0
-2758 -2800 0
-2758 -1036 0
-2758 -420 0
-2758 -525 0
-2779 -2793 0
-2779 -2800 0
-2779 -1036 0
-2779 -420 0
-2779 -525 0
-2793 -2800 0
-2793 -1036 0
-2793 -420 0
-2793 -525 0
-2800 -1036 0
-2800 -420 0
-2800 -525 0
-1036 -420 0
-1036 -525 0
-420 -525 0
2759 2780 2794 2801 1037 421 526 0
-2759 -2780 0
-2759 -2794 0
-2759 -2801 0
-2759 -1037 0
-2759 -421 0
-2759 -526 0
-2780 -2794 0
-2780 -2801 0
-2780 -1037 0
-2780 -421 0
-2780 -526 0
-2794 -2801 0
-2794 -1037 0
-2794 -421 0
-2794 -526 0
-2801 -1037 0
-2801 -421 0
-2801 -526 0
-1037 -421 0
-1037 -526 0
-421 -526 0
2760 2781 2795 2802 1038 422 527 0
-2760 -2781 0
-2760 -2795 0
-2760 -2802 0
-2760 -1038 0
-2760 -422 0
-2760 -527 0
-2781 -2795 0
-2781 -2802 0
-2781 -1038 0
-2781 -422 0
-2781 -527 0
-2795 -2802 0
-2795 -1038 0
-2795 -422 0
-2795 -527 0
-2802 -1038 0
-2802 -422 0
-2802 -527 0
-1038 -422 0
-1038 -527 0
-422 -527 0
2761 2782 2796 2803 1039 423 528 0
-2761 -2782 0
-2761 -2796 0
-2761 -2803 0
-2761 -1039 0
-2761 -423 0
-2761 -528 0
-2782 -2796 0
-2782 -2803 0
-2782 -1039 0
-2782 -423 0
-2782 -528 0
-2796 -2803 0
-2796 -1039 0
-2796 -423 0
-2796 -528 0
-2803 -1039 0
-2803 -423 0
-2803 -528 0
-1039 -423 0
-1039 -528 0
-423 -528 0
2762 2783 2797 2804 1040 424 529 0
-2762 -2783 0
-2762 -2797 0
-2762 -2804 0
-2762 -1040 0
-2762 -424 0
-2762 -529 0
-2783 -2797 0
-2783 -2804 0
-2783 -1040 0
-2783 -424 0
-2783 -529 0
-2797 -2804 0
-2797 -1040 0
-2797 -424 0
-2797 -529 0
-2804 -1040 0
-2804 -424 0
-2804 -529 0
-1040 -424 0
-1040 -529 0
-424 -529 0
2763 2784 2798 2805 1041 425 530 0
-2763 -2784 0
-2763 -2798 0
-2763 -2805 0
-2763 -1041 0
-2763 -425 0
-2763 -530 0
-2784 -2798 0
-2784 -2805 0
-2784 -1041 0
-2784 -425 0
-2784 -530 0
-2798 -2805 0
-2798 -1041 0
-2798 -425 0
-2798 -530 0
-2805 -1041 0
-2805 -425 0
-2805 -530 0
-1041 -425 0
-1041 -530 0
-425 -530 0
2736 2806 2813 2820 1105 426 531 0
-2736 -2806 0
-2736 -2813 0
-2736 -2820 0
-2736 -1105 0
-2736 -426 0
-2736 -531 0
-2806 -2813 0
-2806 -2820 0
-2806 -1105 0
-2806 -426 0
-2806 -531 0
-2813 -2820 0
-2813 -1105 0
-2813 -426 0
-2813 -531 0
-2820 -1105 0
-2820 -426 0
-2820 -531 0
-1105 -426 0
-1105 -531 0
-426 -531 0
2737 2807 2814 2821 1106 427 532 0
-2737 -2807 0
-2737 -2814 0
-2737 -2821 0
-2737 -1106 0
-2737 -427 0
-2737 -532 0
-2807 -2814 0
-2807 -2821 0
-2807 -1106 0
-2807 -427 0
-2807 -532 0
-2814 -2821 0
-2814 -1106 0
-2814 -427 0
-2814 -532 0
-2821 -1106 0
-2821 -427 0
-2821 -532 0
-1106 -427 0
-1106 -532 0
-427 -532 0
2738 2808 2815 2822 1107 428 533 0
-2738 -2808 0
-2738 -2815 0
-2738 -2822 0
-2738 -1107 0
-2738 -428 0
-2738 -533 0
-2808 -2815 0
-2808 -2822 0
-2808 -1107 0
-2808 -428 0
-2808 -533 0
-2815 -2822 0
-2815 -1107 0
-2815 -428 0
-2815 -533 0
-2822 -1107 0
-2822 -428 0
-2822 -533 0
-1107 -428 0
-1107 -533 0
-428 -533 0
2739 2809 2816 2823 1108 429 534 0
-2739 -2809 0
-2739 -2816 0
-2739 -2823 0
-2739 -1108 0
-2739 -429 0
-2739 -534 0
-2809 -2816 0
-2809 -2823 0
-2809 -1108 0
-2809 -429 0
-2809 -534 0
-2816 -2823 0
-2816 -1108 0
-2816 -429 0
-2816 -534 0
-2823 -1108 0
-2823 -429 0
-2823 -534 0
-1108 -429 0
-1108 -534 0
-429 -534 0
2740 2810 2817 2824 1109 430 535 0
-2740 -2810 0
-2740 -2817 0
-2740 -2824 0
-2740 -1109 0
-2740 -430 0
-2740 -535 0
-2810 -2817 0
-2810 -2824 0
-2810 -1109 0
-2810 -430 0
-2810 -535 0
-2817 -2824 0
-2817 -1109 0
-2817 -430 0
-2817 -535 0
-2824 -1109 0
-2824 -430 0
-2824 -535 0
-1109 -430 0
-1109 -535 0
-430 -535 0
2741 2811 2818 2825 1110 431 536 0
-2741 -2811 0
-2741 -2818 0
-2741 -2825 0
-2741 -1110 0
-2741 -431 0
-2741 -536 0
-2811 -2818 0
-2811 -2825 0
-2811 -1110 0
-2811 -431 0
-2811 -536 0
-2818 -2825 0
-2818 -1110 0
-2818 -431 0
-2818 -536 0
-2825 -1110 0
-2825 -431 0
-2825 -536 0
-1110 -431 0
-1110 -536 0
-431 -536 0
2742 2812 2819 2826 1111 432 537 0
-2742 -2812 0
-2742 -2819 0
-2742 -2826 0
-2742 -1111 0
-2742 -432 0
-2742 -537 0
-2812 -2819 0
-2812 -2826 0
-2812 -1111 0
-2812 -432 0
-2812 -537 0
-2819 -2826 0
-2819 -1111 0
-2819 -432 0
-2819 -537 0
-2826 -1111 0
-2826 -432 0
-2826 -537 0
-1111 -432 0
-1111 -537 0
-432 -537 0
2743 2806 2827 2834 1175 433 538 0
-2743 -2806 0
-2743 -2827 0
-2743 -2834 0
-2743 -1175 0
-2743 -433 0
-2743 -538 0
-2806 -2827 0
-2806 -2834 0
-2806 -1175 0
-2806 -433 0
-2806 -538 0
-2827 -2834 0
-2827 -1175 0
-2827 -433 0
-2827 -538 0
-2834 -1175 0
-2834 -433 0
-2834 -538 0
-1175 -433 0
-1175 -538 0
-433 -538 0
2744 2807 2828 2835 1176 434 539 0
-2744 -2807 0
-2744 -2828 0
-2744 -2835 0
-2744 -1176 0
-2744 -434 0
-2744 -539 0
-2807 -2828 0
-2807 -2835 0
-2807 -1176 0
-2807 -434 0
-2807 -539 0
-2828 -2835 0
-2828 -1176 0
-2828 -434 0
-2828 -539 0
-2835 -1176 0
-2835 -434 0
-2835 -539 0
-1176 -434 0
-1176 -539 0
-434 -539 0
2745 2808 2829 2836 1177 435 540 0
-2745 -2808 0
-2745 -2829 0
-2745 -2836 0
-2745 -1177 0
-2745 -435 0
-2745 -540 0
-2808 -2829 0
-2808 -2836 0
-2808 -1177 0
-2808 -435 0
-2808 -540 0
-2829 -2836 0
-2829 -1177 0
-2829 -435 0
-2829 -540 0
-2836 -1177 0
-2836 -435 0
-2836 -540 0
-1177 -435 0
-1177 -540 0
-435 -540 0
2746 2809 2830 2837 1178 436 541 0
-2746 -2809 0
-2746 -2830 0
-2746 -2837 0
-2746 -1178 0
-2746 -436 0
-2746 -541 0
-2809 -2830 0
-2809 -2837 0
-2809 -1178 0
-2809 -436 0
-2809 -541 0
-2830 -2837 0
-2830 -1178 0
-2830 -436 0
-2830 -541 0
-2837 -1178 0
-2837 -436 0
-2837 -541 0
-1178 -436 0
-1178 -541 0
-436 -541 0
2747 2810 2831 2838 1179 437 542 0
-2747 -2810 0
-2747 -2831 0
-2747 -2838 0
-2747 -1179 0
-2747 -437 0
-2747 -542 0
-2810 -2831 0
-2810 -2838 0
-2810 -1179 0
-2810 -437 0
-2810 -542 0
-2831 -2838 0
-2831 -1179 0
-2831 -437 0
-2831 -542 0
-2838 -1179 0
-2838 -437 0
-2838 -542 0
-1179 -437 0
-1179 -542 0
-437 -542 0
2748 2811 2832 2839 1180 438 543 0
-2748 -2811 0
-2748 -2832 0
-2748 -2839 0
-2748 -1180 0
-2748 -438 0
-2748 -543 0
-2811 -2832 0
-2811 -2839 0
-2811 -1180 0
-2811 -438 0
-2811 -543 0
-2832 -2839 0
-2832 -1180 0
-2832 -438 0
-2832 -543 0
-2839 -1180 0
-2839 -438 0
-2839 -543 0
-1180 -438 0
-1180 -543 0
-438 -543 0
2749 2812 2833 2840 1181 439 544 0
-2749 -2812 0
-2749 -2833 0
-2749 -2840 0
-2749 -1181 0
-2749 -439 0
-2749 -544 0
-2812 -2833 0
-2812 -2840 0
-2812 -1181 0
-2812 -439 0
-2812 -544 0
-2833 -2840 0
-2833 -1181 0
-2833 -439 0
-2833 -544 0
-2840 -1181 0
-2840 -439 0
-2840 -544 0
-1181 -439 0
-1181 -544 0
-439 -544 0
2750 2813 2827 2841 1245 440 545 0
-2750 -2813 0
-2750 -2827 0
-2750 -2841 0
-2750 -1245 0
-2750 -440 0
-2750 -545 0
-2813 -2827 0
-2813 -2841 0
-2813 -1245 0
-2813 -440 0
-2813 -545 0
-2827 -2841 0
-2827 -1245 0
-2827 -440 0
-2827 -545 0
-2841 -1245 0
-2841 -440 0
-2841 -545 0
-1245 -440 0
-1245 -545 0
-440 -545 0
2751 2814 2828 2842 1246 441 546 0
-2751 -2814 0
-2751 -2828 0
-2751 -2842 0
-2751 -1246 0
-2751 -441 0
-2751 -546 0
-2814 -2828 0
-2814 -2842 0
-2814 -1246 0
-2814 -441 0
-2814 -546 0
-2828 -2842 0
-2828 -1246 0
-2828 -441 0
-2828 -546 0
-2842 -1246 0
-2842 -441 0
-2842 -546 0
-1246 -441 0
-1246 -546 0
-441 -546 0
2752 2815 2829 2843 1247 442 547 0
-2752 -2815 0
-2752 -2829 0
-2752 -2843 0
-2752 -1247 0
-2752 -442 0
-2752 -547 0
-2815 -2829 0
-2815 -2843 0
-2815 -1247 0
-2815 -442 0
-2815 -547 0
-2829 -2843 0
-2829 -1247 0
-2829 -442 0
-2829 -547 0
-2843 -1247 0
-2843 -442 0
-2843 -547 0
-1247 -442 0
-1247 -547 0
-442 -547 0
2753 2816 2830 2844 1248 443 548 0
-2753 -2816 0
-2753 -2830 0
-2753 -2844 0
-2753 -1248 0
-2753 -443 0
-2753 -548 0
-2816 -2830 0
-2816 -2844 0
-2816 -1248 0
-2816 -443 0
-2816 -548 0
-2830 -2844 0
-2830 -1248 0
-2830 -443 0
-2830 -548 0
-2844 -1248 0
-2844 -443 0
-2844 -548 0
-1248 -443 0
-1248 -548 0
-443 -548 0
2754 2817 2831 2845 1249 444 549 0
-2754 -2817 0
-2754 -2831 0
-2754 -2845 0
-2754 -1249 0
-2754 -444 0
-2754 -549 0
-2817 -2831 0
-2817 -2845 0
-2817 -1249 0
-2817 -444 0
-2817 -549 0
-2831 -2845 0
-2831 -1249 0
-2831 -444 0
-2831 -549 0
-2845 -1249 0
-2845 -444 0
-2845 -549 0
-1249 -444 0
-1249 -549 0
-444 -549 0
2755 2818 2832 2846 1250 445 550 0
-2755 -2818 0
-2755 -2832 0
-2755 -2846 0
-2755 -1250 0
-2755 -445 0
-2755 -550 0
-2818 -2832 0
-2818 -2846 0
-2818 -1250 0
-2818 -445 0
-2818 -550 0
-2832 -2846 0
-2832 -1250 0
-2832 -445 0
-2832 -550 0
-2846 -1250 0
-2846 -445 0
-2846 -550 0
-1250 -445 0
-1250 -550 0
-445 -550 0
2756 2819 2833 2847 1251 446 551 0
-2756 -2819 0
-2756 -2833 0
-2756 -2847 0
-2756 -1251 0
-2756 -446 0
-2756 -551 0
-2819 -2833 0
-2819 -2847 0
-2819 -1251 0
-2819 -446 0
-2819 -551 0
-2833 -2847 0
-2833 -1251 0
-2833 -446 0
-2833 -551 0
-2847 -1251 0
-2847 -446 0
-2847 -551 0
-1251 -446 0
-1251 -551 0
-446 -551 0
2757 2820 2834 2841 1315 447 552 0
-2757 -2820 0
-2757 -2834 0
-2757 -2841 0
-2757 -1315 0
-2757 -447 0
-2757 -552 0
-2820 -2834 0
-2820 -2841 0
-2820 -1315 0
-2820 -447 0
-2820 -552 0
-2834 -2841 0
-2834 -1315 0
-2834 -447 0
-2834 -552 0
-2841 -1315 0
-2841 -447 0
-2841 -552 0
-1315 -447 0
-1315 -552 0
-447 -552 0
2758 2821 2835 2842 1316 448 553 0
-2758 -2821 0
-2758 -2835 0
-2758 -2842 0
-2758 -1316 0
-2758 -448 0
-2758 -553 0
-2821 -2835 0
-2821 -2842 0
-2821 -1316 0
-2821 -448 0
-2821 -553 0
-2835 -2842 0
-2835 -1316 0
-2835 -448 0
-2835 -553 0
-2842 -1316 0
-2842 -448 0
-2842 -553 0
-1316 -448 0
-1316 -553 0
-448 -553 0
2759 2822 2836 2843 1317 449 554 0
-2759 -2822 0
-2759 -2836 0
-2759 -2843 0
-2759 -1317 0
-2759 -449 0
-2759 -554 0
-2822 -2836 0
-2822 -2843 0
-2822 -1317 0
-2822 -449 0
-2822 -554 0
-2836 -2843 0
-2836 -1317 0
-2836 -449 0
-2836 -554 0
-2843 -1317 0
-2843 -449 0
-2843 -554 0
-1317 -449 0
-1317 -554 0
-449 -554 0
2760 2823 2837 2844 1318 450 555 0
-2760 -2823 0
-2760 -2837 0
-2760 -2844 0
-2760 -1318 0
-2760 -450 0
-2760 -555 0
-2823 -2837 0
-2823 -2844 0
-2823 -1318 0
-2823 -450 0
-2823 -555 0
-2837 -2844 0
-2837 -1318 0
-2837 -450 0
-2837 -555 0
-2844 -1318 0
-2844 -450 0
-2844 -555 0
-1318 -450 0
-1318 -555 0
-450 -555 0
2761 2824 2838 2845 1319 451 556 0
-2761 -2824 0
-2761 -2838 0
-2761 -2845 0
-2761 -1319 0
-2761 -451 0
-2761 -556 0
-2824 -2838 0
-2824 -2845 0
-2824 -1319 0
-2824 -451 0
-2824 -556 0
-2838 -2845 0
-2838 -1319 0
-2838 -451 0
-2838 -556 0
-2845 -1319 0
-2845 -451 0
-2845 -556 0
-1319 -451 0
-1319 -556 0
-451 -556 0
2762 2825 2839 2846 1320 452 557 0
-2762 -2825 0
-2762 -2839 0
-2762 -2846 0
-2762 -1320 0
-2762 -452 0
-2762 -557 0
-2825 -2839 0
-2825 -2846 0
-2825 -1320 0
-2825 -452 0
-2825 -557 0
-2839 -2846 0
-2839 -1320 0
-2839 -452 0
-2839 -557 0
-2846 -1320 0
-2846 -452 0
-2846 -557 0
-1320 -452 0
-1320 -557 0
-452 -557 0
2763 2826 2840 2847 1321 453 558 0
-2763 -2826 0
-2763 -2840 0
-2763 -2847 0
-2763 -1321 0
-2763 -453 0
-2763 -558 0
-2826 -2840 0
-2826 -2847 0
-2826 -1321 0
-2826 -453 0
-2826 -558 0
-2840 -2847 0
-2840 -1321 0
-2840 -453 0
-2840 -558 0
-2847 -1321 0
-2847 -453 0
-2847 -558 0
-1321 -453 0
-1321 -558 0
-453 -558 0
2764 2806 2848 2855 1385 454 559 0
-2764 -2806 0
-2764 -2848 0
-2764 -2855 0
-2764 -1385 0
-2764 -454 0
-2764 -559 0
-2806 -2848 0
-2806 -2855 0
-2806 -1385 0
-2806 -454 0
-2806 -559 0
-2848 -2855 0
-2848 -1385 0
-2848 -454 0
-2848 -559 0
-2855 -1385 0
-2855 -454 0
-2855 -559 0
-1385 -454 0
-1385 -559 0
-454 -559 0
2765 2807 2849 2856 1386 455 560 0
-2765 -2807 0
-2765 -2849 0
-2765 -2856 0
-2765 -1386 0
-2765 -455 0
-2765 -560 0
-2807 -2849 0
-2807 -2856 0
-2807 -1386 0
-2807 -455 0
-2807 -560 0
-2849 -2856 0
-2849 -1386 0
-2849 -455 0
-2849 -560 0
-2856 -1386 0
-2856 -455 0
-2856 -560 0
-1386 -455 0
-1386 -560 0
-455 -560 0
2766 2808 2850 2857 1387 456 561 0
-2766 -2808 0
-2766 -2850 0
-2766 -2857 0
-2766 -1387 0
-2766 -456 0
-2766 -561 0
-2808 -2850 0
-2808 -2857 0
-2808 -1387 0
-2808 -456 0
-2808 -561 0
-2850 -2857 0
-2850 -1387 0
-2850 -456 0
-2850 -561 0
-2857 -1387 0
-2857 -456 0
-2857 -561 0
-1387 -456 0
-1387 -561 0
-456 -561 0
2767 2809 2851 2858 1388 457 562 0
-2767 -2809 0
-2767 -2851 0
-2767 -2858 0
-2767 -1388 0
-2767 -457 0
-2767 -562 0
-2809 -2851 0
-2809 -2858 0
-2809 -1388 0
-2809 -457 0
-2809 -562 0
-2851 -2858 0
-2851 -1388 0
-2851 -457 0
-2851 -562 0
-2858 -1388 0
-2858 -457 0
-2858 -562 0
-1388 -457 0
-1388 -562 0
-457 -562 0
2768 2810 2852 2859 1389 458 563 0
-2768 -2810 0
-2768 -2852 0
-2768 -2859 0
-2768 -1389 0
-2768 -458 0
-2768 -563 0
-2810 -2852 0
-2810 -2859 0
-2810 -1389 0
-2810 -458 0
-2810 -563 0
-2852 -2859 0
-2852 -1389 0
-2852 -458 0
-2852 -563 0
-2859 -1389 0
-2859 -458 0
-2859 -563 0
-1389 -458 0
-1389 -563 0
-458 -563 0
2769 2811 2853 2860 1390 459 564 0
-2769 -2811 0
-2769 -2853 0
-2769 -2860 0
-2769 -1390 0
-2769 -459 0
-2769 -564 0
-2811 -2853 0
-2811 -2860 0
-2811 -1390 0
-2811 -459 0
-2811 -564 0
-2853 -2860 0
-2853 -1390 0
-2853 -459 0
-2853 -564 0
-2860 -1390 0
-2860 -459 0
-2860 -564 0
-1390 -459 0
-1390 -564 0
-459 -564 0
2770 2812 2854 2861 1391 460 565 0
-2770 -2812 0
-2770 -2854 0
-2770 -2861 0
-2770 -1391 0
-2770 -460 0
-2770 -565 0
-2812 -2854 0
-2812 -2861 0
-2812 -1391 0
-2812 -460 0
-2812 -565 0
-2854 -2861 0
-2854 -1391 0
-2854 -460 0
-2854 -565 0
-2861 -1391 0
-2861 -460 0
-2861 -565 0
-1391 -460 0
-1391 -565 0
-460 -565 0
2771 2813 2848 2862 1455 461 566 0
-2771 -2813 0
-2771 -2848 0
-2771 -2862 0
-2771 -1455 0
-2771 -461 0
-2771 -566 0
-2813 -2848 0
-2813 -2862 0
-2813 -1455 0
-2813 -461 0
-2813 -566 0
-2848 -2862 0
-2848 -1455 0
-2848 -461 0
-2848 -566 0
-2862 -1455 0
-2862 -461 0
-2862 -566 0
-1455 -461 0
-1455 -566 0
-461 -566 0
2772 2814 2849 2863 1456 462 567 0
-2772 -2814 0
-2772 -2849 0
-2772 -2863 0
-2772 -1456 0
-2772 -462 0
-2772 -567 0
-2814 -2849 0
-2814 -2863 0
-2814 -1456 0
-2814 -462 0
-2814 -567 0
-2849 -2863 0
-2849 -1456 0
-2849 -462 0
-2849 -567 0
-2863 -1456 0
-2863 -462 0
-2863 -567 0
-1456 -462 0
-1456 -567 0
-462 -567 0
2773 2815 2850 2864 1457 463 568 0
-2773 -2815 0
-2773 -2850 0
-2773 -2864 0
-2773 -1457 0
-2773 -463 0
-2773 -568 0
-2815 -2850 0
-2815 -2864 0
-2815 -1457 0
-2815 -463 0
-2815 -568 0
-2850 -2864 0
-2850 -1457 0
-2850 -463 0
-2850 -568 0
-2864 -1457 0
-2864 -463 0
-2864 -568 0
-1457 -463 0
-1457 -568 0
-463 -568 0
2774 2816 2851 2865 1458 464 569 0
-2774 -2816 0
-2774 -2851 0
-2774 -2865 0
-2774 -1458 0
-2774 -464 0
-2774 -569 0
-2816 -2851 0
-2816 -2865 0
-2816 -1458 0
-2816 -464 0
-2816 -569 0
-2851 -2865 0
-2851 -1458 0
-2851 -464 0
-2851 -569 0
-2865 -1458 0
-2865 -464 0
-2865 -569 0
-1458 -464 0
-1458 -569 0
-464 -569 0
2775 2817 2852 2866 1459 465 570 0
-2775 -2817 0
-2775 -2852 0
-2775 -2866 0
-2775 -1459 0
-2775 -465 0
-2775 -570 0
-2817 -2852 0
-2817 -2866 0
-2817 -1459 0
-2817 -465 0
-2817 -570 0
-2852 -2866 0
-2852 -1459 0
-2852 -465 0
-2852 -570 0
-2866 -1459 0
-2866 -465 0
-2866 -570 0
-1459 -465 0
-1459 -570 0
-465 -570 0
2776 2818 2853 2867 1460 466 571 0
-2776 -2818 0
-2776 -2853 0
-2776 -2867 0
-2776 -1460 0
-2776 -466 0
-2776 -571 0
-2818 -2853 0
-2818 -2867 0
-2818 -1460 0
-2818 -466 0
-2818 -571 0
-2853 -2867 0
-2853 -1460 0
-2853 -466 0
-2853 -571 0
-2867 -1460 0
-2867 -466 0
-2867 -571 0
-1460 -466 0
-1460 -571 0
-466 -571 0
2777 2819 2854 2868 1461 467 572 0
-2777 -2819 0
-2777 -2854 0
-2777 -2868 0
-2777 -1461 0
-2777 -467 0
-2777 -572 0
-2819 -2854 0
-2819 -2868 0
-2819 -1461 0
-2819 -467 0
-2819 -572 0
-2854 -2868 0
-2854 -1461 0
-2854 -467 0
-2854 -572 0
-2868 -1461 0
-2868 -467 0
-2868 -572 0
-1461 -467 0
-1461 -572 0
-467 -572 0
2778 2820 2855 2862 1525 468 573 0
-2778 -2820 0
-2778 -2855 0
-2778 -2862 0
-2778 -1525 0
-2778 -468 0
-2778 -573 0
-2820 -2855 0
-2820 -2862 0
-2820 -1525 0
-2820 -468 0
-2820 -573 0
-2855 -2862 0
-2855 -1525 0
-2855 -468 0
-2855 -573 0
-2862 -1525 0
-2862 -468 0
-2862 -573 0
-1525 -468 0
-1525 -573 0
-468 -573 0
2779 2821 2856 2863 1526 469 574 0
-2779 -2821 0
-2779 -2856 0
-2779 -2863 0
-2779 -1526 0
-2779 -469 0
-2779 -574 0
-2821 -2856 0
-2821 -2863 0
-2821 -1526 0
-2821 -469 0
-2821 -574 0
-2856 -2863 0
-2856 -1526 0
-2856 -469 0
-2856 -574 0
-2863 -1526 0
-2863 -469 0
-2863 -574 0
-1526 -469 0
-1526 -574 0
-469 -574 0
2780 2822 2857 2864 1527 470 575 0
-2780 -2822 0
-2780 -2857 0
-2780 -2864 0
-2780 -1527 0
-2780 -470 0
-2780 -575 0
-2822 -2857 0
-2822 -2864 0
-2822 -1527 0
-2822 -470 0
-2822 -575 0
-2857 -2864 0
-2857 -1527 0
-2857 -470 0
-2857 -575 0
-2864 -1527 0
-2864 -470 0
-2864 -575 0
-1527 -470 0
-1527 -575 0
-470 -575 0
2781 2823 2858 2865 1528 471 576 0
-2781 -2823 0
-2781 -2858 0
-2781 -2865 0
-2781 -1528 0
-2781 -471 0
-2781 -576 0
-2823 -2858 0
-2823 -2865 0
-2823 -1528 0
-2823 -471 0
-2823 -576 0
-2858 -2865 0
-2858 -1528 0
-2858 -471 0
-2858 -576 0
-2865 -1528 0
-2865 -471 0
-2865 -576 0
-1528 -471 0
-1528 -576 0
-471 -576 0
2782 2824 2859 2866 1529 472 577 0
-2782 -2824 0
-2782 -2859 0
-2782 -2866 0
-2782 -1529 0
-2782 -472 0
-2782 -577 0
-2824 -2859 0
-2824 -2866 0
-2824 -1529 0
-2824 -472 0
-2824 -577 0
-2859 -2866 0
-2859 -1529 0
-2859 -472 0
-2859 -577 0
-2866 -1529 0
-2866 -472 0
-2866 -577 0
-1529 -472 0
-1529 -577 0
-472 -577 0
2783 2825 2860 2867 1530 473 578 0
-2783 -2825 0
-2783 -2860 0
-2783 -2867 0
-2783 -1530 0
-2783 -473 0
-2783 -578 0
-2825 -2860 0
-2825 -2867 0
-2825 -1530 0
-2825 -473 0
-2825 -578 0
-2860 -2867 0
-2860 -1530 0
-2860 -473 0
-2860 -578 0
-2867 -1530 0
-2867 -473 0
-2867 -578 0
-1530 -473 0
-1530 -578 0
-473 -578 0
2784 2826 2861 2868 1531 474 579 0
-2784 -2826 0
-2784 -2861 0
-2784 -2868 0
-2784 -1531 0
-2784 -474 0
-2784 -579 0
-2826 -2861 0
-2826 -2868 0
-2826 -1531 0
-2826 -474 0
-2826 -579 0
-2861 -2868 0
-2861 -1531 0
-2861 -474 0
-2861 -579 0
-2868 -1531 0
-2868 -474 0
-2868 -579 0
-1531 -474 0
-1531 -579 0
-474 -579 0
2785 2827 2848 2869 1595 475 580 0
-2785 -2827 0
-2785 -2848 0
-2785 -2869 0
-2785 -1595 0
-2785 -475 0
-2785 -580 0
-2827 -2848 0
-2827 -2869 0
-2827 -1595 0
-2827 -475 0
-2827 -580 0
-2848 -2869 0
-2848 -1595 0
-2848 -475 0
-2848 -580 0
-2869 -1595 0
-2869 -475 0
-2869 -580 0
-1595 -475 0
-1595 -580 0
-475 -580 0
2786 2828 2849 2870 1596 476 581 0
-2786 -2828 0
-2786 -2849 0
-2786 -2870 0
-2786 -1596 0
-2786 -476 0
-2786 -581 0
-2828 -2849 0
-2828 -2870 0
-2828 -1596 0
-2828 -476 0
-2828 -581 0
-2849 -2870 0
-2849 -1596 0
-2849 -476 0
-2849 -581 0
-2870 -1596 0
-2870 -476 0
-2870 -581 0
-1596 -476 0
-1596 -581 0
-476 -581 0
2787 2829 2850 2871 1597 477 582 0
-2787 -2829 0
-2787 -2850 0
-2787 -2871 0
-2787 -1597 0
-2787 -477 0
-2787 -582 0
-2829 -2850 0
-2829 -2871 0
-2829 -1597 0
-2829 -477 0
-2829 -582 0
-2850 -2871 0
-2850 -1597 0
-2850 -477 0
-2850 -582 0
-2871 -1597 0
-2871 -477 0
-2871 -582 0
-1597 -477 0
-1597 -582 0
-477 -582 0
2788 2830 2851 2872 1598 478 583 0
-2788 -2830 0
-2788 -2851 0
-2788 -2872 0
-2788 -1598 0
-2788 -478 0
-2788 -583 0
-2830 -2851 0
-2830 -2872 0
-2830 -1598 0
-2830 -478 0
-2830 -583 0
-2851 -2872 0
-2851 -1598 0
-2851 -478 0
-2851 -583 0
-2872 -1598 0
-2872 -478 0
-2872 -583 0
-1598 -478 0
-1598 -583 0
-478 -583 0
2789 2831 2852 2873 1599 479 584 0
-2789 -2831 0
-2789 -2852 0
-2789 -2873 0
-2789 -1599 0
-2789 -479 0
-2789 -584 0
-2831 -2852 0
-2831 -2873 0
-2831 -1599 0
-2831 -479 0
-2831 -584 0
-2852 -2873 0
-2852 -1599 0
-2852 -479 0
-2852 -584 0
-2873 -1599 0
-2873 -479 0
-2873 -584 0
-1599 -479 0
-1599 -584 0
-479 -584 0
2790 2832 2853 2874 1600 480 585 0
-2790 -2832 0
-2790 -2853 0
-2790 -2874 0
-2790 -1600 0
-2790 -480 0
-2790 -585 0
-2832 -2853 0
-2832 -2874 0
-2832 -1600 0
-2832 -480 0
-2832 -585 0
-2853 -2874 0
-2853 -1600 0
-2853 -480 0
-2853 -585 0
-2874 -1600 0
-2874 -480 0
-2874 -585 0
-1600 -480 0
-1600 -585 0
-480 -585 0
2791 2833 2854 2875 1601 481 586 0
-2791 -2833 0
-2791 -2854 0
-2791 -2875 0
-2791 -1601 0
-2791 -481 0
-2791 -586 0
-2833 -2854 0
-2833 -2875 0
-2833 -1601 0
-2833 -481 0
-2833 -586 0
-2854 -2875 0
-2854 -1601 0
-2854 -481 0
-2854 -586 0
-2875 -1601 0
-2875 -481 0
-2875 -586 0
-1601 -481 0
-1601 -586 0
-481 -586 0
2792 2834 2855 2869 1665 482 587 0
-2792 -2834 0
-2792 -2855 0
-2792 -2869 0
-2792 -1665 0
-2792 -482 0
-2792 -587 0
-2834 -2855 0
-2834 -2869 0
-2834 -1665 0
-2834 -482 0
-2834 -587 0
-2855 -2869 0
-2855 -1665 0
-2855 -482 0
-2855 -587 0
-2869 -1665 0
-2869 -482 0
-2869 -587 0
-1665 -482 0
-1665 -587 0
-482 -587 0
2793 2835 2856 2870 1666 483 588 0
-2793 -2835 0
-2793 -2856 0
-2793 -2870 0
-2793 -1666 0
-2793 -483 0
-2793 -588 0
-2835 -2856 0
-2835 -2870 0
-2835 -1666 0
-2835 -483 0
-2835 -588 0
-2856 -2870 0
-2856 -1666 0
-2856 -483 0
-2856 -588 0
-2870 -1666 0
-2870 -483 0
-2870 -588 0
-1666 -483 0
-1666 -588 0
-483 -588 0
2794 2836 2857 2871 1667 484 589 0
-2794 -2836 0
-2794 -2857 0
-2794 -2871 0
-2794 -1667 0
-2794 -484 0
-2794 -589 0
-2836 -2857 0
-2836 -2871 0
-2836 -1667 0
-2836 -484 0
-2836 -589 0
-2857 -2871 0
-2857 -1667 0
-2857 -484 0
-2857 -589 0
-2871 -1667 0
-2871 -484 0
-2871 -589 0
-1667 -484 0
-1667 -589 0
-484 -589 0
2795 2837 2858 2872 1668 485 590 0
-2795 -2837 0
-2795 -2858 0
-2795 -2872 0
-2795 -1668 0
-2795 -485 0
-2795 -590 0
-2837 -2858 0
-2837 -2872 0
-2837 -1668 0
-2837 -485 0
-2837 -590 0
-2858 -2872 0
-2858 -1668 0
-2858 -485 0
-2858 -590 0
-2872 -1668 0
-2872 -485 0
-2872 -590 0
-1668 -485 0
-1668 -590 0
-485 -590 0
2796 2838 2859 2873 1669 486 591 0
-2796 -2838 0
-2796 -2859 0
-2796 -2873 0
-2796 -1669 0
-2796 -486 0
-2796 -591 0
-2838 -2859 0
-2838 -2873 0
-2838 -1669 0
-2838 -486 0
-2838 -591 0
-2859 -2873 0
-2859 -1669 0
-2859 -486 0
-2859 -591 0
-2873 -1669 0
-2873 -486 0
-2873 -591 0
-1669 -486 0
-1669 -591 0
-486 -591 0
2797 2839 2860 2874 1670 487 592 0
-2797 -2839 0
-2797 -2860 0
-2797 -2874 0
-2797 -1670 0
-2797 -487 0
-2797 -592 0
-2839 -2860 0
-2839 -2874 0
-2839 -1670 0
-2839 -487 0
-2839 -592 0
-2860 -2874 0
-2860 -1670 0
-2860 -487 0
-2860 -592 0
-2874 -1670 0
-2874 -487 0
-2874 -592 0
-1670 -487 0
-1670 -592 0
-487 -592 0
2798 2840 2861 2875 1671 488 593 0
-2798 -2840 0
-2798 -2861 0
-2798 -2875 0
-2798 -1671 0
-2798 -488 0
-2798 -593 0
-2840 -2861 0
-2840 -2875 0
-2840 -1671 0
-2840 -488 0
-2840 -593 0
-2861 -2875 0
-2861 -1671 0
-2861 -488 0
-2861 -593 0
-2875 -1671 0
-2875 -488 0
-2875 -593 0
-1671 -488 0
-1671 -593 0
-488 -593 0
2799 2841 2862 2869 1735 489 594 0
-2799 -2841 0
-2799 -2862 0
-2799 -2869 0
-2799 -1735 0
-2799 -489 0
-2799 -594 0
-2841 -2862 0
-2841 -2869 0
-2841 -1735 0
-2841 -489 0
-2841 -594 0
-2862 -2869 0
-2862 -1735 0
-2862 -489 0
-2862 -594 0
-2869 -1735 0
-2869 -489 0
-2869 -594 0
-1735 -489 0
-1735 -594 0
-489 -594 0
2800 2842 2863 2870 1736 490 595 0
-2800 -2842 0
-2800 -2863 0
-2800 -2870 0
-2800 -1736 0
-2800 -490 0
-2800 -595 0
-2842 -2863 0
-2842 -2870 0
-2842 -1736 0
-2842 -490 0
-2842 -595 0
-2863 -2870 0
-2863 -1736 0
-2863 -490 0
-2863 -595 0
-2870 -1736 0
-2870 -490 0
-2870 -595 0
-1736 -490 0
-1736 -595 0
-490 -595 0
2801 2843 2864 2871 1737 491 596 0
-2801 -2843 0
-2801 -2864 0
-2801 -2871 0
-2801 -1737 0
-2801 -491 0
-2801 -596 0
-2843 -2864 0
-2843 -2871 0
-2843 -1737 0
-2843 -491 0
-2843 -596 0
-2864 -2871 0
-2864 -1737 0
-2864 -491 0
-2864 -596 0
-2871 -1737 0
-2871 -491 0
-2871 -596 0
-1737 -491 0
-1737 -596 0
-491 -596 0
2802 2844 2865 2872 1738 492 597 0
-2802 -2844 0
-2802 -2865 0
-2802 -2872 0
-2802 -1738 0
-2802 -492 0
-2802 -597 0
-2844 -2865 0
-2844 -2872 0
-2844 -1738 0
-2844 -492 0
-2844 -597 0
-2865 -2872 0
-2865 -1738 0
-2865 -492 0
-2865 -597 0
-2872 -1738 0
-2872 -492 0
-2872 -597 0
-1738 -492 0
-1738 -597 0
-492 -597 0
2803 2845 2866 2873 1739 493 598 0
-2803 -2845 0
-2803 -2866 0
-2803 -2873 0
-2803 -1739 0
-2803 -493 0
-2803 -598 0
-2845 -2866 0
-2845 -2873 0
-2845 -1739 0
-2845 -493 0
-2845 -598 0
-2866 -2873 0
-2866 -1739 0
-2866 -493 0
-2866 -598 0
-2873 -1739 0
-2873 -493 0
-2873 -598 0
-1739 -493 0
-1739 -598 0
-493 -598 0
2804 2846 2867 2874 1740 494 599 0
-2804 -2846 0
-2804 -2867 0
-2804 -2874 0
-2804 -1740 0
-2804 -494 0
-2804 -599 0
-2846 -2867 0
-2846 -2874 0
-2846 -1740 0
-2846 -494 0
-2846 -599 0
-2867 -2874 0
-2867 -1740 0
-2867 -494 0
-2867 -599 0
-2874 -1740 0
-2874 -494 0
-2874 -599 0
-1740 -494 0
-1740 -599 0
-494 -599 0
2805 2847 2868 2875 1741 495 600 0
-2805 -2847 0
-2805 -2868 0
-2805 -2875 0
-2805 -1741 0
-2805 -495 0
-2805 -600 0
-2847 -2868 0
-2847 -2875 0
-2847 -1741 0
-2847 -495 0
-2847 -600 0
-2868 -2875 0
-2868 -1741 0
-2868 -495 0
-2868 -600 0
-2875 -1741 0
-2875 -495 0
-2875 -600 0
-1741 -495 0
-1741 -600 0
-495 -600 0
2876 2883 2890 2897 762 391 601 0
-2876 -2883 0
-2876 -2890 0
-2876 -2897 0
-2876 -762 0
-2876 -391 0
-2876 -601 0
-2883 -2890 0
-2883 -2897 0
-2883 -762 0
-2883 -391 0
-2883 -601 0
-2890 -2897 0
-2890 -762 0
-2890 -391 0
-2890 -601 0
-2897 -762 0
-2897 -391 0
-2897 -601 0
-762 -391 0
-762 -601 0
-391 -601 0
2877 2884 2891 2898 763 392 602 0
-2877 -2884 0
-2877 -2891 0
-2877 -2898 0
-2877 -763 0
-2877 -392 0
-2877 -602 0
-2884 -2891 0
-2884 -2898 0
-2884 -763 0
-2884 -392 0
-2884 -602 0
-2891 -2898 0
-2891 -763 0
-2891 -392 0
-2891 -602 0
-2898 -763 0
-2898 -392 0
-2898 -602 0
-763 -392 0
-763 -602 0
-392 -602 0
2878 2885 2892 2899 764 393 603 0
-2878 -2885 0
-2878 -2892 0
-2878 -2899 0
-2878 -764 0
-2878 -393 0
-2878 -603 0
-2885 -2892 0
-2885 -2899 0
-2885 -764 0
-2885 -393 0
-2885 -603 0
-2892 -2899 0
-2892 -764 0
-2892 -393 0
-2892 -603 0
-2899 -764 0
-2899 -393 0
-2899 -603 0
-764 -393 0
-764 -603 0
-393 -603 0
2879 2886 2893 2900 765 394 604 0
-2879 -2886 0
-2879 -2893 0
-2879 -2900 0
-2879 -765 0
-2879 -394 0
-2879 -604 0
-2886 -2893 0
-2886 -2900 0
-2886 -765 0
-2886 -394 0
-2886 -604 0
-2893 -2900 0
-2893 -765 0
-2893 -394 0
-2893 -604 0
-2900 -765 0
-2900 -394 0
-2900 -604 0
-765 -394 0
-765 -604 0
-394 -604 0
2880 2887 2894 2901 766 395 605 0
-2880 -2887 0
-2880 -2894 0
-2880 -2901 0
-2880 -766 0
-2880 -395 0
-2880 -605 0
-2887 -2894 0
-2887 -2901 0
-2887 -766 0
-2887 -395 0
-2887 -605 0
-2894 -2901 0
-2894 -766 0
-2894 -395 0
-2894 -605 0
-2901 -766 0
-2901 -395 0
-2901 -605 0
-766 -395 0
-766 -605 0
-395 -605 0
2881 2888 2895 2902 767 396 606 0
-2881 -2888 0
-2881 -2895 0
-2881 -2902 0
-2881 -767 0
-2881 -396 0
-2881 -606 0
-2888 -2895 0
-2888 -2902 0
-2888 -767 0
-2888 -396 0
-2888 -606 0
-2895 -2902 0
-2895 -767 0
-2895 -396 0
-2895 -606 0
-2902 -767 0
-2902 -396 0
-2902 -606 0
-767 -396 0
-767 -606 0
-396 -606 0
2882 2889 2896 2903 768 397 607 0
-2882 -2889 0
-2882 -2896 0
-2882 -2903 0
-2882 -768 0
-2882 -397 0
-2882 -607 0
-2889 -2896 0
-2889 -2903 0
-2889 -768 0
-2889 -397 0
-2889 -607 0
-2896 -2903 0
-2896 -768 0
-2896 -397 0
-2896 -607 0
-2903 -768 0
-2903 -397 0
-2903 -607 0
-768 -397 0
-768 -607 0
-397 -607 0
2876 2904 2911 2918 832 398 608 0
-2876 -2904 0
-2876 -2911 0
-2876 -2918 0
-2876 -832 0
-2876 -398 0
-2876 -608 0
-2904 -2911 0
-2904 -2918 0
-2904 -832 0
-2904 -398 0
-2904 -608 0
-2911 -2918 0
-2911 -832 0
-2911 -398 0
-2911 -608 0
-2918 -832 0
-2918 -398 0
-2918 -608 0
-832 -398 0
-832 -608 0
-398 -608 0
2877 2905 2912 2919 833 399 609 0
-2877 -2905 0
-2877 -2912 0
-2877 -2919 0
-2877 -833 0
-2877 -399 0
-2877 -609 0
-2905 -2912 0
-2905 -2919 0
-2905 -833 0
-2905 -399 0
-2905 -609 0
-2912 -2919 0
-2912 -833 0
-2912 -399 0
-2912 -609 0
-2919 -833 0
-2919 -399 0
-2919 -609 0
-833 -399 0
-833 -609 0
-399 -609 0
2878 2906 2913 2920 834 400 610 0
-2878 -2906 0
-2878 -2913 0
-2878 -2920 0
-2878 -834 0
-2878 -400 0
-2878 -610 0
-2906 -2913 0
-2906 -2920 0
-2906 -834 0
-2906 -400 0
-2906 -610 0
-2913 -2920 0
-2913 -834 0
-2913 -400 0
-2913 -610 0
-2920 -834 0
-2920 -400 0
-2920 -610 0
-834 -400 0
-834 -610 0
-400 -610 0
2879 2907 2914 2921 835 401 611 0
-2879 -2907 0
-2879 -2914 0
-2879 -2921 0
-2879 -835 0
-2879 -401 0
-2879 -611 0
-2907 -2914 0
-2907 -2921 0
-2907 -835 0
-2907 -401 0
-2907 -611 0
-2914 -2921 0
-2914 -835 0
-2914 -401 0
-2914 -611 0
-2921 -835 0
-2921 -401 0
-2921 -611 0
-835 -401 0
-835 -611 0
-401 -611 0
2880 2908 2915 2922 836 402 612 0
-2880 -2908 0
-2880 -2915 0
-2880 -2922 0
-2880 -836 0
-2880 -402 0
-2880 -612 0
-2908 -2915 0
-2908 -2922 0
-2908 -836 0
-2908 -402 0
-2908 -612 0
-2915 -2922 0
-2915 -836 0
-2915 -402 0
-2915 -612 0
-2922 -836 0
-2922 -402 0
-2922 -612 0
-836 -402 0
-836 -612 0
-402 -612 0
2881 2909 2916 2923 837 403 613 0
-2881 -2909 0
-2881 -2916 0
-2881 -2923 0
-2881 -837 0
-2881 -403 0
-2881 -613 0
-2909 -2916 0
-2909 -2923 0
-2909 -837 0
-2909 -403 0
-2909 -613 0
-2916 -2923 0
-2916 -837 0
-2916 -403 0
-2916 -613 0
-2923 -837 0
-2923 -403 0
-2923 -613 0
-837 -403 0
-837 -613 0
-403 -613 0
2882 2910 2917 2924 838 404 614 0
-2882 -2910 0
-2882 -2917 0
-2882 -2924 0
-2882 -838 0
-2882 -404 0
-2882 -614 0
-2910 -2917 0
-2910 -2924 0
-2910 -838 0
-2910 -404 0
-2910 -614 0
-2917 -2924 0
-2917 -838 0
-2917 -404 0
-2917 -614 0
-2924 -838 0
-2924 -404 0
-2924 -614 0
-838 -404 0
-838 -614 0
-404 -614 0
2883 2904 2925 2932 902 405 615 0
-2883 -2904 0
-2883 -2925 0
-2883 -2932 0
-2883 -902 0
-2883 -405 0
-2883 -615 0
-2904 -2925 0
-2904 -2932 0
-2904 -902 0
-2904 -405 0
-2904 -615 0
-2925 -2932 0
-2925 -902 0
-2925 -405 0
-2925 -615 0
-2932 -902 0
-2932 -405 0
-2932 -615 0
-902 -405 0
-902 -615 0
-405 -615 0
2884 2905 2926 2933 903 406 616 0
-2884 -2905 0
-2884 -2926 0
-2884 -2933 0
-2884 -903 0
-2884 -406 0
-2884 -616 0
-2905 -2926 0
-2905 -2933 0
-2905 -903 0
-2905 -406 0
-2905 -616 0
-2926 -2933 0
-2926 -903 0
-2926 -406 0
-2926 -616 0
-2933 -903 0
-2933 -406 0
-2933 -616 0
-903 -406 0
-903 -616 0
-406 -616 0
2885 2906 2927 2934 904 407 617 0
-2885 -2906 0
-2885 -2927 0
-2885 -2934 0
-2885 -904 0
-2885 -407 0
-2885 -617 0
-2906 -2927 0
-2906 -2934 0
-2906 -904 0
-2906 -407 0
-2906 -617 0
-2927 -2934 0
-2927 -904 0
-2927 -407 0
-2927 -617 0
-2934 -904 0
-2934 -407 0
-2934 -617 0
-904 -407 0
-904 -617 0
-407 -617 0
2886 2907 2928 2935 905 408 618 0
-2886 -2907 0
-2886 -2928 0
-2886 -2935 0
-2886 -905 0
-2886 -408 0
-2886 -618 0
-2907 -2928 0
-2907 -2935 0
-2907 -905 0
-2907 -408 0
-2907 -618 0
-2928 -2935 0
-2928 -905 0
-2928 -408 0
-2928 -618 0
-2935 -905 0
-2935 -408 0
-2935 -618 0
-905 -408 0
-905 -618 0
-408 -618 0
2887 2908 2929 2936 906 409 619 0
-2887 -2908 0
-2887 -2929 0
-2887 -2936 0
-2887 -906 0
-2887 -409 0
-2887 -619 0
-2908 -2929 0
-2908 -2936 0
-2908 -906 0
-2908 -409 0
-2908 -619 0
-2929 -2936 0
-2929 -906 0
-2929 -409 0
-2929 -619 0
-2936 -906 0
-2936 -409 0
-2936 -619 0
-906 -409 0
-906 -619 0
-409 -619 0
2888 2909 2930 2937 907 410 620 0
-2888 -2909 0
-2888 -2930 0
-2888 -2937 0
-2888 -907 0
-2888 -410 0
-2888 -620 0
-2909 -2930 0
-2909 -2937 0
-2909 -907 0
-2909 -410 0
-2909 -620 0
-2930 -2937 0
-2930 -907 0
-2930 -410 0
-2930 -620 0
-2937 -907 0
-2937 -410 0
-2937 -620 0
-907 -410 0
-907 -620 0
-410 -620 0
2889 2910 2931 2938 908 411 621 0
-2889 -2910 0
-2889 -2931 0
-2889 -2938 0
-2889 -908 0
-2889 -411 0
-2889 -621 0
-2910 -2931 0
-2910 -2938 0
-2910 -908 0
-2910 -411 0
-2910 -621 0
-2931 -2938 0
-2931 -908 0
-2931 -411 0
-2931 -621 0
-2938 -908 0
-2938 -411 0
-2938 -621 0
-908 -411 0
-908 -621 0
-411 -621 0
2890 2911 2925 2939 972 412 622 0
-2890 -2911 0
-2890 -2925 0
-2890 -2939 0
-2890 -972 0
-2890 -412 0
-2890 -622 0
-2911 -2925 0
-2911 -2939 0
-2911 -972 0
-2911 -412 0
-2911 -622 0
-2925 -2939 0
-2925 -972 0
-2925 -412 0
-2925 -622 0
-2939 -972 0
-2939 -412 0
-2939 -622 0
-972 -412 0
-972 -622 0
-412 -622 0
2891 2912 2926 2940 973 413 623 0
-2891 -2912 0
-2891 -2926 0
-2891 -2940 0
-2891 -973 0
-2891 -413 0
-2891 -623 0
-2912 -2926 0
-2912 -2940 0
-2912 -973 0
-2912 -413 0
-2912 -623 0
-2926 -2940 0
-2926 -973 0
-2926 -413 0
-2926 -623 0
-2940 -973 0
-2940 -413 0
-2940 -623 0
-973 -413 0
-973 -623 0
-413 -623 0
2892 2913 2927 2941 974 414 624 0
-2892 -2913 0
-2892 -2927 0
-2892 -2941 0
-2892 -974 0
-2892 -414 0
-2892 -624 0
-2913 -2927 0
-2913 -2941 0
-2913 -974 0
-2913 -414 0
-2913 -624 0
-2927 -2941 0
-2927 -974 0
-2927 -414 0
-2927 -624 0
-2941 -974 0
-2941 -414 0
-2941 -624 0
-974 -414 0
-974 -624 0
-414 -624 0
2893 2914 2928 2942 975 415 625 0
-2893 -2914 0
-2893 -2928 0
-2893 -2942 0
-2893 -975 0
-2893 -415 0
-2893 -625 0
-2914 -2928 0
-2914 -2942 0
-2914 -975 0
-2914 -415 0
-2914 -625 0
-2928 -2942 0
-2928 -975 0
-2928 -415 0
-2928 -625 0
-2942 -975 0
-2942 -415 0
-2942 -625 0
-975 -415 0
-975 -625 0
-415 -625 0
2894 2915 2929 2943 976 416 626 0
-2894 -2915 0
-2894 -2929 0
-2894 -2943 0
-2894 -976 0
-2894 -416 0
-2894 -626 0
-2915 -2929 0
-2915 -2943 0
-2915 -976 0
-2915 -416 0
-2915 -626 0
-2929 -2943 0
-2929 -976 0
-2929 -416 0
-2929 -626 0
-2943 -976 0
-2943 -416 0
-2943 -626 0
-976 -416 0
-976 -626 0
-416 -626 0
2895 2916 2930 2944 977 417 627 0
-2895 -2916 0
-2895 -2930 0
-2895 -2944 0
-2895 -977 0
-2895 -417 0
-2895 -627 0
-2916 -2930 0
-2916 -2944 0
-2916 -977 0
-2916 -417 0
-2916 -627 0
-2930 -2944 0
-2930 -977 0
-2930 -417 0
-2930 -627 0
-2944 -977 0
-2944 -417 0
-2944 -627 0
-977 -417 0
-977 -627 0
-417 -627 0
2896 2917 2931 2945 978 418 628 0
-2896 -2917 0
-2896 -2931 0
-2896 -2945 0
-2896 -978 0
-2896 -418 0
-2896 -628 0
-2917 -2931 0
-2917 -2945 0
-2917 -978 0
-2917 -418 0
-2917 -628 0
-2931 -2945 0
-2931 -978 0
-2931 -418 0
-2931 -628 0
-2945 -978 0
-2945 -418 0
-2945 -628 0
-978 -418 0
-978 -628 0
-418 -628 0
2897 2918 2932 2939 1042 419 629 0
-2897 -2918 0
-2897 -2932 0
-2897 -2939 0
-2897 -1042 0
-2897 -419 0
-2897 -629 0
-2918 -2932 0
-2918 -2939 0
-2918 -1042 0
-2918 -419 0
-2918 -629 0
-2932 -2939 0
-2932 -1042 0
-2932 -419 0
-2932 -629 0
-2939 -1042 0
-2939 -419 0
-2939 -629 0
-1042 -419 0
-1042 -629 0
-419 -629 0
2898 2919 2933 2940 1043 420 630 0
-2898 -2919 0
-2898 -2933 0
-2898 -2940 0
-2898 -1043 0
-2898 -420 0
-2898 -630 0
-2919 -2933 0
-2919 -2940 0
-2919 -1043 0
-2919 -420 0
-2919 -630 0
-2933 -2940 0
-2933 -1043 0
-2933 -420 0
-2933 -630 0
-2940 -1043 0
-2940 -420 0
-2940 -630 0
-1043 -420 0
-1043 -630 0
-420 -630 0
2899 2920 2934 2941 1044 421 631 0
-2899 -2920 0
-2899 -2934 0
-2899 -2941 0
-2899 -1044 0
-2899 -421 0
-2899 -631 0
-2920 -2934 0
-2920 -2941 0
-2920 -1044 0
-2920 -421 0
-2920 -631 0
-2934 -2941 0
-2934 -1044 0
-2934 -421 0
-2934 -631 0
-2941 -1044 0
-2941 -421 0
-2941 -631 0
-1044 -421 0
-1044 -631 0
-421 -631 0
2900 2921 2935 2942 1045 422 632 0
-2900 -2921 0
-2900 -2935 0
-2900 -2942 0
-2900 -1045 0
-2900 -422 0
-2900 -632 0
-2921 -2935 0
-2921 -2942 0
-2921 -1045 0
-2921 -422 0
-2921 -632 0
-2935 -2942 0
-2935 -1045 0
-2935 -422 0
-2935 -632 0
-2942 -1045 0
-2942 -422 0
-2942 -632 0
-1045 -422 0
-1045 -632 0
-422 -632 0
2901 2922 2936 2943 1046 423 633 0
-2901 -2922 0
-2901 -2936 0
-2901 -2943 0
-2901 -1046 0
-2901 -423 0
-2901 -633 0
-2922 -2936 0
-2922 -2943 0
-2922 -1046 0
-2922 -423 0
-2922 -633 0
-2936 -2943 0
-2936 -1046 0
-2936 -423 0
-2936 -633 0
-2943 -1046 0
-2943 -423 0
-2943 -633 0
-1046 -423 0
-1046 -633 0
-423 -633 0
2902 2923 2937 2944 1047 424 634 0
-2902 -2923 0
-2902 -2937 0
-2902 -2944 0
-2902 -1047 0
-2902 -424 0
-2902 -634 0
-2923 -2937 0
-2923 -2944 0
-2923 -1047 0
-2923 -424 0
-2923 -634 0
-2937 -2944 0
-2937 -1047 0
-2937 -424 0
-2937 -634 0
-2944 -1047 0
-2944 -424 0
-2944 -634 0
-1047 -424 0
-1047 -634 0
-424 -634 0
2903 2924 2938 2945 1048 425 635 0
-2903 -2924 0
-2903 -2938 0
-2903 -2945 0
-2903 -1048 0
-2903 -425 0
-2903 -635 0
-2924 -2938 0
-2924 -2945 0
-2924 -1048 0
-2924 -425 0
-2924 -635 0
-2938 -2945 0
-2938 -1048 0
-2938 -425 0
-2938 -635 0
-2945 -1048 0
-2945 -425 0
-2945 -635 0
-1048 -425 0
-1048 -635 0
-425 -635 0
2876 2946 2953 2960 1112 426 636 0
-2876 -2946 0
-2876 -2953 0
-2876 -2960 0
-2876 -1112 0
-2876 -426 0
-2876 -636 0
-2946 -2953 0
-2946 -2960 0
-2946 -1112 0
-2946 -426 0
-2946 -636 0
-2953 -2960 0
-2953 -1112 0
-2953 -426 0
-2953 -636 0
-2960 -1112 0
-2960 -426 0
-2960 -636 0
-1112 -426 0
-1112 -636 0
-426 -636 0
2877 2947 2954 2961 1113 427 637 0
-2877 -2947 0
-2877 -2954 0
-2877 -2961 0
-2877 -1113 0
-2877 -427 0
-2877 -637 0
-2947 -2954 0
-2947 -2961 0
-2947 -1113 0
-2947 -427 0
-2947 -637 0
-2954 -2961 0
-2954 -1113 0
-2954 -427 0
-2954 -637 0
-2961 -1113 0
-2961 -427 0
-2961 -637 0
-1113 -427 0
-1113 -637 0
-427 -637 0
2878 2948 2955 2962 1114 428 638 0
-2878 -2948 0
-2878 -2955 0
-2878 -2962 0
-2878 -1114 0
-2878 -428 0
-2878 -638 0
-2948 -2955 0
-2948 -2962 0
-2948 -1114 0
-2948 -428 0
-2948 -638 0
-2955 -2962 0
-2955 -1114 0
-2955 -428 0
-2955 -638 0
-2962 -1114 0
-2962 -428 0
-2962 -638 0
-1114 -428 0
-1114 -638 0
-428 -638 0
2879 2949 2956 2963 1115 429 639 0
-2879 -2949 0
-2879 -2956 0
-2879 -2963 0
-2879 -1115 0
-2879 -429 0
-2879 -639 0
-2949 -2956 0
-2949 -2963 0
-2949 -1115 0
-2949 -429 0
-2949 -639 0
-2956 -2963 0
-2956 -1115 0
-2956 -429 0
-2956 -639 0
-2963 -1115 0
-2963 -429 0
-2963 -639 0
-1115 -429 0
-1115 -639 0
-429 -639 0
2880 2950 2957 2964 1116 430 640 0
-2880 -2950 0
-2880 -2957 0
-2880 -2964 0
-2880 -1116 0
-2880 -430 0
-2880 -640 0
-2950 -2957 0
-2950 -2964 0
-2950 -1116 0
-2950 -430 0
-2950 -640 0
-2957 -2964 0
-2957 -1116 0
-2957 -430 0
-2957 -640 0
-2964 -1116 0
-2964 -430 0
-2964 -640 0
-1116 -430 0
-1116 -640 0
-430 -640 0
2881 2951 2958 2965 1117 431 641 0
-2881 -2951 0
-2881 -2958 0
-2881 -2965 0
-2881 -1117 0
-2881 -431 0
-2881 -641 0
-2951 -2958 0
-2951 -2965 0
-2951 -1117 0
-2951 -431 0
-2951 -641 0
-2958 -2965 0
-2958 -1117 0
-2958 -431 0
-2958 -641 0
-2965 -1117 0
-2965 -431 0
-2965 -641 0
-1117 -431 0
-1117 -641 0
-431 -641 0
2882 2952 2959 2966 1118 432 642 0
-2882 -2952 0
-2882 -2959 0
-2882 -2966 0
-2882 -1118 0
-2882 -432 0
-2882 -642 0
-2952 -2959 0
-2952 -2966 0
-2952 -1118 0
-2952 -432 0
-2952 -642 0
-2959 -2966 0
-2959 -1118 0
-2959 -432 0
-2959 -642 0
-2966 -1118 0
-2966 -432 0
-2966 -642 0
-1118 -432 0
-1118 -642 0
-432 -642 0
2883 2946 2967 2974 1182 433 643 0
-2883 -2946 0
-2883 -2967 0
-2883 -2974 0
-2883 -1182 0
-2883 -433 0
-2883 -643 0
-2946 -2967 0
-2946 -2974 0
-2946 -1182 0
-2946 -433 0
-2946 -643 0
-2967 -2974 0
-2967 -1182 0
-2967 -433 0
-2967 -643 0
-2974 -1182 0
-2974 -433 0
-2974 -643 0
-1182 -433 0
-1182 -643 0
-433 -643 0
2884 2947 2968 2975 1183 434 644 0
-2884 -2947 0
-2884 -2968 0
-2884 -2975 0
-2884 -1183 0
-2884 -434 0
-2884 -644 0
-2947 -2968 0
-2947 -2975 0
-2947 -1183 0
-2947 -434 0
-2947 -644 0
-2968 -2975 0
-2968 -1183 0
-2968 -434 0
-2968 -644 0
-2975 -1183 0
-2975 -434 0
-2975 -644 0
-1183 -434 0
-1183 -644 0
-434 -644 0
2885 2948 2969 2976 1184 435 645 0
-2885 -2948 0
-2885 -2969 0
-2885 -2976 0
-2885 -1184 0
-2885 -435 0
-2885 -645 0
-2948 -2969 0
-2948 -2976 0
-2948 -1184 0
-2948 -435 0
-2948 -645 0
-2969 -2976 0
-2969 -1184 0
-2969 -435 0
-2969 -645 0
-2976 -1184 0
-2976 -435 0
-2976 -645 0
-1184 -435 0
-1184 -645 0
-435 -645 0
2886 2949 2970 2977 1185 436 646 0
-2886 -2949 0
-2886 -2970 0
-2886 -2977 0
-2886 -1185 0
-2886 -436 0
-2886 -646 0
-2949 -2970 0
-2949 -2977 0
-2949 -1185 0
-2949 -436 0
-2949 -646 0
-2970 -2977 0
-2970 -1185 0
-2970 -436 0
-2970 -646 0
-2977 -1185 0
-2977 -436 0
-2977 -646 0
-1185 -436 0
-1185 -646 0
-436 -646 0
2887 2950 2971 2978 1186 437 647 0
-2887 -2950 0
-2887 -2971 0
-2887 -2978 0
-2887 -1186 0
-2887 -437 0
-2887 -647 0
-2950 -2971 0
-2950 -2978 0
-2950 -1186 0
-2950 -437 0
-2950 -647 0
-2971 -2978 0
-2971 -1186 0
-2971 -437 0
-2971 -647 0
-2978 -1186 0
-2978 -437 0
-2978 -647 0
-1186 -437 0
-1186 -647 0
-437 -647 0
2888 2951 2972 2979 1187 438 648 0
-2888 -2951 0
-2888 -2972 0
-2888 -2979 0
-2888 -1187 0
-2888 -438 0
-2888 -648 0
-2951 -2972 0
-2951 -2979 0
-2951 -1187 0
-2951 -438 0
-2951 -648 0
-2972 -2979 0
-2972 -1187 0
-2972 -438 0
-2972 -648 0
-2979 -1187 0
-2979 -438 0
-2979 -648 0
-1187 -438 0
-1187 -648 0
-438 -648 0
2889 2952 2973 2980 1188 439 649 0
-2889 -2952 0
-2889 -2973 0
-2889 -2980 0
-2889 -1188 0
-2889 -439 0
-2889 -649 0
-2952 -2973 0
-2952 -2980 0
-2952 -1188 0
-2952 -439 0
-2952 -649 0
-2973 -2980 0
-2973 -1188 0
-2973 -439 0
-2973 -649 0
-2980 -1188 0
-2980 -439 0
-2980 -649 0
-1188 -439 0
-1188 -649 0
-439 -649 0
2890 2953 2967 2981 1252 440 650 0
-2890 -2953 0
-2890 -2967 0
-2890 -2981 0
-2890 -1252 0
-2890 -440 0
-2890 -650 0
-2953 -2967 0
-2953 -2981 0
-2953 -1252 0
-2953 -440 0
-2953 -650 0
-2967 -2981 0
-2967 -1252 0
-2967 -440 0
-2967 -650 0
-2981 -1252 0
-2981 -440 0
-2981 -650 0
-1252 -440 0
-1252 -650 0
-440 -650 0
2891 2954 2968 2982 1253 441 651 0
-2891 -2954 0
-2891 -2968 0
-2891 -2982 0
-2891 -1253 0
-2891 -441 0
-2891 -651 0
-2954 -2968 0
-2954 -2982 0
-2954 -1253 0
-2954 -441 0
-2954 -651 0
-2968 -2982 0
-2968 -1253 0
-2968 -441 0
-2968 -651 0
-2982 -1253 0
-2982 -441 0
-2982 -651 0
-1253 -441 0
-1253 -651 0
-441 -651 0
2892 2955 2969 2983 1254 442 652 0
-2892 -2955 0
-2892 -2969 0
-2892 -2983 0
-2892 -1254 0
-2892 -442 0
-2892 -652 0
-2955 -2969 0
-2955 -2983 0
-2955 -1254 0
-2955 -442 0
-2955 -652 0
-2969 -2983 0
-2969 -1254 0
-2969 -442 0
-2969 -652 0
-2983 -1254 0
-2983 -442 0
-2983 -652 0
-1254 -442 0
-1254 -652 0
-442 -652 0
2893 2956 2970 2984 1255 443 653 0
-2893 -2956 0
-2893 -2970 0
-2893 -2984 0
-2893 -1255 0
-2893 -443 0
-2893 -653 0
-2956 -2970 0
-2956 -2984 0
-2956 -1255 0
-2956 -443 0
-2956 -653 0
-2970 -2984 0
-2970 -1255 0
-2970 -443 0
-2970 -653 0
-2984 -1255 0
-2984 -443 0
-2984 -653 0
-1255 -443 0
-1255 -653 0
-443 -653 0
2894 2957 2971 2985 1256 444 654 0
-2894 -2957 0
-2894 -2971 0
-2894 -2985 0
-2894 -1256 0
-2894 -444 0
-2894 -654 0
-2957 -2971 0
-2957 -2985 0
-2957 -1256 0
-2957 -444 0
-2957 -654 0
-2971 -2985 0
-2971 -1256 0
-2971 -444 0
-2971 -654 0
-2985 -1256 0
-2985 -444 0
-2985 -654 0
-1256 -444 0
-1256 -654 0
-444 -654 0
2895 2958 2972 2986 1257 445 655 0
-2895 -2958 0
-2895 -2972 0
-2895 -2986 0
-2895 -1257 0
-2895 -445 0
-2895 -655 0
-2958 -2972 0
-2958 -2986 0
-2958 -1257 0
-2958 -445 0
-2958 -655 0
-2972 -2986 0
-2972 -1257 0
-2972 -445 0
-2972 -655 0
-2986 -1257 0
-2986 -445 0
-2986 -655 0
-1257 -445 0
-1257 -655 0
-445 -655 0
2896 2959 2973 2987 1258 446 656 0
-2896 -2959 0
-2896 -2973 0
-2896 -2987 0
-2896 -1258 0
-2896 -446 0
-2896 -656 0
-2959 -2973 0
-2959 -2987 0
-2959 -1258 0
-2959 -446 0
-2959 -656 0
-2973 -2987 0
-2973 -1258 0
-2973 -446 0
-2973 -656 0
-2987 -1258 0
-2987 -446 0
-2987 -656 0
-1258 -446 0
-1258 -656 0
-446 -656 0
2897 2960 2974 2981 1322 447 657 0
-2897 -2960 0
-2897 -2974 0
-2897 -2981 0
-2897 -1322 0
-2897 -447 0
-2897 -657 0
-2960 -2974 0
-2960 -2981 0
-2960 -1322 0
-2960 -447 0
-2960 -657 0
-2974 -2981 0
-2974 -1322 0
-2974 -447 0
-2974 -657 0
-2981 -1322 0
-2981 -447 0
-2981 -657 0
-1322 -447 0
-1322 -657 0
-447 -657 0
2898 2961 2975 2982 1323 448 658 0
-2898 -2961 0
-2898 -2975 0
-2898 -2982 0
-2898 -1323 0
-2898 -448 0
-2898 -658 0
-2961 -2975 0
-2961 -2982 0
-2961 -1323 0
-2961 -448 0
-2961 -658 0
-2975 -2982 0
-2975 -1323 0
-2975 -448 0
-2975 -658 0
-2982 -1323 0
-2982 -448 0
-2982 -658 0
-1323 -448 0
-1323 -658 0
-448 -658 0
2899 2962 2976 2983 1324 449 659 0
-2899 -2962 0
-2899 -2976 0
-2899 -2983 0
-2899 -1324 0
-2899 -449 0
-2899 -659 0
-2962 -2976 0
-2962 -2983 0
-2962 -1324 0
-2962 -449 0
-2962 -659 0
-2976 -2983 0
-2976 -1324 0
-2976 -449 0
-2976 -659 0
-2983 -1324 0
-2983 -449 0
-2983 -659 0
-1324 -449 0
-1324 -659 0
-449 -659 0
2900 2963 2977 2984 1325 450 660 0
-2900 -2963 0
-2900 -2977 0
-2900 -2984 0
-2900 -1325 0
-2900 -450 0
-2900 -660 0
-2963 -2977 0
-2963 -2984 0
-2963 -1325 0
-2963 -450 0
-2963 -660 0
-2977 -2984 0
-2977 -1325 0
-2977 -450 0
-2977 -660 0
-2984 -1325 0
-2984 -450 0
-2984 -660 0
-1325 -450 0
-1325 -660 0
-450 -660 0
2901 2964 2978 2985 1326 451 661 0
-2901 -2964 0
-2901 -2978 0
-2901 -2985 0
-2901 -1326 0
-2901 -451 0
-2901 -661 0
-2964 -2978 0
-2964 -2985 0
-2964 -1326 0
-2964 -451 0
-2964 -661 0
-2978 -2985 0
-2978 -1326 0
-2978 -451 0
-2978 -661 0
-2985 -1326 0
-2985 -451 0
-2985 -661 0
-1326 -451 0
-1326 -661 0
-451 -661 0
2902 2965 2979 2986 1327 452 662 0
-2902 -2965 0
-2902 -2979 0
-2902 -2986 0
-2902 -1327 0
-2902 -452 0
-2902 -662 0
-2965 -2979 0
-2965 -2986 0
-2965 -1327 0
-2965 -452 0
-2965 -662 0
-2979 -2986 0
-2979 -1327 0
-2979 -452 0
-2979 -662 0
-2986 -1327 0
-2986 -452 0
-2986 -662 0
-1327 -452 0
-1327 -662 0
-452 -662 0
2903 2966 2980 2987 1328 453 663 0
-2903 -2966 0
-2903 -2980 0
-2903 -2987 0
-2903 -1328 0
-2903 -453 0
-2903 -663 0
-2966 -2980 0
-2966 -2987 0
-2966 -1328 0
-2966 -453 0
-2966 -663 0
-2980 -2987 0
-2980 -1328 0
-2980 -453 0
-2980 -663 0
-2987 -1328 0
-2987 -453 0
-2987 -663 0
-1328 -453 0
-1328 -663 0
-453 -663 0
2904 2946 2988 2995 1392 454 664 0
-2904 -2946 0
-2904 -2988 0
-2904 -2995 0
-2904 -1392 0
-2904 -454 0
-2904 -664 0
-2946 -2988 0
-2946 -2995 0
-2946 -1392 0
-2946 -454 0
-2946 -664 0
-2988 -2995 0
-2988 -1392 0
-2988 -454 0
-2988 -664 0
-2995 -1392 0
-2995 -454 0
-2995 -664 0
-1392 -454 0
-1392 -664 0
-454 -664 0
2905 2947 2989 2996 1393 455 665 0
-2905 -2947 0
-2905 -2989 0
-2905 -2996 0
-2905 -1393 0
-2905 -455 0
-2905 -665 0
-2947 -2989 0
-2947 -2996 0
-2947 -1393 0
-2947 -455 0
-2947 -665 0
-2989 -2996 0
-2989 -1393 0
-2989 -455 0
-2989 -665 0
-2996 -1393 0
-2996 -455 0
-2996 -665 0
-1393 -455 0
-1393 -665 0
-455 -665 0
2906 2948 2990 2997 1394 456 666 0
-2906 -2948 0
-2906 -2990 0
-2906 -2997 0
-2906 -1394 0
-2906 -456 0
-2906 -666 0
-2948 -2990 0
-2948 -2997 0
-2948 -1394 0
-2948 -456 0
-2948 -666 0
-2990 -2997 0
-2990 -1394 0
-2990 -456 0
-2990 -666 0
-2997 -1394 0
-2997 -456 0
-2997 -666 0
-1394 -456 0
-1394 -666 0
-456 -666 0
2907 2949 2991 2998 1395 457 667 0
-2907 -2949 0
-2907 -2991 0
-2907 -2998 0
-2907 -1395 0
-2907 -457 0
-2907 -667 0
-2949 -2991 0
-2949 -2998 0
-2949 -1395 0
-2949 -457 0
-2949 -667 0
-2991 -2998 0
-2991 -1395 0
-2991 -457 0
-2991 -667 0
-2998 -1395 0
-2998 -457 0
-2998 -667 0
-1395 -457 0
-1395 -667 0
-457 -667 0
2908 2950 2992 2999 1396 458 668 0
-2908 -2950 0
-2908 -2992 0
-2908 -2999 0
-2908 -1396 0
-2908 -458 0
-2908 -668 0
-2950 -2992 0
-2950 -2999 0
-2950 -1396 0
-2950 -458 0
-2950 -668 0
-2992 -2999 0
-2992 -1396 0
-2992 -458 0
-2992 -668 0
-2999 -1396 0
-2999 -458 0
-2999 -668 0
-1396 -458 0
-1396 -668 0
-458 -668 0
2909 2951 2993 3000 1397 459 669 0
-2909 -2951 0
-2909 -2993 0
-2909 -3000 0
-2909 -1397 0
-2909 -459 0
-2909 -669 0
-2951 -2993 0
-2951 -3000 0
-2951 -1397 0
-2951 -459 0
-2951 -669 0
-2993 -3000 0
-2993 -1397 0
-2993 -459 0
-2993 -669 0
-3000 -1397 0
-3000 -459 0
-3000 -669 0
-1397 -459 0
-1397 -669 0
-459 -669 0
2910 2952 2994 3001 1398 460 670 0
-2910 -2952 0
-2910 -2994 0
-2910 -3001 0
-2910 -1398 0
-2910 -460 0
-2910 -670 0
-2952 -2994 0
-2952 -3001 0
-2952 -1398 0
-2952 -460 0
-2952 -670 0
-2994 -3001 0
-2994 -1398 0
-2994 -460 0
-2994 -670 0
-3001 -1398 0
-3001 -460 0
-3001 -670 0
-1398 -460 0
-1398 -670 0
-460 -670 0
2911 2953 2988 3002 1462 461 671 0
-2911 -2953 0
-2911 -2988 0
-2911 -3002 0
-2911 -1462 0
-2911 -461 0
-2911 -671 0
-2953 -2988 0
-2953 -3002 0
-2953 -1462 0
-2953 -461 0
-2953 -671 0
-2988 -3002 0
-2988 -1462 0
-2988 -461 0
-2988 -671 0
-3002 -1462 0
-3002 -461 0
-3002 -671 0
-1462 -461 0
-1462 -671 0
-461 -671 0
2912 2954 2989 3003 1463 462 672 0
-2912 -2954 0
-2912 -2989 0
-2912 -3003 0
-2912 -1463 0
-2912 -462 0
-2912 -672 0
-2954 -2989 0
-2954 -3003 0
-2954 -1463 0
-2954 -462 0
-2954 -672 0
-2989 -3003 0
-2989 -1463 0
-2989 -462 0
-2989 -672 0
-3003 -1463 0
-3003 -462 0
-3003 -672 0
-1463 -462 0
-1463 -672 0
-462 -672 0
2913 2955 2990 3004 1464 463 673 0
-2913 -2955 0
-2913 -2990 0
-2913 -3004 0
-2913 -1464 0
-2913 -463 0
-2913 -673 0
-2955 -2990 0
-2955 -3004 0
-2955 -1464 0
-2955 -463 0
-2955 -673 0
-2990 -3004 0
-2990 -1464 0
-2990 -463 0
-2990 -673 0
-3004 -1464 0
-3004 -463 0
-3004 -673 0
-1464 -463 0
-1464 -673 0
-463 -673 0
2914 2956 2991 3005 1465 464 674 0
-2914 -2956 0
-2914 -2991 0
-2914 -3005 0
-2914 -1465 0
-2914 -464 0
-2914 -674 0
-2956 -2991 0
-2956 -3005 0
-2956 -1465 0
-2956 -464 0
-2956 -674 0
-2991 -3005 0
-2991 -1465 0
-2991 -464 0
-2991 -674 0
-3005 -1465 0
-3005 -464 0
-3005 -674 0
-1465 -464 0
-1465 -674 0
-464 -674 0
2915 2957 2992 3006 1466 465 675 0
-2915 -2957 0
-2915 -2992 0
-2915 -3006 0
-2915 -1466 0
-2915 -465 0
-2915 -675 0
-2957 -2992 0
-2957 -3006 0
-2957 -1466 0
-2957 -465 0
-2957 -675 0
-2992 -3006 0
-2992 -1466 0
-2992 -465 0
-2992 -675 0
-3006 -1466 0
-3006 -465 0
-3006 -675 0
-1466 -465 0
-1466 -675 0
-465 -675 0
2916 2958 2993 3007 1467 466 676 0
-2916 -2958 0
-2916 -2993 0
-2916 -3007 0
-2916 -1467 0
-2916 -466 0
-2916 -676 0
-2958 -2993 0
-2958 -3007 0
-2958 -1467 0
-2958 -466 0
-2958 -676 0
-2993 -3007 0
-2993 -1467 0
-2993 -466 0
-2993 -676 0
-3007 -1467 0
-3007 -466 0
-3007 -676 0
-1467 -466 0
-1467 -676 0
-466 -676 0
2917 2959 2994 3008 1468 467 677 0
-2917 -2959 0
-2917 -2994 0
-2917 -3008 0
-2917 -1468 0
-2917 -467 0
-2917 -677 0
-2959 -2994 0
-2959 -3008 0
-2959 -1468 0
-2959 -467 0
-2959 -677 0
-2994 -3008 0
-2994 -1468 0
-2994 -467 0
-2994 -677 0
-3008 -1468 0
-3008 -467 0
-3008 -677 0
-1468 -467 0
-1468 -677 0
-467 -677 0
2918 2960 2995 3002 1532 468 678 0
-2918 -2960 0
-2918 -2995 0
-2918 -3002 0
-2918 -1532 0
-2918 -468 0
-2918 -678 0
-2960 -2995 0
-2960 -3002 0
-2960 -1532 0
-2960 -468 0
-2960 -678 0
-2995 -3002 0
-2995 -1532 0
-2995 -468 0
-2995 -678 0
-3002 -1532 0
-3002 -468 0
-3002 -678 0
-1532 -468 0
-1532 -678 0
-468 -678 0
2919 2961 2996 3003 1533 469 679 0
-2919 -2961 0
-2919 -2996 0
-2919 -3003 0
-2919 -1533 0
-2919 -469 0
-2919 -679 0
-2961 -2996 0
-2961 -3003 0
-2961 -1533 0
-2961 -469 0
-2961 -679 0
-2996 -3003 0
-2996 -1533 0
-2996 -469 0
-2996 -679 0
-3003 -1533 0
-3003 -469 0
-3003 -679 0
-1533 -469 0
-1533 -679 0
-469 -679 0
2920 2962 2997 3004 1534 470 680 0
-2920 -2962 0
-2920 -2997 0
-2920 -3004 0
-2920 -1534 0
-2920 -470 0
-2920 -680 0
-2962 -2997 0
-2962 -3004 0
-2962 -1534 0
-2962 -470 0
-2962 -680 0
-2997 -3004 0
-2997 -1534 0
-2997 -470 0
-2997 -680 0
-3004 -1534 0
-3004 -470 0
-3004 -680 0
-1534 -470 0
-1534 -680 0
-470 -680 0
2921 2963 2998 3005 1535 471 681 0
-2921 -2963 0
-2921 -2998 0
-2921 -3005 0
-2921 -1535 0
-2921 -471 0
-2921 -681 0
-2963 -2998 0
-2963 -3005 0
-2963 -1535 0
-2963 -471 0
-2963 -681 0
-2998 -3005 0
-2998 -1535 0
-2998 -471 0
-2998 -681 0
-3005 -1535 0
-3005 -471 0
-3005 -681 0
-1535 -471 0
-1535 -681 0
-471 -681 0
2922 2964 2999 3006 1536 472 682 0
-2922 -2964 0
-2922 -2999 0
-2922 -3006 0
-2922 -1536 0
-2922 -472 0
-2922 -682 0
-2964 -2999 0
-2964 -3006 0
-2964 -1536 0
-2964 -472 0
-2964 -682 0
-2999 -3006 0
-2999 -1536 0
-2999 -472 0
-2999 -682 0
-3006 -1536 0
-3006 -472 0
-3006 -682 0
-1536 -472 0
-1536 -682 0
-472 -682 0
2923 2965 3000 3007 1537 473 683 0
-2923 -2965 0
-2923 -3000 0
-2923 -3007 0
-2923 -1537 0
-2923 -473 0
-2923 -683 0
-2965 -3000 0
-2965 -3007 0
-2965 -1537 0
-2965 -473 0
-2965 -683 0
-3000 -3007 0
-3000 -1537 0
-3000 -473 0
-3000 -683 0
-3007 -1537 0
-3007 -473 0
-3007 -683 0
-1537 -473 0
-1537 -683 0
-473 -683 0
2924 2966 3001 3008 1538 474 684 0
-2924 -2966 0
-2924 -3001 0
-2924 -3008 0
-2924 -1538 0
-2924 -474 0
-2924 -684 0
-2966 -3001 0
-2966 -3008 0
-2966 -1538 0
-2966 -474 0
-2966 -684 0
-3001 -3008 0
-3001 -1538 0
-3001 -474 0
-3001 -684 0
-3008 -1538 0
-3008 -474 0
-3008 -684 0
-1538 -474 0
-1538 -684 0
-474 -684 0
2925 2967 2988 3009 1602 475 685 0
-2925 -2967 0
-2925 -2988 0
-2925 -3009 0
-2925 -1602 0
-2925 -475 0
-2925 -685 0
-2967 -2988 0
-2967 -3009 0
-2967 -1602 0
-2967 -475 0
-2967 -685 0
-2988 -3009 0
-2988 -1602 0
-2988 -475 0
-2988 -685 0
-3009 -1602 0
-3009 -475 0
-3009 -685 0
-1602 -475 0
-1602 -685 0
-475 -685 0
2926 2968 2989 3010 1603 476 686 0
-2926 -2968 0
-2926 -2989 0
-2926 -3010 0
-2926 -1603 0
-2926 -476 0
-2926 -686 0
-2968 -2989 0
-2968 -3010 0
-2968 -1603 0
-2968 -476 0
-2968 -686 0
-2989 -3010 0
-2989 -1603 0
-2989 -476 0
-2989 -686 0
-3010 -1603 0
-3010 -476 0
-3010 -686 0
-1603 -476 0
-1603 -686 0
-476 -686 0
2927 2969 2990 3011 1604 477 687 0
-2927 -2969 0
-2927 -2990 0
-2927 -3011 0
-2927 -1604 0
-2927 -477 0
-2927 -687 0
-2969 -2990 0
-2969 -3011 0
-2969 -1604 0
-2969 -477 0
-2969 -687 0
-2990 -3011 0
-2990 -1604 0
-2990 -477 0
-2990 -687 0
-3011 -1604 0
-3011 -477 0
-3011 -687 0
-1604 -477 0
-1604 -687 0
-477 -687 0
2928 2970 2991 3012 1605 478 688 0
-2928 -2970 0
-2928 -2991 0
-2928 -3012 0
-2928 -1605 0
-2928 -478 0
-2928 -688 0
-2970 -2991 0
-2970 -3012 0
-2970 -1605 0
-2970 -478 0
-2970 -688 0
-2991 -3012 0
-2991 -1605 0
-2991 -478 0
-2991 -688 0
-3012 -1605 0
-3012 -478 0
-3012 -688 0
-1605 -478 0
-1605 -688 0
-478 -688 0
2929 2971 2992 3013 1606 479 689 0
-2929 -2971 0
-2929 -2992 0
-2929 -3013 0
-2929 -1606 0
-2929 -479 0
-2929 -689 0
-2971 -2992 0
-2971 -3013 0
-2971 -1606 0
-2971 -479 0
-2971 -689 0
-2992 -3013 0
-2992 -1606 0
-2992 -479 0
-2992 -689 0
-3013 -1606 0
-3013 -479 0
-3013 -689 0
-1606 -479 0
-1606 -689 0
-479 -689 0
2930 2972 2993 3014 1607 480 690 0
-2930 -2972 0
-2930 -2993 0
-2930 -3014 0
-2930 -1607 0
-2930 -480 0
-2930 -690 0
-2972 -2993 0
-2972 -3014 0
-2972 -1607 0
-2972 -480 0
-2972 -690 0
-2993 -3014 0
-2993 -1607 0
-2993 -480 0
-2993 -690 0
-3014 -1607 0
-3014 -480 0
-3014 -690 0
-1607 -480 0
-1607 -690 0
-480 -690 0
2931 2973 2994 3015 1608 481 691 0
-2931 -2973 0
-2931 -2994 0
-2931 -3015 0
-2931 -1608 0
-2931 -481 0
-2931 -691 0
-2973 -2994 0
-2973 -3015 0
-2973 -1608 0
-2973 -481 0
-2973 -691 0
-2994 -3015 0
-2994 -1608 0
-2994 -481 0
-2994 -691 0
-3015 -1608 0
-3015 -481 0
-3015 -691 0
-1608 -481 0
-1608 -691 0
-481 -691 0
2932 2974 2995 3009 1672 482 692 0
-2932 -2974 0
-2932 -2995 0
-2932 -3009 0
-2932 -1672 0
-2932 -482 0
-2932 -692 0
-2974 -2995 0
-2974 -3009 0
-2974 -1672 0
-2974 -482 0
-2974 -692 0
-2995 -3009 0
-2995 -1672 0
-2995 -482 0
-2995 -692 0
-3009 -1672 0
-3009 -482 0
-3009 -692 0
-1672 -482 0
-1672 -692 0
-482 -692 0
2933 2975 2996 3010 1673 483 693 0
-2933 -2975 0
-2933 -2996 0
-2933 -3010 0
-2933 -1673 0
-2933 -483 0
-2933 -693 0
-2975 -2996 0
-2975 -3010 0
-2975 -1673 0
-2975 -483 0
-2975 -693 0
-2996 -3010 0
-2996 -1673 0
-2996 -483 0
-2996 -693 0
-3010 -1673 0
-3010 -483 0
-3010 -693 0
-1673 -483 0
-1673 -693 0
-483 -693 0
2934 2976 2997 3011 1674 484 694 0
-2934 -2976 0
-2934 -2997 0
-2934 -3011 0
-2934 -1674 0
-2934 -484 0
-2934 -694 0
-2976 -2997 0
-2976 -3011 0
-2976 -1674 0
-2976 -484 0
-2976 -694 0
-2997 -3011 0
-2997 -1674 0
-2997 -484 0
-2997 -694 0
-3011 -1674 0
-3011 -484 0
-3011 -694 0
-1674 -484 0
-1674 -694 0
-484 -694 0
2935 2977 2998 3012 1675 485 695 0
-2935 -2977 0
-2935 -2998 0
-2935 -3012 0
-2935 -1675 0
-2935 -485 0
-2935 -695 0
-2977 -2998 0
-2977 -3012 0
-2977 -1675 0
-2977 -485 0
-2977 -695 0
-2998 -3012 0
-2998 -1675 0
-2998 -485 0
-2998 -695 0
-3012 -1675 0
-3012 -485 0
-3012 -695 0
-1675 -485 0
-1675 -695 0
-485 -695 0
2936 2978 2999 3013 1676 486 696 0
-2936 -2978 0
-2936 -2999 0
-2936 -3013 0
-2936 -1676 0
-2936 -486 0
-2936 -696 0
-2978 -2999 0
-2978 -3013 0
-2978 -1676 0
-2978 -486 0
-2978 -696 0
-2999 -3013 0
-2999 -1676 0
-2999 -486 0
-2999 -696 0
-3013 -1676 0
-3013 -486 0
-3013 -696 0
-1676 -486 0
-1676 -696 0
-486 -696 0
2937 2979 3000 3014 1677 487 697 0
-2937 -2979 0
-2937 -3000 0
-2937 -3014 0
-2937 -1677 0
-2937 -487 0
-2937 -697 0
-2979 -3000 0
-2979 -3014 0
-2979 -1677 0
-2979 -487 0
-2979 -697 0
-3000 -3014 0
-3000 -1677 0
-3000 -487 0
-3000 -697 0
-3014 -1677 0
-3014 -487 0
-3014 -697 0
-1677 -487 0
-1677 -697 0
-487 -697 0
2938 2980 3001 3015 1678 488 698 0
-2938 -2980 0
-2938 -3001 0
-2938 -3015 0
-2938 -1678 0
-2938 -488 0
-2938 -698 0
-2980 -3001 0
-2980 -3015 0
-2980 -1678 0
-2980 -488 0
-2980 -698 0
-3001 -3015 0
-3001 -1678 0
-3001 -488 0
-3001 -698 0
-3015 -1678 0
-3015 -488 0
-3015 -698 0
-1678 -488 0
-1678 -698 0
-488 -698 0
2939 2981 3002 3009 1742 489 699 0
-2939 -2981 0
-2939 -3002 0
-2939 -3009 0
-2939 -1742 0
-2939 -489 0
-2939 -699 0
-2981 -3002 0
-2981 -3009 0
-2981 -1742 0
-2981 -489 0
-2981 -699 0
-3002 -3009 0
-3002 -1742 0
-3002 -489 0
-3002 -699 0
-3009 -1742 0
-3009 -489 0
-3009 -699 0
-1742 -489 0
-1742 -699 0
-489 -699 0
2940 2982 3003 3010 1743 490 700 0
-2940 -2982 0
-2940 -3003 0
-2940 -3010 0
-2940 -1743 0
-2940 -490 0
-2940 -700 0
-2982 -3003 0
-2982 -3010 0
-2982 -1743 0
-2982 -490 0
-2982 -700 0
-3003 -3010 0
-3003 -1743 0
-3003 -490 0
-3003 -700 0
-3010 -1743 0
-3010 -490 0
-3010 -700 0
-1743 -490 0
-1743 -700 0
-490 -700 0
2941 2983 3004 3011 1744 491 701 0
-2941 -2983 0
-2941 -3004 0
-2941 -3011 0
-2941 -1744 0
-2941 -491 0
-2941 -701 0
-2983 -3004 0
-2983 -3011 0
-2983 -1744 0
-2983 -491 0
-2983 -701 0
-3004 -3011 0
-3004 -1744 0
-3004 -491 0
-3004 -701 0
-3011 -1744 0
-3011 -491 0
-3011 -701 0
-1744 -491 0
-1744 -701 0
-491 -701 0
2942 2984 3005 3012 1745 492 702 0
-2942 -2984 0
-2942 -3005 0
-2942 -3012 0
-2942 -1745 0
-2942 -492 0
-2942 -702 0
-2984 -3005 0
-2984 -3012 0
-2984 -1745 0
-2984 -492 0
-2984 -702 0
-3005 -3012 0
-3005 -1745 0
-3005 -492 0
-3005 -702 0
-3012 -1745 0
-3012 -492 0
-3012 -702 0
-1745 -492 0
-1745 -702 0
-492 -702 0
2943 2985 3006 3013 1746 493 703 0
-2943 -2985 0
-2943 -3006 0
-2943 -3013 0
-2943 -1746 0
-2943 -493 0
-2943 -703 0
-2985 -3006 0
-2985 -3013 0
-2985 -1746 0
-2985 -493 0
-2985 -703 0
-3006 -3013 0
-3006 -1746 0
-3006 -493 0
-3006 -703 0
-3013 -1746 0
-3013 -493 0
-3013 -703 0
-1746 -493 0
-1746 -703 0
-493 -703 0
2944 2986 3007 3014 1747 494 704 0
-2944 -2986 0
-2944 -3007 0
-2944 -3014 0
-2944 -1747 0
-2944 -494 0
-2944 -704 0
-2986 -3007 0
-2986 -3014 0
-2986 -1747 0
-2986 -494 0
-2986 -704 0
-3007 -3014 0
-3007 -1747 0
-3007 -494 0
-3007 -704 0
-3014 -1747 0
-3014 -494 0
-3014 -704 0
-1747 -494 0
-1747 -704 0
-494 -704 0
2945 2987 3008 3015 1748 495 705 0
-2945 -2987 0
-2945 -3008 0
-2945 -3015 0
-2945 -1748 0
-2945 -495 0
-2945 -705 0
-2987 -3008 0
-2987 -3015 0
-2987 -1748 0
-2987 -495 0
-2987 -705 0
-3008 -3015 0
-3008 -1748 0
-3008 -495 0
-3008 -705 0
-3015 -1748 0
-3015 -495 0
-3015 -705 0
-1748 -495 0
-1748 -705 0
-495 -705 0
3016 3023 3030 3037 769 496 601 0
-3016 -3023 0
-3016 -3030 0
-3016 -3037 0
-3016 -769 0
-3016 -496 0
-3016 -601 0
-3023 -3030 0
-3023 -3037 0
-3023 -769 0
-3023 -496 0
-3023 -601 0
-3030 -3037 0
-3030 -769 0
-3030 -496 0
-3030 -601 0
-3037 -769 0
-3037 -496 0
-3037 -601 0
-769 -496 0
-769 -601 0
-496 -601 0
3017 3024 3031 3038 770 497 602 0
-3017 -3024 0
-3017 -3031 0
-3017 -3038 0
-3017 -770 0
-3017 -497 0
-3017 -602 0
-3024 -3031 0
-3024 -3038 0
-3024 -770 0
-3024 -497 0
-3024 -602 0
-3031 -3038 0
-3031 -770 0
-3031 -497 0
-3031 -602 0
-3038 -770 0
-3038 -497 0
-3038 -602 0
-770 -497 0
-770 -602 0
-497 -602 0
3018 3025 3032 3039 771 498 603 0
-3018 -3025 0
-3018 -3032 0
-3018 -3039 0
-3018 -771 0
-3018 -498 0
-3018 -603 0
-3025 -3032 0
-3025 -3039 0
-3025 -771 0
-3025 -498 0
-3025 -603 0
-3032 -3039 0
-3032 -771 0
-3032 -498 0
-3032 -603 0
-3039 -771 0
-3039 -498 0
-3039 -603 0
-771 -498 0
-771 -603 0
-498 -603 0
3019 3026 3033 3040 772 499 604 0
-3019 -3026 0
-3019 -3033 0
-3019 -3040 0
-3019 -772 0
-3019 -499 0
-3019 -604 0
-3026 -3033 0
-3026 -3040 0
-3026 -772 0
-3026 -499 0
-3026 -604 0
-3033 -3040 0
-3033 -772 0
-3033 -499 0
-3033 -604 0
-3040 -772 0
-3040 -499 0
-3040 -604 0
-772 -499 0
-772 -604 0
-499 -604 0
3020 3027 3034 3041 773 500 605 0
-3020 -3027 0
-3020 -3034 0
-3020 -3041 0
-3020 -773 0
-3020 -500 0
-3020 -605 0
-3027 -3034 0
-3027 -3041 0
-3027 -773 0
-3027 -500 0
-3027 -605 0
-3034 -3041 0
-3034 -773 0
-3034 -500 0
-3034 -605 0
-3041 -773 0
-3041 -500 0
-3041 -605 0
-773 -500 0
-773 -605 0
-500 -605 0
3021 3028 3035 3042 774 501 606 0
-3021 -3028 0
-3021 -3035 0
-3021 -3042 0
-3021 -774 0
-3021 -501 0
-3021 -606 0
-3028 -3035 0
-3028 -3042 0
-3028 -774 0
-3028 -501 0
-3028 -606 0
-3035 -3042 0
-3035 -774 0
-3035 -501 0
-3035 -606 0
-3042 -774 0
-3042 -501 0
-3042 -606 0
-774 -501 0
-774 -606 0
-501 -606 0
3022 3029 3036 3043 775 502 607 0
-3022 -3029 0
-3022 -3036 0
-3022 -3043 0
-3022 -775 0
-3022 -502 0
-3022 -607 0
-3029 -3036 0
-3029 -3043 0
-3029 -775 0
-3029 -502 0
-3029 -607 0
-3036 -3043 0
-3036 -775 0
-3036 -502 0
-3036 -607 0
-3043 -775 0
-3043 -502 0
-3043 -607 0
-775 -502 0
-775 -607 0
-502 -607 0
3016 3044 3051 3058 839 503 608 0
-3016 -3044 0
-3016 -3051 0
-3016 -3058 0
-3016 -839 0
-3016 -503 0
-3016 -608 0
-3044 -3051 0
-3044 -3058 0
-3044 -839 0
-3044 -503 0
-3044 -608 0
-3051 -3058 0
-3051 -839 0
-3051 -503 0
-3051 -608 0
-3058 -839 0
-3058 -503 0
-3058 -608 0
-839 -503 0
-839 -608 0
-503 -608 0
3017 3045 3052 3059 840 504 609 0
-3017 -3045 0
-3017 -3052 0
-3017 -3059 0
-3017 -840 0
-3017 -504 0
-3017 -609 0
-3045 -3052 0
-3045 -3059 0
-3045 -840 0
-3045 -504 0
-3045 -609 0
-3052 -3059 0
-3052 -840 0
-3052 -504 0
-3052 -609 0
-3059 -840 0
-3059 -504 0
-3059 -609 0
-840 -504 0
-840 -609 0
-504 -609 0
3018 3046 3053 3060 841 505 610 0
-3018 -3046 0
-3018 -3053 0
-3018 -3060 0
-3018 -841 0
-3018 -505 0
-3018 -610 0
-3046 -3053 0
-3046 -3060 0
-3046 -841 0
-3046 -505 0
-3046 -610 0
-3053 -3060 0
-3053 -841 0
-3053 -505 0
-3053 -610 0
-3060 -841 0
-3060 -505 0
-3060 -610 0
-841 -505 0
-841 -610 0
-505 -610 0
3019 3047 3054 3061 842 506 611 0
-3019 -3047 0
-3019 -3054 0
-3019 -3061 0
-3019 -842 0
-3019 -506 0
-3019 -611 0
-3047 -3054 0
-3047 -3061 0
-3047 -842 0
-3047 -506 0
-3047 -611 0
-3054 -3061 0
-3054 -842 0
-3054 -506 0
-3054 -611 0
-3061 -842 0
-3061 -506 0
-3061 -611 0
-842 -506 0
-842 -611 0
-506 -611 0
3020 3048 3055 3062 843 507 612 0
-3020 -3048 0
-3020 -3055 0
-3020 -3062 0
-3020 -843 0
-3020 -507 0
-3020 -612 0
-3048 -3055 0
-3048 -3062 0
-3048 -843 0
-3048 -507 0
-3048 -612 0
-3055 -3062 0
-3055 -843 0
-3055 -507 0
-3055 -612 0
-3062 -843 0
-3062 -507 0
-3062 -612 0
-843 -507 0
-843 -612 0
-507 -612 0
3021 3049 3056 3063 844 508 613 0
-3021 -3049 0
-3021 -3056 0
-3021 -3063 0
-3021 -844 0
-3021 -508 0
-3021 -613 0
-3049 -3056 0
-3049 -3063 0
-3049 -844 0
-3049 -508 0
-3049 -613 0
-3056 -3063 0
-3056 -844 0
-3056 -508 0
-3056 -613 0
-3063 -844 0
-3063 -508 0
-3063 -613 0
-844 -508 0
-844 -613 0
-508 -613 0
3022 3050 3057 3064 845 509 614 0
-3022 -3050 0
-3022 -3057 0
-3022 -3064 0
-3022 -845 0
-3022 -509 0
-3022 -614 0
-3050 -3057 0
-3050 -3064 0
-3050 -845 0
-3050 -509 0
-3050 -614 0
-3057 -3064 0
-3057 -845 0
-3057 -509 0
-3057 -614 0
-3064 -845 0
-3064 -509 0
-3064 -614 0
-845 -509 0
-845 -614 0
-509 -614 0
3023 3044 3065 3072 909 510 615 0
-3023 -3044 0
-3023 -3065 0
-3023 -3072 0
-3023 -909 0
-3023 -510 0
-3023 -615 0
-3044 -3065 0
-3044 -3072 0
-3044 -909 0
-3044 -510 0
-3044 -615 0
-3065 -3072 0
-3065 -909 0
-3065 -510 0
-3065 -615 0
-3072 -909 0
-3072 -510 0
-3072 -615 0
-909 -510 0
-909 -615 0
-510 -615 0
3024 3045 3066 3073 910 511 616 0
-3024 -3045 0
-3024 -3066 0
-3024 -3073 0
-3024 -910 0
-3024 -511 0
-3024 -616 0
-3045 -3066 0
-3045 -3073 0
-3045 -910 0
-3045 -511 0
-3045 -616 0
-3066 -3073 0
-3066 -910 0
-3066 -511 0
-3066 -616 0
-3073 -910 0
-3073 -511 0
-3073 -616 0
-910 -511 0
-910 -616 0
-511 -616 0
3025 3046 3067 3074 911 512 617 0
-3025 -3046 0
-3025 -3067 0
-3025 -3074 0
-3025 -911 0
-3025 -512 0
-3025 -617 0
-3046 -3067 0
-3046 -3074 0
-3046 -911 0
-3046 -512 0
-3046 -617 0
-3067 -3074 0
-3067 -911 0
-3067 -512 0
-3067 -617 0
-3074 -911 0
-3074 -512 0
-3074 -617 0
-911 -512 0
-911 -617 0
-512 -617 0
3026 3047 3068 3075 912 513 618 0
-3026 -3047 0
-3026 -3068 0
-3026 -3075 0
-3026 -912 0
-3026 -513 0
-3026 -618 0
-3047 -3068 0
-3047 -3075 0
-3047 -912 0
-3047 -513 0
-3047 -618 0
-3068 -3075 0
-3068 -912 0
-3068 -513 0
-3068 -618 0
-3075 -912 0
-3075 -513 0
-3075 -618 0
-912 -513 0
-912 -618 0
-513 -618 0
3027 3048 3069 3076 913 514 619 0
-3027 -3048 0
-3027 -3069 0
-3027 -3076 0
-3027 -913 0
-3027 -514 0
-3027 -619 0
-3048 -3069 0
-3048 -3076 0
-3048 -913 0
-3048 -514 0
-3048 -619 0
-3069 -3076 0
-3069 -913 0
-3069 -514 0
-3069 -619 0
-3076 -913 0
-3076 -514 0
-3076 -619 0
-913 -514 0
-913 -619 0
-514 -619 0
3028 3049 3070 3077 914 515 620 0
-3028 -3049 0
-3028 -3070 0
-3028 -3077 0
-3028 -914 0
-3028 -515 0
-3028 -620 0
-3049 -3070 0
-3049 -3077 0
-3049 -914 0
-3049 -515 0
-3049 -620 0
-3070 -3077 0
-3070 -914 0
-3070 -515 0
-3070 -620 0
-3077 -914 0
-3077 -515 0
-3077 -620 0
-914 -515 0
-914 -620 0
-515 -620 0
3029 3050 3071 3078 915 516 621 0
-3029 -3050 0
-3029 -3071 0
-3029 -3078 0
-3029 -915 0
-3029 -516 0
-3029 -621 0
-3050 -3071 0
-3050 -3078 0
-3050 -915 0
-3050 -516 0
-3050 -621 0
-3071 -3078 0
-3071 -915 0
-3071 -516 0
-3071 -621 0
-3078 -915 0
-3078 -516 0
-3078 -621 0
-915 -516 0
-915 -621 0
-516 -621 0
3030 3051 3065 3079 979 517 622 0
-3030 -3051 0
-3030 -3065 0
-3030 -3079 0
-3030 -979 0
-3030 -517 0
-3030 -622 0
-3051 -3065 0
-3051 -3079 0
-3051 -979 0
-3051 -517 0
-3051 -622 0
-3065 -3079 0
-3065 -979 0
-3065 -517 0
-3065 -622 0
-3079 -979 0
-3079 -517 0
-3079 -622 0
-979 -517 0
-979 -622 0
-517 -622 0
3031 3052 3066 3080 980 518 623 0
-3031 -3052 0
-3031 -3066 0
-3031 -3080 0
-3031 -980 0
-3031 -518 0
-3031 -623 0
-3052 -3066 0
-3052 -3080 0
-3052 -980 0
-3052 -518 0
-3052 -623 0
-3066 -3080 0
-3066 -980 0
-3066 -518 0
-3066 -623 0
-3080 -980 0
-3080 -518 0
-3080 -623 0
-980 -518 0
-980 -623 0
-518 -623 0
3032 3053 3067 3081 981 519 624 0
-3032 -3053 0
-3032 -3067 0
-3032 -3081 0
-3032 -981 0
-3032 -519 0
-3032 -624 0
-3053 -3067 0
-3053 -3081 0
-3053 -981 0
-3053 -519 0
-3053 -624 0
-3067 -3081 0
-3067 -981 0
-3067 -519 0
-3067 -624 0
-3081 -981 0
-3081 -519 0
-3081 -624 0
-981 -519 0
-981 -624 0
-519 -624 0
3033 3054 3068 3082 982 520 625 0
-3033 -3054 0
-3033 -3068 0
-3033 -3082 0
-3033 -982 0
-3033 -520 0
-3033 -625 0
-3054 -3068 0
-3054 -3082 0
-3054 -982 0
-3054 -520 0
-3054 -625 0
-3068 -3082 0
-3068 -982 0
-3068 -520 0
-3068 -625 0
-3082 -982 0
-3082 -520 0
-3082 -625 0
-982 -520 0
-982 -625 0
-520 -625 0
3034 3055 3069 3083 983 521 626 0
-3034 -3055 0
-3034 -3069 0
-3034 -3083 0
-3034 -983 0
-3034 -521 0
-3034 -626 0
-3055 -3069 0
-3055 -3083 0
-3055 -983 0
-3055 -521 0
-3055 -626 0
-3069 -3083 0
-3069 -983 0
-3069 -521 0
-3069 -626 0
-3083 -983 0
-3083 -521 0
-3083 -626 0
-983 -521 0
-983 -626 0
-521 -626 0
3035 3056 3070 3084 984 522 627 0
-3035 -3056 0
-3035 -3070 0
-3035 -3084 0
-3035 -984 0
-3035 -522 0
-3035 -627 0
-3056 -3070 0
-3056 -3084 0
-3056 -984 0
-3056 -522 0
-3056 -627 0
-3070 -3084 0
-3070 -984 0
-3070 -522 0
-3070 -627 0
-3084 -984 0
-3084 -522 0
-3084 -627 0
-984 -522 0
-984 -627 0
-522 -627 0
3036 3057 3071 3085 985 523 628 0
-3036 -3057 0
-3036 -3071 0
-3036 -3085 0
-3036 -985 0
-3036 -523 0
-3036 -628 0
-3057 -3071 0
-3057 -3085 0
-3057 -985 0
-3057 -523 0
-3057 -628 0
-3071 -3085 0
-3071 -985 0
-3071 -523 0
-3071 -628 0
-3085 -985 0
-3085 -523 0
-3085 -628 0
-985 -523 0
-985 -628 0
-523 -628 0
3037 3058 3072 3079 1049 524 629 0
-3037 -3058 0
-3037 -3072 0
-3037 -3079 0
-3037 -1049 0
-3037 -524 0
-3037 -629 0
-3058 -3072 0
-3058 -3079 0
-3058 -1049 0
-3058 -524 0
-3058 -629 0
-3072 -3079 0
-3072 -1049 0
-3072 -524 0
-3072 -629 0
-3079 -1049 0
-3079 -524 0
-3079 -629 0
-1049 -524 0
-1049 -629 0
-524 -629 0
3038 3059 3073 3080 1050 525 630 0
-3038 -3059 0
-3038 -3073 0
-3038 -3080 0
-3038 -1050 0
-3038 -525 0
-3038 -630 0
-3059 -3073 0
-3059 -3080 0
-3059 -1050 0
-3059 -525 0
-3059 -630 0
-3073 -3080 0
-3073 -1050 0
-3073 -525 0
-3073 -630 0
-3080 -1050 0
-3080 -525 0
-3080 -630 0
-1050 -525 0
-1050 -630 0
-525 -630 0
3039 3060 3074 3081 1051 526 631 0
-3039 -3060 0
-3039 -3074 0
-3039 -3081 0
-3039 -1051 0
-3039 -526 0
-3039 -631 0
-3060 -3074 0
-3060 -3081 0
-3060 -1051 0
-3060 -526 0
-3060 -631 0
-3074 -3081 0
-3074 -1051 0
-3074 -526 0
-3074 -631 0
-3081 -1051 0
-3081 -526 0
-3081 -631 0
-1051 -526 0
-1051 -631 0
-526 -631 0
3040 3061 3075 3082 1052 527 632 0
-3040 -3061 0
-3040 -3075 0
-3040 -3082 0
-3040 -1052 0
-3040 -527 0
-3040 -632 0
-3061 -3075 0
-3061 -3082 0
-3061 -1052 0
-3061 -527 0
-3061 -632 0
-3075 -3082 0
-3075 -1052 0
-3075 -527 0
-3075 -632 0
-3082 -1052 0
-3082 -527 0
-3082 -632 0
-1052 -527 0
-1052 -632 0
-527 -632 0
3041 3062 3076 3083 1053 528 633 0
-3041 -3062 0
-3041 -3076 0
-3041 -3083 0
-3041 -1053 0
-3041 -528 0
-3041 -633 0
-3062 -3076 0
-3062 -3083 0
-3062 -1053 0
-3062 -528 0
-3062 -633 0
-3076 -3083 0
-3076 -1053 0
-3076 -528 0
-3076 -633 0
-3083 -1053 0
-3083 -528 0
-3083 -633 0
-1053 -528 0
-1053 -633 0
-528 -633 0
3042 3063 3077 3084 1054 529 634 0
-3042 -3063 0
-3042 -3077 0
-3042 -3084 0
-3042 -1054 0
-3042 -529 0
-3042 -634 0
-3063 -3077 0
-3063 -3084 0
-3063 -1054 0
-3063 -529 0
-3063 -634 0
-3077 -3084 0
-3077 -1054 0
-3077 -529 0
-3077 -634 0
-3084 -1054 0
-3084 -529 0
-3084 -634 0
-1054 -529 0
-1054 -634 0
-529 -634 0
3043 3064 3078 3085 1055 530 635 0
-3043 -3064 0
-3043 -3078 0
-3043 -3085 0
-3043 -1055 0
-3043 -530 0
-3043 -635 0
-3064 -3078 0
-3064 -3085 0
-3064 -1055 0
-3064 -530 0
-3064 -635 0
-3078 -3085 0
-3078 -1055 0
-3078 -530 0
-3078 -635 0
-3085 -1055 0
-3085 -530 0
-3085 -635 0
-1055 -530 0
-1055 -635 0
-530 -635 0
3016 3086 3093 3100 1119 531 636 0
-3016 -3086 0
-3016 -3093 0
-3016 -3100 0
-3016 -1119 0
-3016 -531 0
-3016 -636 0
-3086 -3093 0
-3086 -3100 0
-3086 -1119 0
-3086 -531 0
-3086 -636 0
-3093 -3100 0
-3093 -1119 0
-3093 -531 0
-3093 -636 0
-3100 -1119 0
-3100 -531 0
-3100 -636 0
-1119 -531 0
-1119 -636 0
-531 -636 0
3017 3087 3094 3101 1120 532 637 0
-3017 -3087 0
-3017 -3094 0
-3017 -3101 0
-3017 -1120 0
-3017 -532 0
-3017 -637 0
-3087 -3094 0
-3087 -3101 0
-3087 -1120 0
-3087 -532 0
-3087 -637 0
-3094 -3101 0
-3094 -1120 0
-3094 -532 0
-3094 -637 0
-3101 -1120 0
-3101 -532 0
-3101 -637 0
-1120 -532 0
-1120 -637 0
-532 -637 0
3018 3088 3095 3102 1121 533 638 0
-3018 -3088 0
-3018 -3095 0
-3018 -3102 0
-3018 -1121 0
-3018 -533 0
-3018 -638 0
-3088 -3095 0
-3088 -3102 0
-3088 -1121 0
-3088 -533 0
-3088 -638 0
-3095 -3102 0
-3095 -1121 0
-3095 -533 0
-3095 -638 0
-3102 -1121 0
-3102 -533 0
-3102 -638 0
-1121 -533 0
-1121 -638 0
-533 -638 0
3019 3089 3096 3103 1122 534 639 0
-3019 -3089 0
-3019 -3096 0
-3019 -3103 0
-3019 -1122 0
-3019 -534 0
-3019 -639 0
-3089 -3096 0
-3089 -3103 0
-3089 -1122 0
-3089 -534 0
-3089 -639 0
-3096 -3103 0
-3096 -1122 0
-3096 -534 0
-3096 -639 0
-3103 -1122 0
-3103 -534 0
-3103 -639 0
-1122 -534 0
-1122 -639 0
-534 -639 0
3020 3090 3097 3104 1123 535 640 0
-3020 -3090 0
-3020 -3097 0
-3020 -3104 0
-3020 -1123 0
-3020 -535 0
-3020 -640 0
-3090 -3097 0
-3090 -3104 0
-3090 -1123 0
-3090 -535 0
-3090 -640 0
-3097 -3104 0
-3097 -1123 0
-3097 -535 0
-3097 -640 0
-3104 -1123 0
-3104 -535 0
-3104 -640 0
-1123 -535 0
-1123 -640 0
-535 -640 0
3021 3091 3098 3105 1124 536 641 0
-3021 -3091 0
-3021 -3098 0
-3021 -3105 0
-3021 -1124 0
-3021 -536 0
-3021 -641 0
-3091 -3098 0
-3091 -3105 0
-3091 -1124 0
-3091 -536 0
-3091 -641 0
-3098 -3105 0
-3098 -1124 0
-3098 -536 0
-3098 -641 0
-3105 -1124 0
-3105 -536 0
-3105 -641 0
-1124 -536 0
-1124 -641 0
-536 -641 0
3022 3092 3099 3106 1125 537 642 0
-3022 -3092 0
-3022 -3099 0
-3022 -3106 0
-3022 -1125 0
-3022 -537 0
-3022 -642 0
-3092 -3099 0
-3092 -3106 0
-3092 -1125 0
-3092 -537 0
-3092 -642 0
-3099 -3106 0
-3099 -1125 0
-3099 -537 0
-3099 -642 0
-3106 -1125 0
-3106 -537 0
-3106 -642 0
-1125 -537 0
-1125 -642 0
-537 -642 0
3023 3086 3107 3114 1189 538 643 0
-3023 -3086 0
-3023 -3107 0
-3023 -3114 0
-3023 -1189 0
-3023 -538 0
-3023 -643 0
-3086 -3107 0
-3086 -3114 0
-3086 -1189 0
-3086 -538 0
-3086 -643 0
-3107 -3114 0
-3107 -1189 0
-3107 -538 0
-3107 -643 0
-3114 -1189 0
-3114 -538 0
-3114 -643 0
-1189 -538 0
-1189 -643 0
-538 -643 0
3024 3087 3108 3115 1190 539 644 0
-3024 -3087 0
-3024 -3108 0
-3024 -3115 0
-3024 -1190 0
-3024 -539 0
-3024 -644 0
-3087 -3108 0
-3087 -3115 0
-3087 -1190 0
-3087 -539 0
-3087 -644 0
-3108 -3115 0
-3108 -1190 0
-3108 -539 0
-3108 -644 0
-3115 -1190 0
-3115 -539 0
-3115 -644 0
-1190 -539 0
-1190 -644 0
-539 -644 0
3025 3088 3109 3116 1191 540 645 0
-3025 -3088 0
-3025 -3109 0
-3025 -3116 0
-3025 -1191 0
-3025 -540 0
-3025 -645 0
-3088 -3109 0
-3088 -3116 0
-3088 -1191 0
-3088 -540 0
-3088 -645 0
-3109 -3116 0
-3109 -1191 0
-3109 -540 0
-3109 -645 0
-3116 -1191 0
-3116 -540 0
-3116 -645 0
-1191 -540 0
-1191 -645 0
-540 -645 0
3026 3089 3110 3117 1192 541 646 0
-3026 -3089 0
-3026 -3110 0
-3026 -3117 0
-3026 -1192 0
-3026 -541 0
-3026 -646 0
-3089 -3110 0
-3089 -3117 0
-3089 -1192 0
-3089 -541 0
-3089 -646 0
-3110 -3117 0
-3110 -1192 0
-3110 -541 0
-3110 -646 0
-3117 -1192 0
-3117 -541 0
-3117 -646 0
-1192 -541 0
-1192 -646 0
-541 -646 0
3027 3090 3111 3118 1193 542 647 0
-3027 -3090 0
-3027 -3111 0
-3027 -3118 0
-3027 -1193 0
-3027 -542 0
-3027 -647 0
-3090 -3111 0
-3090 -3118 0
-3090 -1193 0
-3090 -542 0
-3090 -647 0
-3111 -3118 0
-3111 -1193 0
-3111 -542 0
-3111 -647 0
-3118 -1193 0
-3118 -542 0
-3118 -647 0
-1193 -542 0
-1193 -647 0
-542 -647 0
3028 3091 3112 3119 1194 543 648 0
-3028 -3091 0
-3028 -3112 0
-3028 -3119 0
-3028 -1194 0
-3028 -543 0
-3028 -648 0
-3091 -3112 0
-3091 -3119 0
-3091 -1194 0
-3091 -543 0
-3091 -648 0
-3112 -3119 0
-3112 -1194 0
-3112 -543 0
-3112 -648 0
-3119 -1194 0
-3119 -543 0
-3119 -648 0
-1194 -543 0
-1194 -648 0
-543 -648 0
3029 3092 3113 3120 1195 544 649 0
-3029 -3092 0
-3029 -3113 0
-3029 -3120 0
-3029 -1195 0
-3029 -544 0
-3029 -649 0
-3092 -3113 0
-3092 -3120 0
-3092 -1195 0
-3092 -544 0
-3092 -649 0
-3113 -3120 0
-3113 -1195 0
-3113 -544 0
-3113 -649 0
-3120 -1195 0
-3120 -544 0
-3120 -649 0
-1195 -544 0
-1195 -649 0
-544 -649 0
3030 3093 3107 3121 1259 545 650 0
-3030 -3093 0
-3030 -3107 0
-3030 -3121 0
-3030 -1259 0
-3030 -545 0
-3030 -650 0
-3093 -3107 0
-3093 -3121 0
-3093 -1259 0
-3093 -545 0
-3093 -650 0
-3107 -3121 0
-3107 -1259 0
-3107 -545 0
-3107 -650 0
-3121 -1259 0
-3121 -545 0
-3121 -650 0
-1259 -545 0
-1259 -650 0
-545 -650 0
3031 3094 3108 3122 1260 546 651 0
-3031 -3094 0
-3031 -3108 0
-3031 -3122 0
-3031 -1260 0
-3031 -546 0
-3031 -651 0
-3094 -3108 0
-3094 -3122 0
-3094 -1260 0
-3094 -546 0
-3094 -651 0
-3108 -3122 0
-3108 -1260 0
-3108 -546 0
-3108 -651 0
-3122 -1260 0
-3122 -546 0
-3122 -651 0
-1260 -546 0
-1260 -651 0
-546 -651 0
3032 3095 3109 3123 1261 547 652 0
-3032 -3095 0
-3032 -3109 0
-3032 -3123 0
-3032 -1261 0
-3032 -547 0
-3032 -652 0
-3095 -3109 0
-3095 -3123 0
-3095 -1261 0
-3095 -547 0
-3095 -652 0
-3109 -3123 0
-3109 -1261 0
-3109 -547 0
-3109 -652 0
-3123 -1261 0
-3123 -547 0
-3123 -652 0
-1261 -547 0
-1261 -652 0
-547 -652 0
3033 3096 3110 3124 1262 548 653 0
-3033 -3096 0
-3033 -3110 0
-3033 -3124 0
-3033 -1262 0
-3033 -548 0
-3033 -653 0
-3096 -3110 0
-3096 -3124 0
-3096 -1262 0
-3096 -548 0
-3096 -653 0
-3110 -3124 0
-3110 -1262 0
-3110 -548 0
-3110 -653 0
-3124 -1262 0
-3124 -548 0
-3124 -653 0
-1262 -548 0
-1262 -653 0
-548 -653 0
3034 3097 3111 3125 1263 549 654 0
-3034 -3097 0
-3034 -3111 0
-3034 -3125 0
-3034 -1263 0
-3034 -549 0
-3034 -654 0
-3097 -3111 0
-3097 -3125 0
-3097 -1263 0
-3097 -549 0
-3097 -654 0
-3111 -3125 0
-3111 -1263 0
-3111 -549 0
-3111 -654 0
-3125 -1263 0
-3125 -549 0
-3125 -654 0
-1263 -549 0
-1263 -654 0
-549 -654 0
3035 3098 3112 3126 1264 550 655 0
-3035 -3098 0
-3035 -3112 0
-3035 -3126 0
-3035 -1264 0
-3035 -550 0
-3035 -655 0
-3098 -3112 0
-3098 -3126 0
-3098 -1264 0
-3098 -550 0
-3098 -655 0
-3112 -3126 0
-3112 -1264 0
-3112 -550 0
-3112 -655 0
-3126 -1264 0
-3126 -550 0
-3126 -655 0
-1264 -550 0
-1264 -655 0
-550 -655 0
3036 3099 3113 3127 1265 551 656 0
-3036 -3099 0
-3036 -3113 0
-3036 -3127 0
-3036 -1265 0
-3036 -551 0
-3036 -656 0
-3099 -3113 0
-3099 -3127 0
-3099 -1265 0
-3099 -551 0
-3099 -656 0
-3113 -3127 0
-3113 -1265 0
-3113 -551 0
-3113 -656 0
-3127 -1265 0
-3127 -551 0
-3127 -656 0
-1265 -551 0
-1265 -656 0
-551 -656 0
3037 3100 3114 3121 1329 552 657 0
-3037 -3100 0
-3037 -3114 0
-3037 -3121 0
-3037 -1329 0
-3037 -552 0
-3037 -657 0
-3100 -3114 0
-3100 -3121 0
-3100 -1329 0
-3100 -552 0
-3100 -657 0
-3114 -3121 0
-3114 -1329 0
-3114 -552 0
-3114 -657 0
-3121 -1329 0
-3121 -552 0
-3121 -657 0
-1329 -552 0
-1329 -657 0
-552 -657 0
3038 3101 3115 3122 1330 553 658 0
-3038 -3101 0
-3038 -3115 0
-3038 -3122 0
-3038 -1330 0
-3038 -553 0
-3038 -658 0
-3101 -3115 0
-3101 -3122 0
-3101 -1330 0
-3101 -553 0
-3101 -658 0
-3115 -3122 0
-3115 -1330 0
-3115 -553 0
-3115 -658 0
-3122 -1330 0
-3122 -553 0
-3122 -658 0
-1330 -553 0
-1330 -658 0
-553 -658 0
3039 3102 3116 3123 1331 554 659 0
-3039 -3102 0
-3039 -3116 0
-3039 -3123 0
-3039 -1331 0
-3039 -554 0
-3039 -659 0
-3102 -3116 0
-3102 -3123 0
-3102 -1331 0
-3102 -554 0
-3102 -659 0
-3116 -3123 0
-3116 -1331 0
-3116 -554 0
-3116 -659 0
-3123 -1331 0
-3123 -554 0
-3123 -659 0
-1331 -554 0
-1331 -659 0
-554 -659 0
3040 3103 3117 3124 1332 555 660 0
-3040 -3103 0
-3040 -3117 0
-3040 -3124 0
-3040 -1332 0
-3040 -555 0
-3040 -660 0
-3103 -3117 0
-3103 -3124 0
-3103 -1332 0
-3103 -555 0
-3103 -660 0
-3117 -3124 0
-3117 -1332 0
-3117 -555 0
-3117 -660 0
-3124 -1332 0
-3124 -555 0
-3124 -660 0
-1332 -555 0
-1332 -660 0
-555 -660 0
3041 3104 3118 3125 1333 556 661 0
-3041 -3104 0
-3041 -3118 0
-3041 -3125 0
-3041 -1333 0
-3041 -556 0
-3041 -661 0
-3104 -3118 0
-3104 -3125 0
-3104 -1333 0
-3104 -556 0
-3104 -661 0
-3118 -3125 0
-3118 -1333 0
-3118 -556 0
-3118 -661 0
-3125 -1333 0
-3125 -556 0
-3125 -661 0
-1333 -556 0
-1333 -661 0
-556 -661 0
3042 3105 3119 3126 1334 557 662 0
-3042 -3105 0
-3042 -3119 0
-3042 -3126 0
-3042 -1334 0
-3042 -557 0
-3042 -662 0
-3105 -3119 0
-3105 -3126 0
-3105 -1334 0
-3105 -557 0
-3105 -662 0
-3119 -3126 0
-3119 -1334 0
-3119 -557 0
-3119 -662 0
-3126 -1334 0
-3126 -557 0
-3126 -662 0
-1334 -557 0
-1334 -662 0
-557 -662 0
3043 3106 3120 3127 1335 558 663 0
-3043 -3106 0
-3043 -3120 0
-3043 -3127 0
-3043 -1335 0
-3043 -558 0
-3043 -663 0
-3106 -3120 0
-3106 -3127 0
-3106 -1335 0
-3106 -558 0
-3106 -663 0
-3120 -3127 0
-3120 -1335 0
-3120 -558 0
-3120 -663 0
-3127 -1335 0
-3127 -558 0
-3127 -663 0
-1335 -558 0
-1335 -663 0
-558 -663 0
3044 3086 3128 3135 1399 559 664 0
-3044 -3086 0
-3044 -3128 0
-3044 -3135 0
-3044 -1399 0
-3044 -559 0
-3044 -664 0
-3086 -3128 0
-3086 -3135 0
-3086 -1399 0
-3086 -559 0
-3086 -664 0
-3128 -3135 0
-3128 -1399 0
-3128 -559 0
-3128 -664 0
-3135 -1399 0
-3135 -559 0
-3135 -664 0
-1399 -559 0
-1399 -664 0
-559 -664 0
3045 3087 3129 3136 1400 560 665 0
-3045 -3087 0
-3045 -3129 0
-3045 -3136 0
-3045 -1400 0
-3045 -560 0
-3045 -665 0
-3087 -3129 0
-3087 -3136 0
-3087 -1400 0
-3087 -560 0
-3087 -665 0
-3129 -3136 0
-3129 -1400 0
-3129 -560 0
-3129 -665 0
-3136 -1400 0
-3136 -560 0
-3136 -665 0
-1400 -560 0
-1400 -665 0
-560 -665 0
3046 3088 3130 3137 1401 561 666 0
-3046 -3088 0
-3046 -3130 0
-3046 -3137 0
-3046 -1401 0
-3046 -561 0
-3046 -666 0
-3088 -3130 0
-3088 -3137 0
-3088 -1401 0
-3088 -561 0
-3088 -666 0
-3130 -3137 0
-3130 -1401 0
-3130 -561 0
-3130 -666 0
-3137 -1401 0
-3137 -561 0
-3137 -666 0
-1401 -561 0
-1401 -666 0
-561 -666 0
3047 3089 3131 3138 1402 562 667 0
-3047 -3089 0
-3047 -3131 0
-3047 -3138 0
-3047 -1402 0
-3047 -562 0
-3047 -667 0
-3089 -3131 0
-3089 -3138 0
-3089 -1402 0
-3089 -562 0
-3089 -667 0
-3131 -3138 0
-3131 -1402 0
-3131 -562 0
-3131 -667 0
-3138 -1402 0
-3138 -562 0
-3138 -667 0
-1402 -562 0
-1402 -667 0
-562 -667 0
3048 3090 3132 3139 1403 563 668 0
-3048 -3090 0
-3048 -3132 0
-3048 -3139 0
-3048 -1403 0
-3048 -563 0
-3048 -668 0
-3090 -3132 0
-3090 -3139 0
-3090 -1403 0
-3090 -563 0
-3090 -668 0
-3132 -3139 0
-3132 -1403 0
-3132 -563 0
-3132 -668 0
-3139 -1403 0
-3139 -563 0
-3139 -668 0
-1403 -563 0
-1403 -668 0
-563 -668 0
3049 3091 3133 3140 1404 564 669 0
-3049 -3091 0
-3049 -3133 0
-3049 -3140 0
-3049 -1404 0
-3049 -564 0
-3049 -669 0
-3091 -3133 0
-3091 -3140 0
-3091 -1404 0
-3091 -564 0
-3091 -669 0
-3133 -3140 0
-3133 -1404 0
-3133 -564 0
-3133 -669 0
-3140 -1404 0
-3140 -564 0
-3140 -669 0
-1404 -564 0
-1404 -669 0
-564 -669 0
3050 3092 3134 3141 1405 565 670 0
-3050 -3092 0
-3050 -3134 0
-3050 -3141 0
-3050 -1405 0
-3050 -565 0
-3050 -670 0
-3092 -3134 0
-3092 -3141 0
-3092 -1405 0
-3092 -565 0
-3092 -670 0
-3134 -3141 0
-3134 -1405 0
-3134 -565 0
-3134 -670 0
-3141 -1405 0
-3141 -565 0
-3141 -670 0
-1405 -565 0
-1405 -670 0
-565 -670 0
3051 3093 3128 3142 1469 566 671 0
-3051 -3093 0
-3051 -3128 0
-3051 -3142 0
-3051 -1469 0
-3051 -566 0
-3051 -671 0
-3093 -3128 0
-3093 -3142 0
-3093 -1469 0
-3093 -566 0
-3093 -671 0
-3128 -3142 0
-3128 -1469 0
-3128 -566 0
-3128 -671 0
-3142 -1469 0
-3142 -566 0
-3142 -671 0
-1469 -566 0
-1469 -671 0
-566 -671 0
3052 3094 3129 3143 1470 567 672 0
-3052 -3094 0
-3052 -3129 0
-3052 -3143 0
-3052 -1470 0
-3052 -567 0
-3052 -672 0
-3094 -3129 0
-3094 -3143 0
-3094 -1470 0
-3094 -567 0
-3094 -672 0
-3129 -3143 0
-3129 -1470 0
-3129 -567 0
-3129 -672 0
-3143 -1470 0
-3143 -567 0
-3143 -672 0
-1470 -567 0
-1470 -672 0
-567 -672 0
3053 3095 3130 3144 1471 568 673 0
-3053 -3095 0
-3053 -3130 0
-3053 -3144 0
-3053 -1471 0
-3053 -568 0
-3053 -673 0
-3095 -3130 0
-3095 -3144 0
-3095 -1471 0
-3095 -568 0
-3095 -673 0
-3130 -3144 0
-3130 -1471 0
-3130 -568 0
-3130 -673 0
-3144 -1471 0
-3144 -568 0
-3144 -673 0
-1471 -568 0
-1471 -673 0
-568 -673 0
3054 3096 3131 3145 1472 569 674 0
-3054 -3096 0
-3054 -3131 0
-3054 -3145 0
-3054 -1472 0
-3054 -569 0
-3054 -674 0
-3096 -3131 0
-3096 -3145 0
-3096 -1472 0
-3096 -569 0
-3096 -674 0
-3131 -3145 0
-3131 -1472 0
-3131 -569 0
-3131 -674 0
-3145 -1472 0
-3145 -569 0
-3145 -674 0
-1472 -569 0
-1472 -674 0
-569 -674 0
3055 3097 3132 3146 1473 570 675 0
-3055 -3097 0
-3055 -3132 0
-3055 -3146 0
-3055 -1473 0
-3055 -570 0
-3055 -675 0
-3097 -3132 0
-3097 -3146 0
-3097 -1473 0
-3097 -570 0
-3097 -675 0
-3132 -3146 0
-3132 -1473 0
-3132 -570 0
-3132 -675 0
-3146 -1473 0
-3146 -570 0
-3146 -675 0
-1473 -570 0
-1473 -675 0
-570 -675 0
3056 3098 3133 3147 1474 571 676 0
-3056 -3098 0
-3056 -3133 0
-3056 -3147 0
-3056 -1474 0
-3056 -571 0
-3056 -676 0
-3098 -3133 0
-3098 -3147 0
-3098 -1474 0
-3098 -571 0
-3098 -676 0
-3133 -3147 0
-3133 -1474 0
-3133 -571 0
-3133 -676 0
-3147 -1474 0
-3147 -571 0
-3147 -676 0
-1474 -571 0
-1474 -676 0
-571 -676 0
3057 3099 3134 3148 1475 572 677 0
-3057 -3099 0
-3057 -3134 0
-3057 -3148 0
-3057 -1475 0
-3057 -572 0
-3057 -677 0
-3099 -3134 0
-3099 -3148 0
-3099 -1475 0
-3099 -572 0
-3099 -677 0
-3134 -3148 0
-3134 -1475 0
-3134 -572 0
-3134 -677 0
-3148 -1475 0
-3148 -572 0
-3148 -677 0
-1475 -572 0
-1475 -677 0
-572 -677 0
3058 3100 3135 3142 1539 573 678 0
-3058 -3100 0
-3058 -3135 0
-3058 -3142 0
-3058 -1539 0
-3058 -573 0
-3058 -678 0
-3100 -3135 0
-3100 -3142 0
-3100 -1539 0
-3100 -573 0
-3100 -678 0
-3135 -3142 0
-3135 -1539 0
-3135 -573 0
-3135 -678 0
-3142 -1539 0
-3142 -573 0
-3142 -678 0
-1539 -573 0
-1539 -678 0
-573 -678 0
3059 3101 3136 3143 1540 574 679 0
-3059 -3101 0
-3059 -3136 0
-3059 -3143 0
-3059 -1540 0
-3059 -574 0
-3059 -679 0
-3101 -3136 0
-3101 -3143 0
-3101 -1540 0
-3101 -574 0
-3101 -679 0
-3136 -3143 0
-3136 -1540 0
-3136 -574 0
-3136 -679 0
-3143 -1540 0
-3143 -574 0
-3143 -679 0
-1540 -574 0
-1540 -679 0
-574 -679 0
3060 3102 3137 3144 1541 575 680 0
-3060 -3102 0
-3060 -3137 0
-3060 -3144 0
-3060 -1541 0
-3060 -575 0
-3060 -680 0
-3102 -3137 0
-3102 -3144 0
-3102 -1541 0
-3102 -575 0
-3102 -680 0
-3137 -3144 0
-3137 -1541 0
-3137 -575 0
-3137 -680 0
-3144 -1541 0
-3144 -575 0
-3144 -680 0
-1541 -575 0
-1541 -680 0
-575 -680 0
3061 3103 3138 3145 1542 576 681 0
-3061 -3103 0
-3061 -3138 0
-3061 -3145 0
-3061 -1542 0
-3061 -576 0
-3061 -681 0
-3103 -3138 0
-3103 -3145 0
-3103 -1542 0
-3103 -576 0
-3103 -681 0
-3138 -3145 0
-3138 -1542 0
-3138 -576 0
-3138 -681 0
-3145 -1542 0
-3145 -576 0
-3145 -681 0
-1542 -576 0
-1542 -681 0
-576 -681 0
3062 3104 3139 3146 1543 577 682 0
-3062 -3104 0
-3062 -3139 0
-3062 -3146 0
-3062 -1543 0
-3062 -577 0
-3062 -682 0
-3104 -3139 0
-3104 -3146 0
-3104 -1543 0
-3104 -577 0
-3104 -682 0
-3139 -3146 0
-3139 -1543 0
-3139 -577 0
-3139 -682 0
-3146 -1543 0
-3146 -577 0
-3146 -682 0
-1543 -577 0
-1543 -682 0
-577 -682 0
3063 3105 3140 3147 1544 578 683 0
-3063 -3105 0
-3063 -3140 0
-3063 -3147 0
-3063 -1544 0
-3063 -578 0
-3063 -683 0
-3105 -3140 0
-3105 -3147 0
-3105 -1544 0
-3105 -578 0
-3105 -683 0
-3140 -3147 0
-3140 -1544 0
-3140 -578 0
-3140 -683 0
-3147 -1544 0
-3147 -578 0
-3147 -683 0
-1544 -578 0
-1544 -683 0
-578 -683 0
3064 3106 3141 3148 1545 579 684 0
-3064 -3106 0
-3064 -3141 0
-3064 -3148 0
-3064 -1545 0
-3064 -579 0
-3064 -684 0
-3106 -3141 0
-3106 -3148 0
-3106 -1545 0
-3106 -579 0
-3106 -684 0
-3141 -3148 0
-3141 -1545 0
-3141 -579 0
-3141 -684 0
-3148 -1545 0
-3148 -579 0
-3148 -684 0
-1545 -579 0
-1545 -684 0
-579 -684 0
3065 3107 3128 3149 1609 580 685 0
-3065 -3107 0
-3065 -3128 0
-3065 -3149 0
-3065 -1609 0
-3065 -580 0
-3065 -685 0
-3107 -3128 0
-3107 -3149 0
-3107 -1609 0
-3107 -580 0
-3107 -685 0
-3128 -3149 0
-3128 -1609 0
-3128 -580 0
-3128 -685 0
-3149 -1609 0
-3149 -580 0
-3149 -685 0
-1609 -580 0
-1609 -685 0
-580 -685 0
3066 3108 3129 3150 1610 581 686 0
-3066 -3108 0
-3066 -3129 0
-3066 -3150 0
-3066 -1610 0
-3066 -581 0
-3066 -686 0
-3108 -3129 0
-3108 -3150 0
-3108 -1610 0
-3108 -581 0
-3108 -686 0
-3129 -3150 0
-3129 -1610 0
-3129 -581 0
-3129 -686 0
-3150 -1610 0
-3150 -581 0
-3150 -686 0
-1610 -581 0
-1610 -686 0
-581 -686 0
3067 3109 3130 3151 1611 582 687 0
-3067 -3109 0
-3067 -3130 0
-3067 -3151 0
-3067 -1611 0
-3067 -582 0
-3067 -687 0
-3109 -3130 0
-3109 -3151 0
-3109 -1611 0
-3109 -582 0
-3109 -687 0
-3130 -3151 0
-3130 -1611 0
-3130 -582 0
-3130 -687 0
-3151 -1611 0
-3151 -582 0
-3151 -687 0
-1611 -582 0
-1611 -687 0
-582 -687 0
3068 3110 3131 3152 1612 583 688 0
-3068 -3110 0
-3068 -3131 0
-3068 -3152 0
-3068 -1612 0
-3068 -583 0
-3068 -688 0
-3110 -3131 0
-3110 -3152 0
-3110 -1612 0
-3110 -583 0
-3110 -688 0
-3131 -3152 0
-3131 -1612 0
-3131 -583 0
-3131 -688 0
-3152 -1612 0
-3152 -583 0
-3152 -688 0
-1612 -583 0
-1612 -688 0
-583 -688 0
3069 3111 3132 3153 1613 584 689 0
-3069 -3111 0
-3069 -3132 0
-3069 -3153 0
-3069 -1613 0
-3069 -584 0
-3069 -689 0
-3111 -3132 0
-3111 -3153 0
-3111 -1613 0
-3111 -584 0
-3111 -689 0
-3132 -3153 0
-3132 -1613 0
-3132 -584 0
-3132 -689 0
-3153 -1613 0
-3153 -584 0
-3153 -689 0
-1613 -584 0
-1613 -689 0
-584 -689 0
3070 3112 3133 3154 1614 585 690 0
-3070 -3112 0
-3070 -3133 0
-3070 -3154 0
-3070 -1614 0
-3070 -585 0
-3070 -690 0
-3112 -3133 0
-3112 -3154 0
-3112 -1614 0
-3112 -585 0
-3112 -690 0
-3133 -3154 0
-3133 -1614 0
-3133 -585 0
-3133 -690 0
-3154 -1614 0
-3154 -585 0
-3154 -690 0
-1614 -585 0
-1614 -690 0
-585 -690 0
3071 3113 3134 3155 1615 586 691 0
-3071 -3113 0
-3071 -3134 0
-3071 -3155 0
-3071 -1615 0
-3071 -586 0
-3071 -691 0
-3113 -3134 0
-3113 -3155 0
-3113 -1615 0
-3113 -586 0
-3113 -691 0
-3134 -3155 0
-3134 -1615 0
-3134 -586 0
-3134 -691 0
-3155 -1615 0
-3155 -586 0
-3155 -691 0
-1615 -586 0
-1615 -691 0
-586 -691 0
3072 3114 3135 3149 1679 587 692 0
-3072 -3114 0
-3072 -3135 0
-3072 -3149 0
-3072 -1679 0
-3072 -587 0
-3072 -692 0
-3114 -3135 0
-3114 -3149 0
-3114 -1679 0
-3114 -587 0
-3114 -692 0
-3135 -3149 0
-3135 -1679 0
-3135 -587 0
-3135 -692 0
-3149 -1679 0
-3149 -587 0
-3149 -692 0
-1679 -587 0
-1679 -692 0
-587 -692 0
3073 3115 3136 3150 1680 588 693 0
-3073 -3115 0
-3073 -3136 0
-3073 -3150 0
-3073 -1680 0
-3073 -588 0
-3073 -693 0
-3115 -3136 0
-3115 -3150 0
-3115 -1680 0
-3115 -588 0
-3115 -693 0
-3136 -3150 0
-3136 -1680 0
-3136 -588 0
-3136 -693 0
-3150 -1680 0
-3150 -588 0
-3150 -693 0
-1680 -588 0
-1680 -693 0
-588 -693 0
3074 3116 3137 3151 1681 589 694 0
-3074 -3116 0
-3074 -3137 0
-3074 -3151 0
-3074 -1681 0
-3074 -589 0
-3074 -694 0
-3116 -3137 0
-3116 -3151 0
-3116 -1681 0
-3116 -589 0
-3116 -694 0
-3137 -3151 0
-3137 -1681 0
-3137 -589 0
-3137 -694 0
-3151 -1681 0
-3151 -589 0
-3151 -694 0
-1681 -589 0
-1681 -694 0
-589 -694 0
3075 3117 3138 3152 1682 590 695 0
-3075 -3117 0
-3075 -3138 0
-3075 -3152 0
-3075 -1682 0
-3075 -590 0
-3075 -695 0
-3117 -3138 0
-3117 -3152 0
-3117 -1682 0
-3117 -590 0
-3117 -695 0
-3138 -3152 0
-3138 -1682 0
-3138 -590 0
-3138 -695 0
-3152 -1682 0
-3152 -590 0
-3152 -695 0
-1682 -590 0
-1682 -695 0
-590 -695 0
3076 3118 3139 3153 1683 591 696 0
-3076 -3118 0
-3076 -3139 0
-3076 -3153 0
-3076 -1683 0
-3076 -591 0
-3076 -696 0
-3118 -3139 0
-3118 -3153 0
-3118 -1683 0
-3118 -591 0
-3118 -696 0
-3139 -3153 0
-3139 -1683 0
-3139 -591 0
-3139 -696 0
-3153 -1683 0
-3153 -591 0
-3153 -696 0
-1683 -591 0
-1683 -696 0
-591 -696 0
3077 3119 3140 3154 1684 592 697 0
-3077 -3119 0
-3077 -3140 0
-3077 -3154 0
-3077 -1684 0
-3077 -592 0
-3077 -697 0
-3119 -3140 0
-3119 -3154 0
-3119 -1684 0
-3119 -592 0
-3119 -697 0
-3140 -3154 0
-3140 -1684 0
-3140 -592 0
-3140 -697 0
-3154 -1684 0
-3154 -592 0
-3154 -697 0
-1684 -592 0
-1684 -697 0
-592 -697 0
3078 3120 3141 3155 1685 593 698 0
-3078 -3120 0
-3078 -3141 0
-3078 -3155 0
-3078 -1685 0
-3078 -593 0
-3078 -698 0
-3120 -3141 0
-3120 -3155 0
-3120 -1685 0
-3120 -593 0
-3120 -698 0
-3141 -3155 0
-3141 -1685 0
-3141 -593 0
-3141 -698 0
-3155 -1685 0
-3155 -593 0
-3155 -698 0
-1685 -593 0
-1685 -698 0
-593 -698 0
3079 3121 3142 3149 1749 594 699 0
-3079 -3121 0
-3079 -3142 0
-3079 -3149 0
-3079 -1749 0
-3079 -594 0
-3079 -699 0
-3121 -3142 0
-3121 -3149 0
-3121 -1749 0
-3121 -594 0
-3121 -699 0
-3142 -3149 0
-3142 -1749 0
-3142 -594 0
-3142 -699 0
-3149 -1749 0
-3149 -594 0
-3149 -699 0
-1749 -594 0
-1749 -699 0
-594 -699 0
3080 3122 3143 3150 1750 595 700 0
-3080 -3122 0
-3080 -3143 0
-3080 -3150 0
-3080 -1750 0
-3080 -595 0
-3080 -700 0
-3122 -3143 0
-3122 -3150 0
-3122 -1750 0
-3122 -595 0
-3122 -700 0
-3143 -3150 0
-3143 -1750 0
-3143 -595 0
-3143 -700 0
-3150 -1750 0
-3150 -595 0
-3150 -700 0
-1750 -595 0
-1750 -700 0
-595 -700 0
3081 3123 3144 3151 1751 596 701 0
-3081 -3123 0
-3081 -3144 0
-3081 -3151 0
-3081 -1751 0
-3081 -596 0
-3081 -701 0
-3123 -3144 0
-3123 -3151 0
-3123 -1751 0
-3123 -596 0
-3123 -701 0
-3144 -3151 0
-3144 -1751 0
-3144 -596 0
-3144 -701 0
-3151 -1751 0
-3151 -596 0
-3151 -701 0
-1751 -596 0
-1751 -701 0
-596 -701 0
3082 3124 3145 3152 1752 597 702 0
-3082 -3124 0
-3082 -3145 0
-3082 -3152 0
-3082 -1752 0
-3082 -597 0
-3082 -702 0
-3124 -3145 0
-3124 -3152 0
-3124 -1752 0
-3124 -597 0
-3124 -702 0
-3145 -3152 0
-3145 -1752 0
-3145 -597 0
-3145 -702 0
-3152 -1752 0
-3152 -597 0
-3152 -702 0
-1752 -597 0
-1752 -702 0
-597 -702 0
3083 3125 3146 3153 1753 598 703 0
-3083 -3125 0
-3083 -3146 0
-3083 -3153 0
-3083 -1753 0
-3083 -598 0
-3083 -703 0
-3125 -3146 0
-3125 -3153 0
-3125 -1753 0
-3125 -598 0
-3125 -703 0
-3146 -3153 0
-3146 -1753 0
-3146 -598 0
-3146 -703 0
-3153 -1753 0
-3153 -598 0
-3153 -703 0
-1753 -598 0
-1753 -703 0
-598 -703 0
3084 3126 3147 3154 1754 599 704 0
-3084 -3126 0
-3084 -3147 0
-3084 -3154 0
-3084 -1754 0
-3084 -599 0
-3084 -704 0
-3126 -3147 0
-3126 -3154 0
-3126 -1754 0
-3126 -599 0
-3126 -704 0
-3147 -3154 0
-3147 -1754 0
-3147 -599 0
-3147 -704 0
-3154 -1754 0
-3154 -599 0
-3154 -704 0
-1754 -599 0
-1754 -704 0
-599 -704 0
3085 3127 3148 3155 1755 600 705 0
-3085 -3127 0
-3085 -3148 0
-3085 -3155 0
-3085 -1755 0
-3085 -600 0
-3085 -705 0
-3127 -3148 0
-3127 -3155 0
-3127 -1755 0
-3127 -600 0
-3127 -705 0
-3148 -3155 0
-3148 -1755 0
-3148 -600 0
-3148 -705 0
-3155 -1755 0
-3155 -600 0
-3155 -705 0
-1755 -600 0
-1755 -705 0
-600 -705 0
