p cnf 1016 17046
1 2 3 4 5 6 7 0
-1 -2 0
-1 -3 0
-1 -4 0
-1 -5 0
-1 -6 0
-1 -7 0
-2 -3 0
-2 -4 0
-2 -5 0
-2 -6 0
-2 -7 0
-3 -4 0
-3 -5 0
-3 -6 0
-3 -7 0
-4 -5 0
-4 -6 0
-4 -7 0
-5 -6 0
-5 -7 0
-6 -7 0
8 9 10 11 12 13 0
-8 -9 0
-8 -10 0
-8 -11 0
-8 -12 0
-8 -13 0
-9 -10 0
-9 -11 0
-9 -12 0
-9 -13 0
-10 -11 0
-10 -12 0
-10 -13 0
-11 -12 0
-11 -13 0
-12 -13 0
14 15 16 17 18 19 20 0
-14 -15 0
-14 -16 0
-14 -17 0
-14 -18 0
-14 -19 0
-14 -20 0
-15 -16 0
-15 -17 0
-15 -18 0
-15 -19 0
-15 -20 0
-16 -17 0
-16 -18 0
-16 -19 0
-16 -20 0
-17 -18 0
-17 -19 0
-17 -20 0
-18 -19 0
-18 -20 0
-19 -20 0
21 22 23 24 25 26 27 28 29 0
-21 -22 0
-21 -23 0
-21 -24 0
-21 -25 0
-21 -26 0
-21 -27 0
-21 -28 0
-21 -29 0
-22 -23 0
-22 -24 0
-22 -25 0
-22 -26 0
-22 -27 0
-22 -28 0
-22 -29 0
-23 -24 0
-23 -25 0
-23 -26 0
-23 -27 0
-23 -28 0
-23 -29 0
-24 -25 0
-24 -26 0
-24 -27 0
-24 -28 0
-24 -29 0
-25 -26 0
-25 -27 0
-25 -28 0
-25 -29 0
-26 -27 0
-26 -28 0
-26 -29 0
-27 -28 0
-27 -29 0
-28 -29 0
30 31 32 33 34 35 36 0
-30 -31 0
-30 -32 0
-30 -33 0
-30 -34 0
-30 -35 0
-30 -36 0
-31 -32 0
-31 -33 0
-31 -34 0
-31 -35 0
-31 -36 0
-32 -33 0
-32 -34 0
-32 -35 0
-32 -36 0
-33 -34 0
-33 -35 0
-33 -36 0
-34 -35 0
-34 -36 0
-35 -36 0
37 38 39 40 41 42 43 0
-37 -38 0
-37 -39 0
-37 -40 0
-37 -41 0
-37 -42 0
-37 -43 0
-38 -39 0
-38 -40 0
-38 -41 0
-38 -42 0
-38 -43 0
-39 -40 0
-39 -41 0
-39 -42 0
-39 -43 0
-40 -41 0
-40 -42 0
-40 -43 0
-41 -42 0
-41 -43 0
-42 -43 0
44 45 46 47 48 49 50 51 0
-44 -45 0
-44 -46 0
-44 -47 0
-44 -48 0
-44 -49 0
-44 -50 0
-44 -51 0
-45 -46 0
-45 -47 0
-45 -48 0
-45 -49 0
-45 -50 0
-45 -51 0
-46 -47 0
-46 -48 0
-46 -49 0
-46 -50 0
-46 -51 0
-47 -48 0
-47 -49 0
-47 -50 0
-47 -51 0
-48 -49 0
-48 -50 0
-48 -51 0
-49 -50 0
-49 -51 0
-50 -51 0
52 53 54 55 56 57 0
-52 -53 0
-52 -54 0
-52 -55 0
-52 -56 0
-52 -57 0
-53 -54 0
-53 -55 0
-53 -56 0
-53 -57 0
-54 -55 0
-54 -56 0
-54 -57 0
-55 -56 0
-55 -57 0
-56 -57 0
58 59 60 61 62 63 64 65 0
-58 -59 0
-58 -60 0
-58 -61 0
-58 -62 0
-58 -63 0
-58 -64 0
-58 -65 0
-59 -60 0
-59 -61 0
-59 -62 0
-59 -63 0
-59 -64 0
-59 -65 0
-60 -61 0
-60 -62 0
-60 -63 0
-60 -64 0
-60 -65 0
-61 -62 0
-61 -63 0
-61 -64 0
-61 -65 0
-62 -63 0
-62 -64 0
-62 -65 0
-63 -64 0
-63 -65 0
-64 -65 0
66 67 68 69 70 71 0
-66 -67 0
-66 -68 0
-66 -69 0
-66 -70 0
-66 -71 0
-67 -68 0
-67 -69 0
-67 -70 0
-67 -71 0
-68 -69 0
-68 -70 0
-68 -71 0
-69 -70 0
-69 -71 0
-70 -71 0
72 73 74 75 76 77 78 0
-72 -73 0
-72 -74 0
-72 -75 0
-72 -76 0
-72 -77 0
-72 -78 0
-73 -74 0
-73 -75 0
-73 -76 0
-73 -77 0
-73 -78 0
-74 -75 0
-74 -76 0
-74 -77 0
-74 -78 0
-75 -76 0
-75 -77 0
-75 -78 0
-76 -77 0
-76 -78 0
-77 -78 0
79 80 81 82 83 84 85 0
-79 -80 0
-79 -81 0
-79 -82 0
-79 -83 0
-79 -84 0
-79 -85 0
-80 -81 0
-80 -82 0
-80 -83 0
-80 -84 0
-80 -85 0
-81 -82 0
-81 -83 0
-81 -84 0
-81 -85 0
-82 -83 0
-82 -84 0
-82 -85 0
-83 -84 0
-83 -85 0
-84 -85 0
86 87 88 89 90 91 0
-86 -87 0
-86 -88 0
-86 -89 0
-86 -90 0
-86 -91 0
-87 -88 0
-87 -89 0
-87 -90 0
-87 -91 0
-88 -89 0
-88 -90 0
-88 -91 0
-89 -90 0
-89 -91 0
-90 -91 0
92 93 94 95 96 97 98 99 100 0
-92 -93 0
-92 -94 0
-92 -95 0
-92 -96 0
-92 -97 0
-92 -98 0
-92 -99 0
-92 -100 0
-93 -94 0
-93 -95 0
-93 -96 0
-93 -97 0
-93 -98 0
-93 -99 0
-93 -100 0
-94 -95 0
-94 -96 0
-94 -97 0
-94 -98 0
-94 -99 0
-94 -100 0
-95 -96 0
-95 -97 0
-95 -98 0
-95 -99 0
-95 -100 0
-96 -97 0
-96 -98 0
-96 -99 0
-96 -100 0
-97 -98 0
-97 -99 0
-97 -100 0
-98 -99 0
-98 -100 0
-99 -100 0
101 102 103 104 105 106 107 0
-101 -102 0
-101 -103 0
-101 -104 0
-101 -105 0
-101 -106 0
-101 -107 0
-102 -103 0
-102 -104 0
-102 -105 0
-102 -106 0
-102 -107 0
-103 -104 0
-103 -105 0
-103 -106 0
-103 -107 0
-104 -105 0
-104 -106 0
-104 -107 0
-105 -106 0
-105 -107 0
-106 -107 0
108 109 110 111 112 113 0
-108 -109 0
-108 -110 0
-108 -111 0
-108 -112 0
-108 -113 0
-109 -110 0
-109 -111 0
-109 -112 0
-109 -113 0
-110 -111 0
-110 -112 0
-110 -113 0
-111 -112 0
-111 -113 0
-112 -113 0
114 115 116 117 118 119 0
-114 -115 0
-114 -116 0
-114 -117 0
-114 -118 0
-114 -119 0
-115 -116 0
-115 -117 0
-115 -118 0
-115 -119 0
-116 -117 0
-116 -118 0
-116 -119 0
-117 -118 0
-117 -119 0
-118 -119 0
120 121 122 123 124 125 126 127 0
-120 -121 0
-120 -122 0
-120 -123 0
-120 -124 0
-120 -125 0
-120 -126 0
-120 -127 0
-121 -122 0
-121 -123 0
-121 -124 0
-121 -125 0
-121 -126 0
-121 -127 0
-122 -123 0
-122 -124 0
-122 -125 0
-122 -126 0
-122 -127 0
-123 -124 0
-123 -125 0
-123 -126 0
-123 -127 0
-124 -125 0
-124 -126 0
-124 -127 0
-125 -126 0
-125 -127 0
-126 -127 0
128 129 130 131 132 133 134 135 136 0
-128 -129 0
-128 -130 0
-128 -131 0
-128 -132 0
-128 -133 0
-128 -134 0
-128 -135 0
-128 -136 0
-129 -130 0
-129 -131 0
-129 -132 0
-129 -133 0
-129 -134 0
-129 -135 0
-129 -136 0
-130 -131 0
-130 -132 0
-130 -133 0
-130 -134 0
-130 -135 0
-130 -136 0
-131 -132 0
-131 -133 0
-131 -134 0
-131 -135 0
-131 -136 0
-132 -133 0
-132 -134 0
-132 -135 0
-132 -136 0
-133 -134 0
-133 -135 0
-133 -136 0
-134 -135 0
-134 -136 0
-135 -136 0
137 138 139 140 141 142 143 0
-137 -138 0
-137 -139 0
-137 -140 0
-137 -141 0
-137 -142 0
-137 -143 0
-138 -139 0
-138 -140 0
-138 -141 0
-138 -142 0
-138 -143 0
-139 -140 0
-139 -141 0
-139 -142 0
-139 -143 0
-140 -141 0
-140 -142 0
-140 -143 0
-141 -142 0
-141 -143 0
-142 -143 0
144 145 146 147 148 149 0
-144 -145 0
-144 -146 0
-144 -147 0
-144 -148 0
-144 -149 0
-145 -146 0
-145 -147 0
-145 -148 0
-145 -149 0
-146 -147 0
-146 -148 0
-146 -149 0
-147 -148 0
-147 -149 0
-148 -149 0
150 151 152 153 154 155 156 157 0
-150 -151 0
-150 -152 0
-150 -153 0
-150 -154 0
-150 -155 0
-150 -156 0
-150 -157 0
-151 -152 0
-151 -153 0
-151 -154 0
-151 -155 0
-151 -156 0
-151 -157 0
-152 -153 0
-152 -154 0
-152 -155 0
-152 -156 0
-152 -157 0
-153 -154 0
-153 -155 0
-153 -156 0
-153 -157 0
-154 -155 0
-154 -156 0
-154 -157 0
-155 -156 0
-155 -157 0
-156 -157 0
158 159 160 161 162 163 164 0
-158 -159 0
-158 -160 0
-158 -161 0
-158 -162 0
-158 -163 0
-158 -164 0
-159 -160 0
-159 -161 0
-159 -162 0
-159 -163 0
-159 -164 0
-160 -161 0
-160 -162 0
-160 -163 0
-160 -164 0
-161 -162 0
-161 -163 0
-161 -164 0
-162 -163 0
-162 -164 0
-163 -164 0
165 166 167 168 169 170 171 0
-165 -166 0
-165 -167 0
-165 -168 0
-165 -169 0
-165 -170 0
-165 -171 0
-166 -167 0
-166 -168 0
-166 -169 0
-166 -170 0
-166 -171 0
-167 -168 0
-167 -169 0
-167 -170 0
-167 -171 0
-168 -169 0
-168 -170 0
-168 -171 0
-169 -170 0
-169 -171 0
-170 -171 0
172 173 174 175 176 177 178 179 0
-172 -173 0
-172 -174 0
-172 -175 0
-172 -176 0
-172 -177 0
-172 -178 0
-172 -179 0
-173 -174 0
-173 -175 0
-173 -176 0
-173 -177 0
-173 -178 0
-173 -179 0
-174 -175 0
-174 -176 0
-174 -177 0
-174 -178 0
-174 -179 0
-175 -176 0
-175 -177 0
-175 -178 0
-175 -179 0
-176 -177 0
-176 -178 0
-176 -179 0
-177 -178 0
-177 -179 0
-178 -179 0
180 181 182 183 184 185 186 187 0
-180 -181 0
-180 -182 0
-180 -183 0
-180 -184 0
-180 -185 0
-180 -186 0
-180 -187 0
-181 -182 0
-181 -183 0
-181 -184 0
-181 -185 0
-181 -186 0
-181 -187 0
-182 -183 0
-182 -184 0
-182 -185 0
-182 -186 0
-182 -187 0
-183 -184 0
-183 -185 0
-183 -186 0
-183 -187 0
-184 -185 0
-184 -186 0
-184 -187 0
-185 -186 0
-185 -187 0
-186 -187 0
188 189 190 191 192 193 194 0
-188 -189 0
-188 -190 0
-188 -191 0
-188 -192 0
-188 -193 0
-188 -194 0
-189 -190 0
-189 -191 0
-189 -192 0
-189 -193 0
-189 -194 0
-190 -191 0
-190 -192 0
-190 -193 0
-190 -194 0
-191 -192 0
-191 -193 0
-191 -194 0
-192 -193 0
-192 -194 0
-193 -194 0
195 196 197 198 199 200 201 0
-195 -196 0
-195 -197 0
-195 -198 0
-195 -199 0
-195 -200 0
-195 -201 0
-196 -197 0
-196 -198 0
-196 -199 0
-196 -200 0
-196 -201 0
-197 -198 0
-197 -199 0
-197 -200 0
-197 -201 0
-198 -199 0
-198 -200 0
-198 -201 0
-199 -200 0
-199 -201 0
-200 -201 0
202 203 204 205 206 207 0
-202 -203 0
-202 -204 0
-202 -205 0
-202 -206 0
-202 -207 0
-203 -204 0
-203 -205 0
-203 -206 0
-203 -207 0
-204 -205 0
-204 -206 0
-204 -207 0
-205 -206 0
-205 -207 0
-206 -207 0
208 209 210 211 212 213 214 215 216 0
-208 -209 0
-208 -210 0
-208 -211 0
-208 -212 0
-208 -213 0
-208 -214 0
-208 -215 0
-208 -216 0
-209 -210 0
-209 -211 0
-209 -212 0
-209 -213 0
-209 -214 0
-209 -215 0
-209 -216 0
-210 -211 0
-210 -212 0
-210 -213 0
-210 -214 0
-210 -215 0
-210 -216 0
-211 -212 0
-211 -213 0
-211 -214 0
-211 -215 0
-211 -216 0
-212 -213 0
-212 -214 0
-212 -215 0
-212 -216 0
-213 -214 0
-213 -215 0
-213 -216 0
-214 -215 0
-214 -216 0
-215 -216 0
217 218 219 220 221 222 223 224 0
-217 -218 0
-217 -219 0
-217 -220 0
-217 -221 0
-217 -222 0
-217 -223 0
-217 -224 0
-218 -219 0
-218 -220 0
-218 -221 0
-218 -222 0
-218 -223 0
-218 -224 0
-219 -220 0
-219 -221 0
-219 -222 0
-219 -223 0
-219 -224 0
-220 -221 0
-220 -222 0
-220 -223 0
-220 -224 0
-221 -222 0
-221 -223 0
-221 -224 0
-222 -223 0
-222 -224 0
-223 -224 0
225 226 227 228 229 230 0
-225 -226 0
-225 -227 0
-225 -228 0
-225 -229 0
-225 -230 0
-226 -227 0
-226 -228 0
-226 -229 0
-226 -230 0
-227 -228 0
-227 -229 0
-227 -230 0
-228 -229 0
-228 -230 0
-229 -230 0
231 232 233 234 235 236 237 238 0
-231 -232 0
-231 -233 0
-231 -234 0
-231 -235 0
-231 -236 0
-231 -237 0
-231 -238 0
-232 -233 0
-232 -234 0
-232 -235 0
-232 -236 0
-232 -237 0
-232 -238 0
-233 -234 0
-233 -235 0
-233 -236 0
-233 -237 0
-233 -238 0
-234 -235 0
-234 -236 0
-234 -237 0
-234 -238 0
-235 -236 0
-235 -237 0
-235 -238 0
-236 -237 0
-236 -238 0
-237 -238 0
239 240 241 242 243 244 245 0
-239 -240 0
-239 -241 0
-239 -242 0
-239 -243 0
-239 -244 0
-239 -245 0
-240 -241 0
-240 -242 0
-240 -243 0
-240 -244 0
-240 -245 0
-241 -242 0
-241 -243 0
-241 -244 0
-241 -245 0
-242 -243 0
-242 -244 0
-242 -245 0
-243 -244 0
-243 -245 0
-244 -245 0
246 247 248 249 250 251 252 253 0
-246 -247 0
-246 -248 0
-246 -249 0
-246 -250 0
-246 -251 0
-246 -252 0
-246 -253 0
-247 -248 0
-247 -249 0
-247 -250 0
-247 -251 0
-247 -252 0
-247 -253 0
-248 -249 0
-248 -250 0
-248 -251 0
-248 -252 0
-248 -253 0
-249 -250 0
-249 -251 0
-249 -252 0
-249 -253 0
-250 -251 0
-250 -252 0
-250 -253 0
-251 -252 0
-251 -253 0
-252 -253 0
254 255 256 257 258 259 260 0
-254 -255 0
-254 -256 0
-254 -257 0
-254 -258 0
-254 -259 0
-254 -260 0
-255 -256 0
-255 -257 0
-255 -258 0
-255 -259 0
-255 -260 0
-256 -257 0
-256 -258 0
-256 -259 0
-256 -260 0
-257 -258 0
-257 -259 0
-257 -260 0
-258 -259 0
-258 -260 0
-259 -260 0
261 262 263 264 265 266 267 0
-261 -262 0
-261 -263 0
-261 -264 0
-261 -265 0
-261 -266 0
-261 -267 0
-262 -263 0
-262 -264 0
-262 -265 0
-262 -266 0
-262 -267 0
-263 -264 0
-263 -265 0
-263 -266 0
-263 -267 0
-264 -265 0
-264 -266 0
-264 -267 0
-265 -266 0
-265 -267 0
-266 -267 0
268 269 270 271 272 273 0
-268 -269 0
-268 -270 0
-268 -271 0
-268 -272 0
-268 -273 0
-269 -270 0
-269 -271 0
-269 -272 0
-269 -273 0
-270 -271 0
-270 -272 0
-270 -273 0
-271 -272 0
-271 -273 0
-272 -273 0
274 275 276 277 278 279 280 0
-274 -275 0
-274 -276 0
-274 -277 0
-274 -278 0
-274 -279 0
-274 -280 0
-275 -276 0
-275 -277 0
-275 -278 0
-275 -279 0
-275 -280 0
-276 -277 0
-276 -278 0
-276 -279 0
-276 -280 0
-277 -278 0
-277 -279 0
-277 -280 0
-278 -279 0
-278 -280 0
-279 -280 0
281 282 283 284 285 286 0
-281 -282 0
-281 -283 0
-281 -284 0
-281 -285 0
-281 -286 0
-282 -283 0
-282 -284 0
-282 -285 0
-282 -286 0
-283 -284 0
-283 -285 0
-283 -286 0
-284 -285 0
-284 -286 0
-285 -286 0
287 288 289 290 291 292 293 0
-287 -288 0
-287 -289 0
-287 -290 0
-287 -291 0
-287 -292 0
-287 -293 0
-288 -289 0
-288 -290 0
-288 -291 0
-288 -292 0
-288 -293 0
-289 -290 0
-289 -291 0
-289 -292 0
-289 -293 0
-290 -291 0
-290 -292 0
-290 -293 0
-291 -292 0
-291 -293 0
-292 -293 0
294 295 296 297 298 299 300 301 302 0
-294 -295 0
-294 -296 0
-294 -297 0
-294 -298 0
-294 -299 0
-294 -300 0
-294 -301 0
-294 -302 0
-295 -296 0
-295 -297 0
-295 -298 0
-295 -299 0
-295 -300 0
-295 -301 0
-295 -302 0
-296 -297 0
-296 -298 0
-296 -299 0
-296 -300 0
-296 -301 0
-296 -302 0
-297 -298 0
-297 -299 0
-297 -300 0
-297 -301 0
-297 -302 0
-298 -299 0
-298 -300 0
-298 -301 0
-298 -302 0
-299 -300 0
-299 -301 0
-299 -302 0
-300 -301 0
-300 -302 0
-301 -302 0
303 304 305 306 307 308 309 0
-303 -304 0
-303 -305 0
-303 -306 0
-303 -307 0
-303 -308 0
-303 -309 0
-304 -305 0
-304 -306 0
-304 -307 0
-304 -308 0
-304 -309 0
-305 -306 0
-305 -307 0
-305 -308 0
-305 -309 0
-306 -307 0
-306 -308 0
-306 -309 0
-307 -308 0
-307 -309 0
-308 -309 0
310 311 312 313 314 315 316 0
-310 -311 0
-310 -312 0
-310 -313 0
-310 -314 0
-310 -315 0
-310 -316 0
-311 -312 0
-311 -313 0
-311 -314 0
-311 -315 0
-311 -316 0
-312 -313 0
-312 -314 0
-312 -315 0
-312 -316 0
-313 -314 0
-313 -315 0
-313 -316 0
-314 -315 0
-314 -316 0
-315 -316 0
317 318 319 320 321 322 323 324 325 0
-317 -318 0
-317 -319 0
-317 -320 0
-317 -321 0
-317 -322 0
-317 -323 0
-317 -324 0
-317 -325 0
-318 -319 0
-318 -320 0
-318 -321 0
-318 -322 0
-318 -323 0
-318 -324 0
-318 -325 0
-319 -320 0
-319 -321 0
-319 -322 0
-319 -323 0
-319 -324 0
-319 -325 0
-320 -321 0
-320 -322 0
-320 -323 0
-320 -324 0
-320 -325 0
-321 -322 0
-321 -323 0
-321 -324 0
-321 -325 0
-322 -323 0
-322 -324 0
-322 -325 0
-323 -324 0
-323 -325 0
-324 -325 0
326 327 328 329 330 331 332 333 0
-326 -327 0
-326 -328 0
-326 -329 0
-326 -330 0
-326 -331 0
-326 -332 0
-326 -333 0
-327 -328 0
-327 -329 0
-327 -330 0
-327 -331 0
-327 -332 0
-327 -333 0
-328 -329 0
-328 -330 0
-328 -331 0
-328 -332 0
-328 -333 0
-329 -330 0
-329 -331 0
-329 -332 0
-329 -333 0
-330 -331 0
-330 -332 0
-330 -333 0
-331 -332 0
-331 -333 0
-332 -333 0
334 335 336 337 338 339 340 341 0
-334 -335 0
-334 -336 0
-334 -337 0
-334 -338 0
-334 -339 0
-334 -340 0
-334 -341 0
-335 -336 0
-335 -337 0
-335 -338 0
-335 -339 0
-335 -340 0
-335 -341 0
-336 -337 0
-336 -338 0
-336 -339 0
-336 -340 0
-336 -341 0
-337 -338 0
-337 -339 0
-337 -340 0
-337 -341 0
-338 -339 0
-338 -340 0
-338 -341 0
-339 -340 0
-339 -341 0
-340 -341 0
342 343 344 345 346 347 348 0
-342 -343 0
-342 -344 0
-342 -345 0
-342 -346 0
-342 -347 0
-342 -348 0
-343 -344 0
-343 -345 0
-343 -346 0
-343 -347 0
-343 -348 0
-344 -345 0
-344 -346 0
-344 -347 0
-344 -348 0
-345 -346 0
-345 -347 0
-345 -348 0
-346 -347 0
-346 -348 0
-347 -348 0
349 350 351 352 353 354 355 356 0
-349 -350 0
-349 -351 0
-349 -352 0
-349 -353 0
-349 -354 0
-349 -355 0
-349 -356 0
-350 -351 0
-350 -352 0
-350 -353 0
-350 -354 0
-350 -355 0
-350 -356 0
-351 -352 0
-351 -353 0
-351 -354 0
-351 -355 0
-351 -356 0
-352 -353 0
-352 -354 0
-352 -355 0
-352 -356 0
-353 -354 0
-353 -355 0
-353 -356 0
-354 -355 0
-354 -356 0
-355 -356 0
357 358 359 360 361 362 363 0
-357 -358 0
-357 -359 0
-357 -360 0
-357 -361 0
-357 -362 0
-357 -363 0
-358 -359 0
-358 -360 0
-358 -361 0
-358 -362 0
-358 -363 0
-359 -360 0
-359 -361 0
-359 -362 0
-359 -363 0
-360 -361 0
-360 -362 0
-360 -363 0
-361 -362 0
-361 -363 0
-362 -363 0
364 365 366 367 368 369 370 0
-364 -365 0
-364 -366 0
-364 -367 0
-364 -368 0
-364 -369 0
-364 -370 0
-365 -366 0
-365 -367 0
-365 -368 0
-365 -369 0
-365 -370 0
-366 -367 0
-366 -368 0
-366 -369 0
-366 -370 0
-367 -368 0
-367 -369 0
-367 -370 0
-368 -369 0
-368 -370 0
-369 -370 0
371 372 373 374 375 376 377 378 0
-371 -372 0
-371 -373 0
-371 -374 0
-371 -375 0
-371 -376 0
-371 -377 0
-371 -378 0
-372 -373 0
-372 -374 0
-372 -375 0
-372 -376 0
-372 -377 0
-372 -378 0
-373 -374 0
-373 -375 0
-373 -376 0
-373 -377 0
-373 -378 0
-374 -375 0
-374 -376 0
-374 -377 0
-374 -378 0
-375 -376 0
-375 -377 0
-375 -378 0
-376 -377 0
-376 -378 0
-377 -378 0
379 380 381 382 383 384 385 0
-379 -380 0
-379 -381 0
-379 -382 0
-379 -383 0
-379 -384 0
-379 -385 0
-380 -381 0
-380 -382 0
-380 -383 0
-380 -384 0
-380 -385 0
-381 -382 0
-381 -383 0
-381 -384 0
-381 -385 0
-382 -383 0
-382 -384 0
-382 -385 0
-383 -384 0
-383 -385 0
-384 -385 0
386 387 388 389 390 391 392 393 394 0
-386 -387 0
-386 -388 0
-386 -389 0
-386 -390 0
-386 -391 0
-386 -392 0
-386 -393 0
-386 -394 0
-387 -388 0
-387 -389 0
-387 -390 0
-387 -391 0
-387 -392 0
-387 -393 0
-387 -394 0
-388 -389 0
-388 -390 0
-388 -391 0
-388 -392 0
-388 -393 0
-388 -394 0
-389 -390 0
-389 -391 0
-389 -392 0
-389 -393 0
-389 -394 0
-390 -391 0
-390 -392 0
-390 -393 0
-390 -394 0
-391 -392 0
-391 -393 0
-391 -394 0
-392 -393 0
-392 -394 0
-393 -394 0
395 396 397 398 399 400 401 0
-395 -396 0
-395 -397 0
-395 -398 0
-395 -399 0
-395 -400 0
-395 -401 0
-396 -397 0
-396 -398 0
-396 -399 0
-396 -400 0
-396 -401 0
-397 -398 0
-397 -399 0
-397 -400 0
-397 -401 0
-398 -399 0
-398 -400 0
-398 -401 0
-399 -400 0
-399 -401 0
-400 -401 0
402 403 404 405 406 407 408 0
-402 -403 0
-402 -404 0
-402 -405 0
-402 -406 0
-402 -407 0
-402 -408 0
-403 -404 0
-403 -405 0
-403 -406 0
-403 -407 0
-403 -408 0
-404 -405 0
-404 -406 0
-404 -407 0
-404 -408 0
-405 -406 0
-405 -407 0
-405 -408 0
-406 -407 0
-406 -408 0
-407 -408 0
409 410 411 412 413 414 415 0
-409 -410 0
-409 -411 0
-409 -412 0
-409 -413 0
-409 -414 0
-409 -415 0
-410 -411 0
-410 -412 0
-410 -413 0
-410 -414 0
-410 -415 0
-411 -412 0
-411 -413 0
-411 -414 0
-411 -415 0
-412 -413 0
-412 -414 0
-412 -415 0
-413 -414 0
-413 -415 0
-414 -415 0
416 417 418 419 420 421 422 423 0
-416 -417 0
-416 -418 0
-416 -419 0
-416 -420 0
-416 -421 0
-416 -422 0
-416 -423 0
-417 -418 0
-417 -419 0
-417 -420 0
-417 -421 0
-417 -422 0
-417 -423 0
-418 -419 0
-418 -420 0
-418 -421 0
-418 -422 0
-418 -423 0
-419 -420 0
-419 -421 0
-419 -422 0
-419 -423 0
-420 -421 0
-420 -422 0
-420 -423 0
-421 -422 0
-421 -423 0
-422 -423 0
424 425 426 427 428 429 430 0
-424 -425 0
-424 -426 0
-424 -427 0
-424 -428 0
-424 -429 0
-424 -430 0
-425 -426 0
-425 -427 0
-425 -428 0
-425 -429 0
-425 -430 0
-426 -427 0
-426 -428 0
-426 -429 0
-426 -430 0
-427 -428 0
-427 -429 0
-427 -430 0
-428 -429 0
-428 -430 0
-429 -430 0
431 432 433 434 435 436 437 0
-431 -432 0
-431 -433 0
-431 -434 0
-431 -435 0
-431 -436 0
-431 -437 0
-432 -433 0
-432 -434 0
-432 -435 0
-432 -436 0
-432 -437 0
-433 -434 0
-433 -435 0
-433 -436 0
-433 -437 0
-434 -435 0
-434 -436 0
-434 -437 0
-435 -436 0
-435 -437 0
-436 -437 0
438 439 440 441 442 443 0
-438 -439 0
-438 -440 0
-438 -441 0
-438 -442 0
-438 -443 0
-439 -440 0
-439 -441 0
-439 -442 0
-439 -443 0
-440 -441 0
-440 -442 0
-440 -443 0
-441 -442 0
-441 -443 0
-442 -443 0
444 445 446 447 448 449 450 451 452 0
-444 -445 0
-444 -446 0
-444 -447 0
-444 -448 0
-444 -449 0
-444 -450 0
-444 -451 0
-444 -452 0
-445 -446 0
-445 -447 0
-445 -448 0
-445 -449 0
-445 -450 0
-445 -451 0
-445 -452 0
-446 -447 0
-446 -448 0
-446 -449 0
-446 -450 0
-446 -451 0
-446 -452 0
-447 -448 0
-447 -449 0
-447 -450 0
-447 -451 0
-447 -452 0
-448 -449 0
-448 -450 0
-448 -451 0
-448 -452 0
-449 -450 0
-449 -451 0
-449 -452 0
-450 -451 0
-450 -452 0
-451 -452 0
453 454 455 456 457 458 459 0
-453 -454 0
-453 -455 0
-453 -456 0
-453 -457 0
-453 -458 0
-453 -459 0
-454 -455 0
-454 -456 0
-454 -457 0
-454 -458 0
-454 -459 0
-455 -456 0
-455 -457 0
-455 -458 0
-455 -459 0
-456 -457 0
-456 -458 0
-456 -459 0
-457 -458 0
-457 -459 0
-458 -459 0
460 461 462 463 464 465 466 0
-460 -461 0
-460 -462 0
-460 -463 0
-460 -464 0
-460 -465 0
-460 -466 0
-461 -462 0
-461 -463 0
-461 -464 0
-461 -465 0
-461 -466 0
-462 -463 0
-462 -464 0
-462 -465 0
-462 -466 0
-463 -464 0
-463 -465 0
-463 -466 0
-464 -465 0
-464 -466 0
-465 -466 0
467 468 469 470 471 472 473 0
-467 -468 0
-467 -469 0
-467 -470 0
-467 -471 0
-467 -472 0
-467 -473 0
-468 -469 0
-468 -470 0
-468 -471 0
-468 -472 0
-468 -473 0
-469 -470 0
-469 -471 0
-469 -472 0
-469 -473 0
-470 -471 0
-470 -472 0
-470 -473 0
-471 -472 0
-471 -473 0
-472 -473 0
474 475 476 477 478 479 480 481 482 0
-474 -475 0
-474 -476 0
-474 -477 0
-474 -478 0
-474 -479 0
-474 -480 0
-474 -481 0
-474 -482 0
-475 -476 0
-475 -477 0
-475 -478 0
-475 -479 0
-475 -480 0
-475 -481 0
-475 -482 0
-476 -477 0
-476 -478 0
-476 -479 0
-476 -480 0
-476 -481 0
-476 -482 0
-477 -478 0
-477 -479 0
-477 -480 0
-477 -481 0
-477 -482 0
-478 -479 0
-478 -480 0
-478 -481 0
-478 -482 0
-479 -480 0
-479 -481 0
-479 -482 0
-480 -481 0
-480 -482 0
-481 -482 0
483 484 485 486 487 488 489 0
-483 -484 0
-483 -485 0
-483 -486 0
-483 -487 0
-483 -488 0
-483 -489 0
-484 -485 0
-484 -486 0
-484 -487 0
-484 -488 0
-484 -489 0
-485 -486 0
-485 -487 0
-485 -488 0
-485 -489 0
-486 -487 0
-486 -488 0
-486 -489 0
-487 -488 0
-487 -489 0
-488 -489 0
490 491 492 493 494 495 496 0
-490 -491 0
-490 -492 0
-490 -493 0
-490 -494 0
-490 -495 0
-490 -496 0
-491 -492 0
-491 -493 0
-491 -494 0
-491 -495 0
-491 -496 0
-492 -493 0
-492 -494 0
-492 -495 0
-492 -496 0
-493 -494 0
-493 -495 0
-493 -496 0
-494 -495 0
-494 -496 0
-495 -496 0
497 498 499 500 501 502 503 0
-497 -498 0
-497 -499 0
-497 -500 0
-497 -501 0
-497 -502 0
-497 -503 0
-498 -499 0
-498 -500 0
-498 -501 0
-498 -502 0
-498 -503 0
-499 -500 0
-499 -501 0
-499 -502 0
-499 -503 0
-500 -501 0
-500 -502 0
-500 -503 0
-501 -502 0
-501 -503 0
-502 -503 0
504 505 506 507 508 0
-504 -505 0
-504 -506 0
-504 -507 0
-504 -508 0
-505 -506 0
-505 -507 0
-505 -508 0
-506 -507 0
-506 -508 0
-507 -508 0
509 510 511 512 513 514 515 516 0
-509 -510 0
-509 -511 0
-509 -512 0
-509 -513 0
-509 -514 0
-509 -515 0
-509 -516 0
-510 -511 0
-510 -512 0
-510 -513 0
-510 -514 0
-510 -515 0
-510 -516 0
-511 -512 0
-511 -513 0
-511 -514 0
-511 -515 0
-511 -516 0
-512 -513 0
-512 -514 0
-512 -515 0
-512 -516 0
-513 -514 0
-513 -515 0
-513 -516 0
-514 -515 0
-514 -516 0
-515 -516 0
517 518 519 520 521 522 0
-517 -518 0
-517 -519 0
-517 -520 0
-517 -521 0
-517 -522 0
-518 -519 0
-518 -520 0
-518 -521 0
-518 -522 0
-519 -520 0
-519 -521 0
-519 -522 0
-520 -521 0
-520 -522 0
-521 -522 0
523 524 525 526 527 528 0
-523 -524 0
-523 -525 0
-523 -526 0
-523 -527 0
-523 -528 0
-524 -525 0
-524 -526 0
-524 -527 0
-524 -528 0
-525 -526 0
-525 -527 0
-525 -528 0
-526 -527 0
-526 -528 0
-527 -528 0
529 530 531 532 533 534 535 0
-529 -530 0
-529 -531 0
-529 -532 0
-529 -533 0
-529 -534 0
-529 -535 0
-530 -531 0
-530 -532 0
-530 -533 0
-530 -534 0
-530 -535 0
-531 -532 0
-531 -533 0
-531 -534 0
-531 -535 0
-532 -533 0
-532 -534 0
-532 -535 0
-533 -534 0
-533 -535 0
-534 -535 0
536 537 538 539 540 541 542 543 544 0
-536 -537 0
-536 -538 0
-536 -539 0
-536 -540 0
-536 -541 0
-536 -542 0
-536 -543 0
-536 -544 0
-537 -538 0
-537 -539 0
-537 -540 0
-537 -541 0
-537 -542 0
-537 -543 0
-537 -544 0
-538 -539 0
-538 -540 0
-538 -541 0
-538 -542 0
-538 -543 0
-538 -544 0
-539 -540 0
-539 -541 0
-539 -542 0
-539 -543 0
-539 -544 0
-540 -541 0
-540 -542 0
-540 -543 0
-540 -544 0
-541 -542 0
-541 -543 0
-541 -544 0
-542 -543 0
-542 -544 0
-543 -544 0
545 546 547 548 549 550 551 0
-545 -546 0
-545 -547 0
-545 -548 0
-545 -549 0
-545 -550 0
-545 -551 0
-546 -547 0
-546 -548 0
-546 -549 0
-546 -550 0
-546 -551 0
-547 -548 0
-547 -549 0
-547 -550 0
-547 -551 0
-548 -549 0
-548 -550 0
-548 -551 0
-549 -550 0
-549 -551 0
-550 -551 0
552 553 554 555 556 557 558 559 0
-552 -553 0
-552 -554 0
-552 -555 0
-552 -556 0
-552 -557 0
-552 -558 0
-552 -559 0
-553 -554 0
-553 -555 0
-553 -556 0
-553 -557 0
-553 -558 0
-553 -559 0
-554 -555 0
-554 -556 0
-554 -557 0
-554 -558 0
-554 -559 0
-555 -556 0
-555 -557 0
-555 -558 0
-555 -559 0
-556 -557 0
-556 -558 0
-556 -559 0
-557 -558 0
-557 -559 0
-558 -559 0
560 561 562 563 564 565 566 567 0
-560 -561 0
-560 -562 0
-560 -563 0
-560 -564 0
-560 -565 0
-560 -566 0
-560 -567 0
-561 -562 0
-561 -563 0
-561 -564 0
-561 -565 0
-561 -566 0
-561 -567 0
-562 -563 0
-562 -564 0
-562 -565 0
-562 -566 0
-562 -567 0
-563 -564 0
-563 -565 0
-563 -566 0
-563 -567 0
-564 -565 0
-564 -566 0
-564 -567 0
-565 -566 0
-565 -567 0
-566 -567 0
568 569 570 571 572 573 574 575 0
-568 -569 0
-568 -570 0
-568 -571 0
-568 -572 0
-568 -573 0
-568 -574 0
-568 -575 0
-569 -570 0
-569 -571 0
-569 -572 0
-569 -573 0
-569 -574 0
-569 -575 0
-570 -571 0
-570 -572 0
-570 -573 0
-570 -574 0
-570 -575 0
-571 -572 0
-571 -573 0
-571 -574 0
-571 -575 0
-572 -573 0
-572 -574 0
-572 -575 0
-573 -574 0
-573 -575 0
-574 -575 0
576 577 578 579 580 581 582 583 0
-576 -577 0
-576 -578 0
-576 -579 0
-576 -580 0
-576 -581 0
-576 -582 0
-576 -583 0
-577 -578 0
-577 -579 0
-577 -580 0
-577 -581 0
-577 -582 0
-577 -583 0
-578 -579 0
-578 -580 0
-578 -581 0
-578 -582 0
-578 -583 0
-579 -580 0
-579 -581 0
-579 -582 0
-579 -583 0
-580 -581 0
-580 -582 0
-580 -583 0
-581 -582 0
-581 -583 0
-582 -583 0
584 585 586 587 588 589 590 591 0
-584 -585 0
-584 -586 0
-584 -587 0
-584 -588 0
-584 -589 0
-584 -590 0
-584 -591 0
-585 -586 0
-585 -587 0
-585 -588 0
-585 -589 0
-585 -590 0
-585 -591 0
-586 -587 0
-586 -588 0
-586 -589 0
-586 -590 0
-586 -591 0
-587 -588 0
-587 -589 0
-587 -590 0
-587 -591 0
-588 -589 0
-588 -590 0
-588 -591 0
-589 -590 0
-589 -591 0
-590 -591 0
592 593 594 595 596 597 598 0
-592 -593 0
-592 -594 0
-592 -595 0
-592 -596 0
-592 -597 0
-592 -598 0
-593 -594 0
-593 -595 0
-593 -596 0
-593 -597 0
-593 -598 0
-594 -595 0
-594 -596 0
-594 -597 0
-594 -598 0
-595 -596 0
-595 -597 0
-595 -598 0
-596 -597 0
-596 -598 0
-597 -598 0
599 600 601 602 603 604 0
-599 -600 0
-599 -601 0
-599 -602 0
-599 -603 0
-599 -604 0
-600 -601 0
-600 -602 0
-600 -603 0
-600 -604 0
-601 -602 0
-601 -603 0
-601 -604 0
-602 -603 0
-602 -604 0
-603 -604 0
605 606 607 608 609 610 0
-605 -606 0
-605 -607 0
-605 -608 0
-605 -609 0
-605 -610 0
-606 -607 0
-606 -608 0
-606 -609 0
-606 -610 0
-607 -608 0
-607 -609 0
-607 -610 0
-608 -609 0
-608 -610 0
-609 -610 0
611 612 613 614 615 616 617 0
-611 -612 0
-611 -613 0
-611 -614 0
-611 -615 0
-611 -616 0
-611 -617 0
-612 -613 0
-612 -614 0
-612 -615 0
-612 -616 0
-612 -617 0
-613 -614 0
-613 -615 0
-613 -616 0
-613 -617 0
-614 -615 0
-614 -616 0
-614 -617 0
-615 -616 0
-615 -617 0
-616 -617 0
618 619 620 621 622 623 624 625 0
-618 -619 0
-618 -620 0
-618 -621 0
-618 -622 0
-618 -623 0
-618 -624 0
-618 -625 0
-619 -620 0
-619 -621 0
-619 -622 0
-619 -623 0
-619 -624 0
-619 -625 0
-620 -621 0
-620 -622 0
-620 -623 0
-620 -624 0
-620 -625 0
-621 -622 0
-621 -623 0
-621 -624 0
-621 -625 0
-622 -623 0
-622 -624 0
-622 -625 0
-623 -624 0
-623 -625 0
-624 -625 0
626 627 628 629 630 631 0
-626 -627 0
-626 -628 0
-626 -629 0
-626 -630 0
-626 -631 0
-627 -628 0
-627 -629 0
-627 -630 0
-627 -631 0
-628 -629 0
-628 -630 0
-628 -631 0
-629 -630 0
-629 -631 0
-630 -631 0
632 633 634 635 636 637 638 639 0
-632 -633 0
-632 -634 0
-632 -635 0
-632 -636 0
-632 -637 0
-632 -638 0
-632 -639 0
-633 -634 0
-633 -635 0
-633 -636 0
-633 -637 0
-633 -638 0
-633 -639 0
-634 -635 0
-634 -636 0
-634 -637 0
-634 -638 0
-634 -639 0
-635 -636 0
-635 -637 0
-635 -638 0
-635 -639 0
-636 -637 0
-636 -638 0
-636 -639 0
-637 -638 0
-637 -639 0
-638 -639 0
640 641 642 643 644 645 0
-640 -641 0
-640 -642 0
-640 -643 0
-640 -644 0
-640 -645 0
-641 -642 0
-641 -643 0
-641 -644 0
-641 -645 0
-642 -643 0
-642 -644 0
-642 -645 0
-643 -644 0
-643 -645 0
-644 -645 0
646 647 648 649 650 651 652 0
-646 -647 0
-646 -648 0
-646 -649 0
-646 -650 0
-646 -651 0
-646 -652 0
-647 -648 0
-647 -649 0
-647 -650 0
-647 -651 0
-647 -652 0
-648 -649 0
-648 -650 0
-648 -651 0
-648 -652 0
-649 -650 0
-649 -651 0
-649 -652 0
-650 -651 0
-650 -652 0
-651 -652 0
653 654 655 656 657 658 659 660 0
-653 -654 0
-653 -655 0
-653 -656 0
-653 -657 0
-653 -658 0
-653 -659 0
-653 -660 0
-654 -655 0
-654 -656 0
-654 -657 0
-654 -658 0
-654 -659 0
-654 -660 0
-655 -656 0
-655 -657 0
-655 -658 0
-655 -659 0
-655 -660 0
-656 -657 0
-656 -658 0
-656 -659 0
-656 -660 0
-657 -658 0
-657 -659 0
-657 -660 0
-658 -659 0
-658 -660 0
-659 -660 0
661 662 663 664 665 666 667 0
-661 -662 0
-661 -663 0
-661 -664 0
-661 -665 0
-661 -666 0
-661 -667 0
-662 -663 0
-662 -664 0
-662 -665 0
-662 -666 0
-662 -667 0
-663 -664 0
-663 -665 0
-663 -666 0
-663 -667 0
-664 -665 0
-664 -666 0
-664 -667 0
-665 -666 0
-665 -667 0
-666 -667 0
668 669 670 671 672 673 674 675 0
-668 -669 0
-668 -670 0
-668 -671 0
-668 -672 0
-668 -673 0
-668 -674 0
-668 -675 0
-669 -670 0
-669 -671 0
-669 -672 0
-669 -673 0
-669 -674 0
-669 -675 0
-670 -671 0
-670 -672 0
-670 -673 0
-670 -674 0
-670 -675 0
-671 -672 0
-671 -673 0
-671 -674 0
-671 -675 0
-672 -673 0
-672 -674 0
-672 -675 0
-673 -674 0
-673 -675 0
-674 -675 0
676 677 678 679 680 681 682 683 0
-676 -677 0
-676 -678 0
-676 -679 0
-676 -680 0
-676 -681 0
-676 -682 0
-676 -683 0
-677 -678 0
-677 -679 0
-677 -680 0
-677 -681 0
-677 -682 0
-677 -683 0
-678 -679 0
-678 -680 0
-678 -681 0
-678 -682 0
-678 -683 0
-679 -680 0
-679 -681 0
-679 -682 0
-679 -683 0
-680 -681 0
-680 -682 0
-680 -683 0
-681 -682 0
-681 -683 0
-682 -683 0
684 685 686 687 688 689 690 691 0
-684 -685 0
-684 -686 0
-684 -687 0
-684 -688 0
-684 -689 0
-684 -690 0
-684 -691 0
-685 -686 0
-685 -687 0
-685 -688 0
-685 -689 0
-685 -690 0
-685 -691 0
-686 -687 0
-686 -688 0
-686 -689 0
-686 -690 0
-686 -691 0
-687 -688 0
-687 -689 0
-687 -690 0
-687 -691 0
-688 -689 0
-688 -690 0
-688 -691 0
-689 -690 0
-689 -691 0
-690 -691 0
692 693 694 695 696 697 698 699 0
-692 -693 0
-692 -694 0
-692 -695 0
-692 -696 0
-692 -697 0
-692 -698 0
-692 -699 0
-693 -694 0
-693 -695 0
-693 -696 0
-693 -697 0
-693 -698 0
-693 -699 0
-694 -695 0
-694 -696 0
-694 -697 0
-694 -698 0
-694 -699 0
-695 -696 0
-695 -697 0
-695 -698 0
-695 -699 0
-696 -697 0
-696 -698 0
-696 -699 0
-697 -698 0
-697 -699 0
-698 -699 0
700 701 702 703 704 705 706 707 0
-700 -701 0
-700 -702 0
-700 -703 0
-700 -704 0
-700 -705 0
-700 -706 0
-700 -707 0
-701 -702 0
-701 -703 0
-701 -704 0
-701 -705 0
-701 -706 0
-701 -707 0
-702 -703 0
-702 -704 0
-702 -705 0
-702 -706 0
-702 -707 0
-703 -704 0
-703 -705 0
-703 -706 0
-703 -707 0
-704 -705 0
-704 -706 0
-704 -707 0
-705 -706 0
-705 -707 0
-706 -707 0
708 709 710 711 712 713 714 0
-708 -709 0
-708 -710 0
-708 -711 0
-708 -712 0
-708 -713 0
-708 -714 0
-709 -710 0
-709 -711 0
-709 -712 0
-709 -713 0
-709 -714 0
-710 -711 0
-710 -712 0
-710 -713 0
-710 -714 0
-711 -712 0
-711 -713 0
-711 -714 0
-712 -713 0
-712 -714 0
-713 -714 0
715 716 717 718 719 720 721 0
-715 -716 0
-715 -717 0
-715 -718 0
-715 -719 0
-715 -720 0
-715 -721 0
-716 -717 0
-716 -718 0
-716 -719 0
-716 -720 0
-716 -721 0
-717 -718 0
-717 -719 0
-717 -720 0
-717 -721 0
-718 -719 0
-718 -720 0
-718 -721 0
-719 -720 0
-719 -721 0
-720 -721 0
722 723 724 725 726 727 728 729 0
-722 -723 0
-722 -724 0
-722 -725 0
-722 -726 0
-722 -727 0
-722 -728 0
-722 -729 0
-723 -724 0
-723 -725 0
-723 -726 0
-723 -727 0
-723 -728 0
-723 -729 0
-724 -725 0
-724 -726 0
-724 -727 0
-724 -728 0
-724 -729 0
-725 -726 0
-725 -727 0
-725 -728 0
-725 -729 0
-726 -727 0
-726 -728 0
-726 -729 0
-727 -728 0
-727 -729 0
-728 -729 0
730 731 732 733 734 735 0
-730 -731 0
-730 -732 0
-730 -733 0
-730 -734 0
-730 -735 0
-731 -732 0
-731 -733 0
-731 -734 0
-731 -735 0
-732 -733 0
-732 -734 0
-732 -735 0
-733 -734 0
-733 -735 0
-734 -735 0
736 737 738 739 740 741 0
-736 -737 0
-736 -738 0
-736 -739 0
-736 -740 0
-736 -741 0
-737 -738 0
-737 -739 0
-737 -740 0
-737 -741 0
-738 -739 0
-738 -740 0
-738 -741 0
-739 -740 0
-739 -741 0
-740 -741 0
742 743 744 745 746 747 748 749 750 0
-742 -743 0
-742 -744 0
-742 -745 0
-742 -746 0
-742 -747 0
-742 -748 0
-742 -749 0
-742 -750 0
-743 -744 0
-743 -745 0
-743 -746 0
-743 -747 0
-743 -748 0
-743 -749 0
-743 -750 0
-744 -745 0
-744 -746 0
-744 -747 0
-744 -748 0
-744 -749 0
-744 -750 0
-745 -746 0
-745 -747 0
-745 -748 0
-745 -749 0
-745 -750 0
-746 -747 0
-746 -748 0
-746 -749 0
-746 -750 0
-747 -748 0
-747 -749 0
-747 -750 0
-748 -749 0
-748 -750 0
-749 -750 0
751 752 753 754 755 756 757 758 0
-751 -752 0
-751 -753 0
-751 -754 0
-751 -755 0
-751 -756 0
-751 -757 0
-751 -758 0
-752 -753 0
-752 -754 0
-752 -755 0
-752 -756 0
-752 -757 0
-752 -758 0
-753 -754 0
-753 -755 0
-753 -756 0
-753 -757 0
-753 -758 0
-754 -755 0
-754 -756 0
-754 -757 0
-754 -758 0
-755 -756 0
-755 -757 0
-755 -758 0
-756 -757 0
-756 -758 0
-757 -758 0
759 760 761 762 763 764 0
-759 -760 0
-759 -761 0
-759 -762 0
-759 -763 0
-759 -764 0
-760 -761 0
-760 -762 0
-760 -763 0
-760 -764 0
-761 -762 0
-761 -763 0
-761 -764 0
-762 -763 0
-762 -764 0
-763 -764 0
765 766 767 768 769 770 0
-765 -766 0
-765 -767 0
-765 -768 0
-765 -769 0
-765 -770 0
-766 -767 0
-766 -768 0
-766 -769 0
-766 -770 0
-767 -768 0
-767 -769 0
-767 -770 0
-768 -769 0
-768 -770 0
-769 -770 0
771 772 773 774 775 776 777 778 779 780 0
-771 -772 0
-771 -773 0
-771 -774 0
-771 -775 0
-771 -776 0
-771 -777 0
-771 -778 0
-771 -779 0
-771 -780 0
-772 -773 0
-772 -774 0
-772 -775 0
-772 -776 0
-772 -777 0
-772 -778 0
-772 -779 0
-772 -780 0
-773 -774 0
-773 -775 0
-773 -776 0
-773 -777 0
-773 -778 0
-773 -779 0
-773 -780 0
-774 -775 0
-774 -776 0
-774 -777 0
-774 -778 0
-774 -779 0
-774 -780 0
-775 -776 0
-775 -777 0
-775 -778 0
-775 -779 0
-775 -780 0
-776 -777 0
-776 -778 0
-776 -779 0
-776 -780 0
-777 -778 0
-777 -779 0
-777 -780 0
-778 -779 0
-778 -780 0
-779 -780 0
781 782 783 784 785 786 0
-781 -782 0
-781 -783 0
-781 -784 0
-781 -785 0
-781 -786 0
-782 -783 0
-782 -784 0
-782 -785 0
-782 -786 0
-783 -784 0
-783 -785 0
-783 -786 0
-784 -785 0
-784 -786 0
-785 -786 0
787 788 789 790 791 792 793 0
-787 -788 0
-787 -789 0
-787 -790 0
-787 -791 0
-787 -792 0
-787 -793 0
-788 -789 0
-788 -790 0
-788 -791 0
-788 -792 0
-788 -793 0
-789 -790 0
-789 -791 0
-789 -792 0
-789 -793 0
-790 -791 0
-790 -792 0
-790 -793 0
-791 -792 0
-791 -793 0
-792 -793 0
794 795 796 797 798 799 800 801 0
-794 -795 0
-794 -796 0
-794 -797 0
-794 -798 0
-794 -799 0
-794 -800 0
-794 -801 0
-795 -796 0
-795 -797 0
-795 -798 0
-795 -799 0
-795 -800 0
-795 -801 0
-796 -797 0
-796 -798 0
-796 -799 0
-796 -800 0
-796 -801 0
-797 -798 0
-797 -799 0
-797 -800 0
-797 -801 0
-798 -799 0
-798 -800 0
-798 -801 0
-799 -800 0
-799 -801 0
-800 -801 0
802 803 804 805 806 807 808 0
-802 -803 0
-802 -804 0
-802 -805 0
-802 -806 0
-802 -807 0
-802 -808 0
-803 -804 0
-803 -805 0
-803 -806 0
-803 -807 0
-803 -808 0
-804 -805 0
-804 -806 0
-804 -807 0
-804 -808 0
-805 -806 0
-805 -807 0
-805 -808 0
-806 -807 0
-806 -808 0
-807 -808 0
809 810 811 812 813 814 815 0
-809 -810 0
-809 -811 0
-809 -812 0
-809 -813 0
-809 -814 0
-809 -815 0
-810 -811 0
-810 -812 0
-810 -813 0
-810 -814 0
-810 -815 0
-811 -812 0
-811 -813 0
-811 -814 0
-811 -815 0
-812 -813 0
-812 -814 0
-812 -815 0
-813 -814 0
-813 -815 0
-814 -815 0
816 817 818 819 820 821 822 823 824 0
-816 -817 0
-816 -818 0
-816 -819 0
-816 -820 0
-816 -821 0
-816 -822 0
-816 -823 0
-816 -824 0
-817 -818 0
-817 -819 0
-817 -820 0
-817 -821 0
-817 -822 0
-817 -823 0
-817 -824 0
-818 -819 0
-818 -820 0
-818 -821 0
-818 -822 0
-818 -823 0
-818 -824 0
-819 -820 0
-819 -821 0
-819 -822 0
-819 -823 0
-819 -824 0
-820 -821 0
-820 -822 0
-820 -823 0
-820 -824 0
-821 -822 0
-821 -823 0
-821 -824 0
-822 -823 0
-822 -824 0
-823 -824 0
825 826 827 828 829 830 0
-825 -826 0
-825 -827 0
-825 -828 0
-825 -829 0
-825 -830 0
-826 -827 0
-826 -828 0
-826 -829 0
-826 -830 0
-827 -828 0
-827 -829 0
-827 -830 0
-828 -829 0
-828 -830 0
-829 -830 0
831 832 833 834 835 836 0
-831 -832 0
-831 -833 0
-831 -834 0
-831 -835 0
-831 -836 0
-832 -833 0
-832 -834 0
-832 -835 0
-832 -836 0
-833 -834 0
-833 -835 0
-833 -836 0
-834 -835 0
-834 -836 0
-835 -836 0
837 838 839 840 841 842 843 0
-837 -838 0
-837 -839 0
-837 -840 0
-837 -841 0
-837 -842 0
-837 -843 0
-838 -839 0
-838 -840 0
-838 -841 0
-838 -842 0
-838 -843 0
-839 -840 0
-839 -841 0
-839 -842 0
-839 -843 0
-840 -841 0
-840 -842 0
-840 -843 0
-841 -842 0
-841 -843 0
-842 -843 0
844 845 846 847 848 849 0
-844 -845 0
-844 -846 0
-844 -847 0
-844 -848 0
-844 -849 0
-845 -846 0
-845 -847 0
-845 -848 0
-845 -849 0
-846 -847 0
-846 -848 0
-846 -849 0
-847 -848 0
-847 -849 0
-848 -849 0
850 851 852 853 854 855 856 0
-850 -851 0
-850 -852 0
-850 -853 0
-850 -854 0
-850 -855 0
-850 -856 0
-851 -852 0
-851 -853 0
-851 -854 0
-851 -855 0
-851 -856 0
-852 -853 0
-852 -854 0
-852 -855 0
-852 -856 0
-853 -854 0
-853 -855 0
-853 -856 0
-854 -855 0
-854 -856 0
-855 -856 0
857 858 859 860 861 862 0
-857 -858 0
-857 -859 0
-857 -860 0
-857 -861 0
-857 -862 0
-858 -859 0
-858 -860 0
-858 -861 0
-858 -862 0
-859 -860 0
-859 -861 0
-859 -862 0
-860 -861 0
-860 -862 0
-861 -862 0
863 864 865 866 867 868 869 0
-863 -864 0
-863 -865 0
-863 -866 0
-863 -867 0
-863 -868 0
-863 -869 0
-864 -865 0
-864 -866 0
-864 -867 0
-864 -868 0
-864 -869 0
-865 -866 0
-865 -867 0
-865 -868 0
-865 -869 0
-866 -867 0
-866 -868 0
-866 -869 0
-867 -868 0
-867 -869 0
-868 -869 0
870 871 872 873 874 875 876 0
-870 -871 0
-870 -872 0
-870 -873 0
-870 -874 0
-870 -875 0
-870 -876 0
-871 -872 0
-871 -873 0
-871 -874 0
-871 -875 0
-871 -876 0
-872 -873 0
-872 -874 0
-872 -875 0
-872 -876 0
-873 -874 0
-873 -875 0
-873 -876 0
-874 -875 0
-874 -876 0
-875 -876 0
877 878 879 880 881 882 883 0
-877 -878 0
-877 -879 0
-877 -880 0
-877 -881 0
-877 -882 0
-877 -883 0
-878 -879 0
-878 -880 0
-878 -881 0
-878 -882 0
-878 -883 0
-879 -880 0
-879 -881 0
-879 -882 0
-879 -883 0
-880 -881 0
-880 -882 0
-880 -883 0
-881 -882 0
-881 -883 0
-882 -883 0
884 885 886 887 888 0
-884 -885 0
-884 -886 0
-884 -887 0
-884 -888 0
-885 -886 0
-885 -887 0
-885 -888 0
-886 -887 0
-886 -888 0
-887 -888 0
889 890 891 892 893 894 895 896 0
-889 -890 0
-889 -891 0
-889 -892 0
-889 -893 0
-889 -894 0
-889 -895 0
-889 -896 0
-890 -891 0
-890 -892 0
-890 -893 0
-890 -894 0
-890 -895 0
-890 -896 0
-891 -892 0
-891 -893 0
-891 -894 0
-891 -895 0
-891 -896 0
-892 -893 0
-892 -894 0
-892 -895 0
-892 -896 0
-893 -894 0
-893 -895 0
-893 -896 0
-894 -895 0
-894 -896 0
-895 -896 0
897 898 899 900 901 902 903 0
-897 -898 0
-897 -899 0
-897 -900 0
-897 -901 0
-897 -902 0
-897 -903 0
-898 -899 0
-898 -900 0
-898 -901 0
-898 -902 0
-898 -903 0
-899 -900 0
-899 -901 0
-899 -902 0
-899 -903 0
-900 -901 0
-900 -902 0
-900 -903 0
-901 -902 0
-901 -903 0
-902 -903 0
904 905 906 907 908 909 910 911 912 0
-904 -905 0
-904 -906 0
-904 -907 0
-904 -908 0
-904 -909 0
-904 -910 0
-904 -911 0
-904 -912 0
-905 -906 0
-905 -907 0
-905 -908 0
-905 -909 0
-905 -910 0
-905 -911 0
-905 -912 0
-906 -907 0
-906 -908 0
-906 -909 0
-906 -910 0
-906 -911 0
-906 -912 0
-907 -908 0
-907 -909 0
-907 -910 0
-907 -911 0
-907 -912 0
-908 -909 0
-908 -910 0
-908 -911 0
-908 -912 0
-909 -910 0
-909 -911 0
-909 -912 0
-910 -911 0
-910 -912 0
-911 -912 0
913 914 915 916 917 918 919 920 0
-913 -914 0
-913 -915 0
-913 -916 0
-913 -917 0
-913 -918 0
-913 -919 0
-913 -920 0
-914 -915 0
-914 -916 0
-914 -917 0
-914 -918 0
-914 -919 0
-914 -920 0
-915 -916 0
-915 -917 0
-915 -918 0
-915 -919 0
-915 -920 0
-916 -917 0
-916 -918 0
-916 -919 0
-916 -920 0
-917 -918 0
-917 -919 0
-917 -920 0
-918 -919 0
-918 -920 0
-919 -920 0
921 922 923 924 925 926 927 928 929 0
-921 -922 0
-921 -923 0
-921 -924 0
-921 -925 0
-921 -926 0
-921 -927 0
-921 -928 0
-921 -929 0
-922 -923 0
-922 -924 0
-922 -925 0
-922 -926 0
-922 -927 0
-922 -928 0
-922 -929 0
-923 -924 0
-923 -925 0
-923 -926 0
-923 -927 0
-923 -928 0
-923 -929 0
-924 -925 0
-924 -926 0
-924 -927 0
-924 -928 0
-924 -929 0
-925 -926 0
-925 -927 0
-925 -928 0
-925 -929 0
-926 -927 0
-926 -928 0
-926 -929 0
-927 -928 0
-927 -929 0
-928 -929 0
930 931 932 933 934 935 936 937 0
-930 -931 0
-930 -932 0
-930 -933 0
-930 -934 0
-930 -935 0
-930 -936 0
-930 -937 0
-931 -932 0
-931 -933 0
-931 -934 0
-931 -935 0
-931 -936 0
-931 -937 0
-932 -933 0
-932 -934 0
-932 -935 0
-932 -936 0
-932 -937 0
-933 -934 0
-933 -935 0
-933 -936 0
-933 -937 0
-934 -935 0
-934 -936 0
-934 -937 0
-935 -936 0
-935 -937 0
-936 -937 0
938 939 940 941 942 943 944 0
-938 -939 0
-938 -940 0
-938 -941 0
-938 -942 0
-938 -943 0
-938 -944 0
-939 -940 0
-939 -941 0
-939 -942 0
-939 -943 0
-939 -944 0
-940 -941 0
-940 -942 0
-940 -943 0
-940 -944 0
-941 -942 0
-941 -943 0
-941 -944 0
-942 -943 0
-942 -944 0
-943 -944 0
945 946 947 948 949 950 951 0
-945 -946 0
-945 -947 0
-945 -948 0
-945 -949 0
-945 -950 0
-945 -951 0
-946 -947 0
-946 -948 0
-946 -949 0
-946 -950 0
-946 -951 0
-947 -948 0
-947 -949 0
-947 -950 0
-947 -951 0
-948 -949 0
-948 -950 0
-948 -951 0
-949 -950 0
-949 -951 0
-950 -951 0
952 953 954 955 956 957 958 959 0
-952 -953 0
-952 -954 0
-952 -955 0
-952 -956 0
-952 -957 0
-952 -958 0
-952 -959 0
-953 -954 0
-953 -955 0
-953 -956 0
-953 -957 0
-953 -958 0
-953 -959 0
-954 -955 0
-954 -956 0
-954 -957 0
-954 -958 0
-954 -959 0
-955 -956 0
-955 -957 0
-955 -958 0
-955 -959 0
-956 -957 0
-956 -958 0
-956 -959 0
-957 -958 0
-957 -959 0
-958 -959 0
960 961 962 963 964 965 966 0
-960 -961 0
-960 -962 0
-960 -963 0
-960 -964 0
-960 -965 0
-960 -966 0
-961 -962 0
-961 -963 0
-961 -964 0
-961 -965 0
-961 -966 0
-962 -963 0
-962 -964 0
-962 -965 0
-962 -966 0
-963 -964 0
-963 -965 0
-963 -966 0
-964 -965 0
-964 -966 0
-965 -966 0
967 968 969 970 971 972 973 974 0
-967 -968 0
-967 -969 0
-967 -970 0
-967 -971 0
-967 -972 0
-967 -973 0
-967 -974 0
-968 -969 0
-968 -970 0
-968 -971 0
-968 -972 0
-968 -973 0
-968 -974 0
-969 -970 0
-969 -971 0
-969 -972 0
-969 -973 0
-969 -974 0
-970 -971 0
-970 -972 0
-970 -973 0
-970 -974 0
-971 -972 0
-971 -973 0
-971 -974 0
-972 -973 0
-972 -974 0
-973 -974 0
975 976 977 978 979 980 981 0
-975 -976 0
-975 -977 0
-975 -978 0
-975 -979 0
-975 -980 0
-975 -981 0
-976 -977 0
-976 -978 0
-976 -979 0
-976 -980 0
-976 -981 0
-977 -978 0
-977 -979 0
-977 -980 0
-977 -981 0
-978 -979 0
-978 -980 0
-978 -981 0
-979 -980 0
-979 -981 0
-980 -981 0
982 983 984 985 986 987 0
-982 -983 0
-982 -984 0
-982 -985 0
-982 -986 0
-982 -987 0
-983 -984 0
-983 -985 0
-983 -986 0
-983 -987 0
-984 -985 0
-984 -986 0
-984 -987 0
-985 -986 0
-985 -987 0
-986 -987 0
988 989 990 991 992 993 0
-988 -989 0
-988 -990 0
-988 -991 0
-988 -992 0
-988 -993 0
-989 -990 0
-989 -991 0
-989 -992 0
-989 -993 0
-990 -991 0
-990 -992 0
-990 -993 0
-991 -992 0
-991 -993 0
-992 -993 0
994 995 996 997 998 999 1000 1001 0
-994 -995 0
-994 -996 0
-994 -997 0
-994 -998 0
-994 -999 0
-994 -1000 0
-994 -1001 0
-995 -996 0
-995 -997 0
-995 -998 0
-995 -999 0
-995 -1000 0
-995 -1001 0
-996 -997 0
-996 -998 0
-996 -999 0
-996 -1000 0
-996 -1001 0
-997 -998 0
-997 -999 0
-997 -1000 0
-997 -1001 0
-998 -999 0
-998 -1000 0
-998 -1001 0
-999 -1000 0
-999 -1001 0
-1000 -1001 0
1002 1003 1004 1005 1006 1007 1008 1009 0
-1002 -1003 0
-1002 -1004 0
-1002 -1005 0
-1002 -1006 0
-1002 -1007 0
-1002 -1008 0
-1002 -1009 0
-1003 -1004 0
-1003 -1005 0
-1003 -1006 0
-1003 -1007 0
-1003 -1008 0
-1003 -1009 0
-1004 -1005 0
-1004 -1006 0
-1004 -1007 0
-1004 -1008 0
-1004 -1009 0
-1005 -1006 0
-1005 -1007 0
-1005 -1008 0
-1005 -1009 0
-1006 -1007 0
-1006 -1008 0
-1006 -1009 0
-1007 -1008 0
-1007 -1009 0
-1008 -1009 0
1010 1011 1012 1013 1014 1015 1016 0
-1010 -1011 0
-1010 -1012 0
-1010 -1013 0
-1010 -1014 0
-1010 -1015 0
-1010 -1016 0
-1011 -1012 0
-1011 -1013 0
-1011 -1014 0
-1011 -1015 0
-1011 -1016 0
-1012 -1013 0
-1012 -1014 0
-1012 -1015 0
-1012 -1016 0
-1013 -1014 0
-1013 -1015 0
-1013 -1016 0
-1014 -1015 0
-1014 -1016 0
-1015 -1016 0
21 37 52 58 66 72 86 0
-21 -37 0
-21 -52 0
-21 -58 0
-21 -66 0
-21 -72 0
-21 -86 0
-37 -52 0
-37 -58 0
-37 -66 0
-37 -72 0
-37 -86 0
-52 -58 0
-52 -66 0
-52 -72 0
-52 -86 0
-58 -66 0
-58 -72 0
-58 -86 0
-66 -72 0
-66 -86 0
-72 -86 0
1 30 38 53 59 67 73 79 0
-1 -30 0
-1 -38 0
-1 -53 0
-1 -59 0
-1 -67 0
-1 -73 0
-1 -79 0
-30 -38 0
-30 -53 0
-30 -59 0
-30 -67 0
-30 -73 0
-30 -79 0
-38 -53 0
-38 -59 0
-38 -67 0
-38 -73 0
-38 -79 0
-53 -59 0
-53 -67 0
-53 -73 0
-53 -79 0
-59 -67 0
-59 -73 0
-59 -79 0
-67 -73 0
-67 -79 0
-73 -79 0
1 2 31 39 44 60 74 80 0
-1 -2 0
-1 -31 0
-1 -39 0
-1 -44 0
-1 -60 0
-1 -74 0
-1 -80 0
-2 -31 0
-2 -39 0
-2 -44 0
-2 -60 0
-2 -74 0
-2 -80 0
-31 -39 0
-31 -44 0
-31 -60 0
-31 -74 0
-31 -80 0
-39 -44 0
-39 -60 0
-39 -74 0
-39 -80 0
-44 -60 0
-44 -74 0
-44 -80 0
-60 -74 0
-60 -80 0
-74 -80 0
2 3 8 14 32 40 45 61 68 81 0
-2 -3 0
-2 -8 0
-2 -14 0
-2 -32 0
-2 -40 0
-2 -45 0
-2 -61 0
-2 -68 0
-2 -81 0
-3 -8 0
-3 -14 0
-3 -32 0
-3 -40 0
-3 -45 0
-3 -61 0
-3 -68 0
-3 -81 0
-8 -14 0
-8 -32 0
-8 -40 0
-8 -45 0
-8 -61 0
-8 -68 0
-8 -81 0
-14 -32 0
-14 -40 0
-14 -45 0
-14 -61 0
-14 -68 0
-14 -81 0
-32 -40 0
-32 -45 0
-32 -61 0
-32 -68 0
-32 -81 0
-40 -45 0
-40 -61 0
-40 -68 0
-40 -81 0
-45 -61 0
-45 -68 0
-45 -81 0
-61 -68 0
-61 -81 0
-68 -81 0
3 4 15 22 41 46 54 82 87 0
-3 -4 0
-3 -15 0
-3 -22 0
-3 -41 0
-3 -46 0
-3 -54 0
-3 -82 0
-3 -87 0
-4 -15 0
-4 -22 0
-4 -41 0
-4 -46 0
-4 -54 0
-4 -82 0
-4 -87 0
-15 -22 0
-15 -41 0
-15 -46 0
-15 -54 0
-15 -82 0
-15 -87 0
-22 -41 0
-22 -46 0
-22 -54 0
-22 -82 0
-22 -87 0
-41 -46 0
-41 -54 0
-41 -82 0
-41 -87 0
-46 -54 0
-46 -82 0
-46 -87 0
-54 -82 0
-54 -87 0
-82 -87 0
4 5 16 33 42 47 55 62 83 88 0
-4 -5 0
-4 -16 0
-4 -33 0
-4 -42 0
-4 -47 0
-4 -55 0
-4 -62 0
-4 -83 0
-4 -88 0
-5 -16 0
-5 -33 0
-5 -42 0
-5 -47 0
-5 -55 0
-5 -62 0
-5 -83 0
-5 -88 0
-16 -33 0
-16 -42 0
-16 -47 0
-16 -55 0
-16 -62 0
-16 -83 0
-16 -88 0
-33 -42 0
-33 -47 0
-33 -55 0
-33 -62 0
-33 -83 0
-33 -88 0
-42 -47 0
-42 -55 0
-42 -62 0
-42 -83 0
-42 -88 0
-47 -55 0
-47 -62 0
-47 -83 0
-47 -88 0
-55 -62 0
-55 -83 0
-55 -88 0
-62 -83 0
-62 -88 0
-83 -88 0
5 9 48 56 89 0
-5 -9 0
-5 -48 0
-5 -56 0
-5 -89 0
-9 -48 0
-9 -56 0
-9 -89 0
-48 -56 0
-48 -89 0
-56 -89 0
10 17 23 57 75 90 0
-10 -17 0
-10 -23 0
-10 -57 0
-10 -75 0
-10 -90 0
-17 -23 0
-17 -57 0
-17 -75 0
-17 -90 0
-23 -57 0
-23 -75 0
-23 -90 0
-57 -75 0
-57 -90 0
-75 -90 0
6 18 24 34 63 76 84 0
-6 -18 0
-6 -24 0
-6 -34 0
-6 -63 0
-6 -76 0
-6 -84 0
-18 -24 0
-18 -34 0
-18 -63 0
-18 -76 0
-18 -84 0
-24 -34 0
-24 -63 0
-24 -76 0
-24 -84 0
-34 -63 0
-34 -76 0
-34 -84 0
-63 -76 0
-63 -84 0
-76 -84 0
6 25 64 69 77 91 0
-6 -25 0
-6 -64 0
-6 -69 0
-6 -77 0
-6 -91 0
-25 -64 0
-25 -69 0
-25 -77 0
-25 -91 0
-64 -69 0
-64 -77 0
-64 -91 0
-69 -77 0
-69 -91 0
-77 -91 0
7 11 19 26 35 70 0
-7 -11 0
-7 -19 0
-7 -26 0
-7 -35 0
-7 -70 0
-11 -19 0
-11 -26 0
-11 -35 0
-11 -70 0
-19 -26 0
-19 -35 0
-19 -70 0
-26 -35 0
-26 -70 0
-35 -70 0
7 27 49 65 78 0
-7 -27 0
-7 -49 0
-7 -65 0
-7 -78 0
-27 -49 0
-27 -65 0
-27 -78 0
-49 -65 0
-49 -78 0
-65 -78 0
12 20 28 36 50 85 0
-12 -20 0
-12 -28 0
-12 -36 0
-12 -50 0
-12 -85 0
-20 -28 0
-20 -36 0
-20 -50 0
-20 -85 0
-28 -36 0
-28 -50 0
-28 -85 0
-36 -50 0
-36 -85 0
-50 -85 0
13 29 43 51 71 0
-13 -29 0
-13 -43 0
-13 -51 0
-13 -71 0
-29 -43 0
-29 -51 0
-29 -71 0
-43 -51 0
-43 -71 0
-51 -71 0
108 120 128 137 144 158 172 0
-108 -120 0
-108 -128 0
-108 -137 0
-108 -144 0
-108 -158 0
-108 -172 0
-120 -128 0
-120 -137 0
-120 -144 0
-120 -158 0
-120 -172 0
-128 -137 0
-128 -144 0
-128 -158 0
-128 -172 0
-137 -144 0
-137 -158 0
-137 -172 0
-144 -158 0
-144 -172 0
-158 -172 0
1 8 92 109 121 129 145 165 173 0
-1 -8 0
-1 -92 0
-1 -109 0
-1 -121 0
-1 -129 0
-1 -145 0
-1 -165 0
-1 -173 0
-8 -92 0
-8 -109 0
-8 -121 0
-8 -129 0
-8 -145 0
-8 -165 0
-8 -173 0
-92 -109 0
-92 -121 0
-92 -129 0
-92 -145 0
-92 -165 0
-92 -173 0
-109 -121 0
-109 -129 0
-109 -145 0
-109 -165 0
-109 -173 0
-121 -129 0
-121 -145 0
-121 -165 0
-121 -173 0
-129 -145 0
-129 -165 0
-129 -173 0
-145 -165 0
-145 -173 0
-165 -173 0
2 101 122 138 146 150 174 0
-2 -101 0
-2 -122 0
-2 -138 0
-2 -146 0
-2 -150 0
-2 -174 0
-101 -122 0
-101 -138 0
-101 -146 0
-101 -150 0
-101 -174 0
-122 -138 0
-122 -146 0
-122 -150 0
-122 -174 0
-138 -146 0
-138 -150 0
-138 -174 0
-146 -150 0
-146 -174 0
-150 -174 0
3 93 102 114 130 139 175 0
-3 -93 0
-3 -102 0
-3 -114 0
-3 -130 0
-3 -139 0
-3 -175 0
-93 -102 0
-93 -114 0
-93 -130 0
-93 -139 0
-93 -175 0
-102 -114 0
-102 -130 0
-102 -139 0
-102 -175 0
-114 -130 0
-114 -139 0
-114 -175 0
-130 -139 0
-130 -175 0
-139 -175 0
4 9 94 123 131 140 147 176 0
-4 -9 0
-4 -94 0
-4 -123 0
-4 -131 0
-4 -140 0
-4 -147 0
-4 -176 0
-9 -94 0
-9 -123 0
-9 -131 0
-9 -140 0
-9 -147 0
-9 -176 0
-94 -123 0
-94 -131 0
-94 -140 0
-94 -147 0
-94 -176 0
-123 -131 0
-123 -140 0
-123 -147 0
-123 -176 0
-131 -140 0
-131 -147 0
-131 -176 0
-140 -147 0
-140 -176 0
-147 -176 0
5 95 115 132 151 159 166 177 0
-5 -95 0
-5 -115 0
-5 -132 0
-5 -151 0
-5 -159 0
-5 -166 0
-5 -177 0
-95 -115 0
-95 -132 0
-95 -151 0
-95 -159 0
-95 -166 0
-95 -177 0
-115 -132 0
-115 -151 0
-115 -159 0
-115 -166 0
-115 -177 0
-132 -151 0
-132 -159 0
-132 -166 0
-132 -177 0
-151 -159 0
-151 -166 0
-151 -177 0
-159 -166 0
-159 -177 0
-166 -177 0
10 96 103 124 141 152 167 178 0
-10 -96 0
-10 -103 0
-10 -124 0
-10 -141 0
-10 -152 0
-10 -167 0
-10 -178 0
-96 -103 0
-96 -124 0
-96 -141 0
-96 -152 0
-96 -167 0
-96 -178 0
-103 -124 0
-103 -141 0
-103 -152 0
-103 -167 0
-103 -178 0
-124 -141 0
-124 -152 0
-124 -167 0
-124 -178 0
-141 -152 0
-141 -167 0
-141 -178 0
-152 -167 0
-152 -178 0
-167 -178 0
97 104 116 142 153 160 179 0
-97 -104 0
-97 -116 0
-97 -142 0
-97 -153 0
-97 -160 0
-97 -179 0
-104 -116 0
-104 -142 0
-104 -153 0
-104 -160 0
-104 -179 0
-116 -142 0
-116 -153 0
-116 -160 0
-116 -179 0
-142 -153 0
-142 -160 0
-142 -179 0
-153 -160 0
-153 -179 0
-160 -179 0
6 11 98 105 110 154 161 0
-6 -11 0
-6 -98 0
-6 -105 0
-6 -110 0
-6 -154 0
-6 -161 0
-11 -98 0
-11 -105 0
-11 -110 0
-11 -154 0
-11 -161 0
-98 -105 0
-98 -110 0
-98 -154 0
-98 -161 0
-105 -110 0
-105 -154 0
-105 -161 0
-110 -154 0
-110 -161 0
-154 -161 0
7 12 99 106 111 125 133 155 162 0
-7 -12 0
-7 -99 0
-7 -106 0
-7 -111 0
-7 -125 0
-7 -133 0
-7 -155 0
-7 -162 0
-12 -99 0
-12 -106 0
-12 -111 0
-12 -125 0
-12 -133 0
-12 -155 0
-12 -162 0
-99 -106 0
-99 -111 0
-99 -125 0
-99 -133 0
-99 -155 0
-99 -162 0
-106 -111 0
-106 -125 0
-106 -133 0
-106 -155 0
-106 -162 0
-111 -125 0
-111 -133 0
-111 -155 0
-111 -162 0
-125 -133 0
-125 -155 0
-125 -162 0
-133 -155 0
-133 -162 0
-155 -162 0
13 107 126 148 168 0
-13 -107 0
-13 -126 0
-13 -148 0
-13 -168 0
-107 -126 0
-107 -148 0
-107 -168 0
-126 -148 0
-126 -168 0
-148 -168 0
112 117 127 134 163 169 0
-112 -117 0
-112 -127 0
-112 -134 0
-112 -163 0
-112 -169 0
-117 -127 0
-117 -134 0
-117 -163 0
-117 -169 0
-127 -134 0
-127 -163 0
-127 -169 0
-134 -163 0
-134 -169 0
-163 -169 0
118 135 149 156 164 170 0
-118 -135 0
-118 -149 0
-118 -156 0
-118 -164 0
-118 -170 0
-135 -149 0
-135 -156 0
-135 -164 0
-135 -170 0
-149 -156 0
-149 -164 0
-149 -170 0
-156 -164 0
-156 -170 0
-164 -170 0
100 113 119 136 143 157 171 0
-100 -113 0
-100 -119 0
-100 -136 0
-100 -143 0
-100 -157 0
-100 -171 0
-113 -119 0
-113 -136 0
-113 -143 0
-113 -157 0
-113 -171 0
-119 -136 0
-119 -143 0
-119 -157 0
-119 -171 0
-136 -143 0
-136 -157 0
-136 -171 0
-143 -157 0
-143 -171 0
-157 -171 0
14 92 195 202 208 217 225 231 239 0
-14 -92 0
-14 -195 0
-14 -202 0
-14 -208 0
-14 -217 0
-14 -225 0
-14 -231 0
-14 -239 0
-92 -195 0
-92 -202 0
-92 -208 0
-92 -217 0
-92 -225 0
-92 -231 0
-92 -239 0
-195 -202 0
-195 -208 0
-195 -217 0
-195 -225 0
-195 -231 0
-195 -239 0
-202 -208 0
-202 -217 0
-202 -225 0
-202 -231 0
-202 -239 0
-208 -217 0
-208 -225 0
-208 -231 0
-208 -239 0
-217 -225 0
-217 -231 0
-217 -239 0
-225 -231 0
-225 -239 0
-231 -239 0
8 15 196 209 218 232 254 0
-8 -15 0
-8 -196 0
-8 -209 0
-8 -218 0
-8 -232 0
-8 -254 0
-15 -196 0
-15 -209 0
-15 -218 0
-15 -232 0
-15 -254 0
-196 -209 0
-196 -218 0
-196 -232 0
-196 -254 0
-209 -218 0
-209 -232 0
-209 -254 0
-218 -232 0
-218 -254 0
-232 -254 0
16 93 188 197 203 210 226 246 0
-16 -93 0
-16 -188 0
-16 -197 0
-16 -203 0
-16 -210 0
-16 -226 0
-16 -246 0
-93 -188 0
-93 -197 0
-93 -203 0
-93 -210 0
-93 -226 0
-93 -246 0
-188 -197 0
-188 -203 0
-188 -210 0
-188 -226 0
-188 -246 0
-197 -203 0
-197 -210 0
-197 -226 0
-197 -246 0
-203 -210 0
-203 -226 0
-203 -246 0
-210 -226 0
-210 -246 0
-226 -246 0
94 180 204 219 227 255 0
-94 -180 0
-94 -204 0
-94 -219 0
-94 -227 0
-94 -255 0
-180 -204 0
-180 -219 0
-180 -227 0
-180 -255 0
-204 -219 0
-204 -227 0
-204 -255 0
-219 -227 0
-219 -255 0
-227 -255 0
9 95 189 220 233 247 0
-9 -95 0
-9 -189 0
-9 -220 0
-9 -233 0
-9 -247 0
-95 -189 0
-95 -220 0
-95 -233 0
-95 -247 0
-189 -220 0
-189 -233 0
-189 -247 0
-220 -233 0
-220 -247 0
-233 -247 0
17 96 181 205 221 234 248 256 0
-17 -96 0
-17 -181 0
-17 -205 0
-17 -221 0
-17 -234 0
-17 -248 0
-17 -256 0
-96 -181 0
-96 -205 0
-96 -221 0
-96 -234 0
-96 -248 0
-96 -256 0
-181 -205 0
-181 -221 0
-181 -234 0
-181 -248 0
-181 -256 0
-205 -221 0
-205 -234 0
-205 -248 0
-205 -256 0
-221 -234 0
-221 -248 0
-221 -256 0
-234 -248 0
-234 -256 0
-248 -256 0
10 18 97 182 240 257 0
-10 -18 0
-10 -97 0
-10 -182 0
-10 -240 0
-10 -257 0
-18 -97 0
-18 -182 0
-18 -240 0
-18 -257 0
-97 -182 0
-97 -240 0
-97 -257 0
-182 -240 0
-182 -257 0
-240 -257 0
19 98 183 190 211 222 241 258 0
-19 -98 0
-19 -183 0
-19 -190 0
-19 -211 0
-19 -222 0
-19 -241 0
-19 -258 0
-98 -183 0
-98 -190 0
-98 -211 0
-98 -222 0
-98 -241 0
-98 -258 0
-183 -190 0
-183 -211 0
-183 -222 0
-183 -241 0
-183 -258 0
-190 -211 0
-190 -222 0
-190 -241 0
-190 -258 0
-211 -222 0
-211 -241 0
-211 -258 0
-222 -241 0
-222 -258 0
-241 -258 0
11 184 191 212 223 235 242 249 0
-11 -184 0
-11 -191 0
-11 -212 0
-11 -223 0
-11 -235 0
-11 -242 0
-11 -249 0
-184 -191 0
-184 -212 0
-184 -223 0
-184 -235 0
-184 -242 0
-184 -249 0
-191 -212 0
-191 -223 0
-191 -235 0
-191 -242 0
-191 -249 0
-212 -223 0
-212 -235 0
-212 -242 0
-212 -249 0
-223 -235 0
-223 -242 0
-223 -249 0
-235 -242 0
-235 -249 0
-242 -249 0
20 99 192 206 228 236 243 250 0
-20 -99 0
-20 -192 0
-20 -206 0
-20 -228 0
-20 -236 0
-20 -243 0
-20 -250 0
-99 -192 0
-99 -206 0
-99 -228 0
-99 -236 0
-99 -243 0
-99 -250 0
-192 -206 0
-192 -228 0
-192 -236 0
-192 -243 0
-192 -250 0
-206 -228 0
-206 -236 0
-206 -243 0
-206 -250 0
-228 -236 0
-228 -243 0
-228 -250 0
-236 -243 0
-236 -250 0
-243 -250 0
12 185 193 198 207 213 251 259 0
-12 -185 0
-12 -193 0
-12 -198 0
-12 -207 0
-12 -213 0
-12 -251 0
-12 -259 0
-185 -193 0
-185 -198 0
-185 -207 0
-185 -213 0
-185 -251 0
-185 -259 0
-193 -198 0
-193 -207 0
-193 -213 0
-193 -251 0
-193 -259 0
-198 -207 0
-198 -213 0
-198 -251 0
-198 -259 0
-207 -213 0
-207 -251 0
-207 -259 0
-213 -251 0
-213 -259 0
-251 -259 0
13 194 199 214 229 237 244 0
-13 -194 0
-13 -199 0
-13 -214 0
-13 -229 0
-13 -237 0
-13 -244 0
-194 -199 0
-194 -214 0
-194 -229 0
-194 -237 0
-194 -244 0
-199 -214 0
-199 -229 0
-199 -237 0
-199 -244 0
-214 -229 0
-214 -237 0
-214 -244 0
-229 -237 0
-229 -244 0
-237 -244 0
186 200 215 230 245 252 260 0
-186 -200 0
-186 -215 0
-186 -230 0
-186 -245 0
-186 -252 0
-186 -260 0
-200 -215 0
-200 -230 0
-200 -245 0
-200 -252 0
-200 -260 0
-215 -230 0
-215 -245 0
-215 -252 0
-215 -260 0
-230 -245 0
-230 -252 0
-230 -260 0
-245 -252 0
-245 -260 0
-252 -260 0
100 187 201 216 224 238 253 0
-100 -187 0
-100 -201 0
-100 -216 0
-100 -224 0
-100 -238 0
-100 -253 0
-187 -201 0
-187 -216 0
-187 -224 0
-187 -238 0
-187 -253 0
-201 -216 0
-201 -224 0
-201 -238 0
-201 -253 0
-216 -224 0
-216 -238 0
-216 -253 0
-224 -238 0
-224 -253 0
-238 -253 0
268 274 287 294 303 310 326 0
-268 -274 0
-268 -287 0
-268 -294 0
-268 -303 0
-268 -310 0
-268 -326 0
-274 -287 0
-274 -294 0
-274 -303 0
-274 -310 0
-274 -326 0
-287 -294 0
-287 -303 0
-287 -310 0
-287 -326 0
-294 -303 0
-294 -310 0
-294 -326 0
-303 -310 0
-303 -326 0
-310 -326 0
14 22 101 269 275 281 288 295 304 0
-14 -22 0
-14 -101 0
-14 -269 0
-14 -275 0
-14 -281 0
-14 -288 0
-14 -295 0
-14 -304 0
-22 -101 0
-22 -269 0
-22 -275 0
-22 -281 0
-22 -288 0
-22 -295 0
-22 -304 0
-101 -269 0
-101 -275 0
-101 -281 0
-101 -288 0
-101 -295 0
-101 -304 0
-269 -275 0
-269 -281 0
-269 -288 0
-269 -295 0
-269 -304 0
-275 -281 0
-275 -288 0
-275 -295 0
-275 -304 0
-281 -288 0
-281 -295 0
-281 -304 0
-288 -295 0
-288 -304 0
-295 -304 0
15 102 270 276 296 311 317 327 0
-15 -102 0
-15 -270 0
-15 -276 0
-15 -296 0
-15 -311 0
-15 -317 0
-15 -327 0
-102 -270 0
-102 -276 0
-102 -296 0
-102 -311 0
-102 -317 0
-102 -327 0
-270 -276 0
-270 -296 0
-270 -311 0
-270 -317 0
-270 -327 0
-276 -296 0
-276 -311 0
-276 -317 0
-276 -327 0
-296 -311 0
-296 -317 0
-296 -327 0
-311 -317 0
-311 -327 0
-317 -327 0
16 180 271 282 289 328 0
-16 -180 0
-16 -271 0
-16 -282 0
-16 -289 0
-16 -328 0
-180 -271 0
-180 -282 0
-180 -289 0
-180 -328 0
-271 -282 0
-271 -289 0
-271 -328 0
-282 -289 0
-282 -328 0
-289 -328 0
23 103 181 283 297 312 318 329 0
-23 -103 0
-23 -181 0
-23 -283 0
-23 -297 0
-23 -312 0
-23 -318 0
-23 -329 0
-103 -181 0
-103 -283 0
-103 -297 0
-103 -312 0
-103 -318 0
-103 -329 0
-181 -283 0
-181 -297 0
-181 -312 0
-181 -318 0
-181 -329 0
-283 -297 0
-283 -312 0
-283 -318 0
-283 -329 0
-297 -312 0
-297 -318 0
-297 -329 0
-312 -318 0
-312 -329 0
-318 -329 0
17 24 104 182 261 277 305 0
-17 -24 0
-17 -104 0
-17 -182 0
-17 -261 0
-17 -277 0
-17 -305 0
-24 -104 0
-24 -182 0
-24 -261 0
-24 -277 0
-24 -305 0
-104 -182 0
-104 -261 0
-104 -277 0
-104 -305 0
-182 -261 0
-182 -277 0
-182 -305 0
-261 -277 0
-261 -305 0
-277 -305 0
18 25 298 306 313 319 330 0
-18 -25 0
-18 -298 0
-18 -306 0
-18 -313 0
-18 -319 0
-18 -330 0
-25 -298 0
-25 -306 0
-25 -313 0
-25 -319 0
-25 -330 0
-298 -306 0
-298 -313 0
-298 -319 0
-298 -330 0
-306 -313 0
-306 -319 0
-306 -330 0
-313 -319 0
-313 -330 0
-319 -330 0
26 105 183 290 299 307 331 0
-26 -105 0
-26 -183 0
-26 -290 0
-26 -299 0
-26 -307 0
-26 -331 0
-105 -183 0
-105 -290 0
-105 -299 0
-105 -307 0
-105 -331 0
-183 -290 0
-183 -299 0
-183 -307 0
-183 -331 0
-290 -299 0
-290 -307 0
-290 -331 0
-299 -307 0
-299 -331 0
-307 -331 0
19 27 184 262 278 284 291 320 0
-19 -27 0
-19 -184 0
-19 -262 0
-19 -278 0
-19 -284 0
-19 -291 0
-19 -320 0
-27 -184 0
-27 -262 0
-27 -278 0
-27 -284 0
-27 -291 0
-27 -320 0
-184 -262 0
-184 -278 0
-184 -284 0
-184 -291 0
-184 -320 0
-262 -278 0
-262 -284 0
-262 -291 0
-262 -320 0
-278 -284 0
-278 -291 0
-278 -320 0
-284 -291 0
-284 -320 0
-291 -320 0
28 106 263 300 308 314 321 0
-28 -106 0
-28 -263 0
-28 -300 0
-28 -308 0
-28 -314 0
-28 -321 0
-106 -263 0
-106 -300 0
-106 -308 0
-106 -314 0
-106 -321 0
-263 -300 0
-263 -308 0
-263 -314 0
-263 -321 0
-300 -308 0
-300 -314 0
-300 -321 0
-308 -314 0
-308 -321 0
-314 -321 0
20 29 107 185 264 279 285 301 322 332 0
-20 -29 0
-20 -107 0
-20 -185 0
-20 -264 0
-20 -279 0
-20 -285 0
-20 -301 0
-20 -322 0
-20 -332 0
-29 -107 0
-29 -185 0
-29 -264 0
-29 -279 0
-29 -285 0
-29 -301 0
-29 -322 0
-29 -332 0
-107 -185 0
-107 -264 0
-107 -279 0
-107 -285 0
-107 -301 0
-107 -322 0
-107 -332 0
-185 -264 0
-185 -279 0
-185 -285 0
-185 -301 0
-185 -322 0
-185 -332 0
-264 -279 0
-264 -285 0
-264 -301 0
-264 -322 0
-264 -332 0
-279 -285 0
-279 -301 0
-279 -322 0
-279 -332 0
-285 -301 0
-285 -322 0
-285 -332 0
-301 -322 0
-301 -332 0
-322 -332 0
265 272 280 315 323 0
-265 -272 0
-265 -280 0
-265 -315 0
-265 -323 0
-272 -280 0
-272 -315 0
-272 -323 0
-280 -315 0
-280 -323 0
-315 -323 0
186 266 273 292 302 309 316 324 0
-186 -266 0
-186 -273 0
-186 -292 0
-186 -302 0
-186 -309 0
-186 -316 0
-186 -324 0
-266 -273 0
-266 -292 0
-266 -302 0
-266 -309 0
-266 -316 0
-266 -324 0
-273 -292 0
-273 -302 0
-273 -309 0
-273 -316 0
-273 -324 0
-292 -302 0
-292 -309 0
-292 -316 0
-292 -324 0
-302 -309 0
-302 -316 0
-302 -324 0
-309 -316 0
-309 -324 0
-316 -324 0
21 187 267 286 293 325 333 0
-21 -187 0
-21 -267 0
-21 -286 0
-21 -293 0
-21 -325 0
-21 -333 0
-187 -267 0
-187 -286 0
-187 -293 0
-187 -325 0
-187 -333 0
-267 -286 0
-267 -293 0
-267 -325 0
-267 -333 0
-286 -293 0
-286 -325 0
-286 -333 0
-293 -325 0
-293 -333 0
-325 -333 0
21 30 108 342 349 357 364 395 0
-21 -30 0
-21 -108 0
-21 -342 0
-21 -349 0
-21 -357 0
-21 -364 0
-21 -395 0
-30 -108 0
-30 -342 0
-30 -349 0
-30 -357 0
-30 -364 0
-30 -395 0
-108 -342 0
-108 -349 0
-108 -357 0
-108 -364 0
-108 -395 0
-342 -349 0
-342 -357 0
-342 -364 0
-342 -395 0
-349 -357 0
-349 -364 0
-349 -395 0
-357 -364 0
-357 -395 0
-364 -395 0
31 334 343 358 365 379 386 396 0
-31 -334 0
-31 -343 0
-31 -358 0
-31 -365 0
-31 -379 0
-31 -386 0
-31 -396 0
-334 -343 0
-334 -358 0
-334 -365 0
-334 -379 0
-334 -386 0
-334 -396 0
-343 -358 0
-343 -365 0
-343 -379 0
-343 -386 0
-343 -396 0
-358 -365 0
-358 -379 0
-358 -386 0
-358 -396 0
-365 -379 0
-365 -386 0
-365 -396 0
-379 -386 0
-379 -396 0
-386 -396 0
32 109 350 366 371 380 387 0
-32 -109 0
-32 -350 0
-32 -366 0
-32 -371 0
-32 -380 0
-32 -387 0
-109 -350 0
-109 -366 0
-109 -371 0
-109 -380 0
-109 -387 0
-350 -366 0
-350 -371 0
-350 -380 0
-350 -387 0
-366 -371 0
-366 -380 0
-366 -387 0
-371 -380 0
-371 -387 0
-380 -387 0
22 33 188 335 344 351 359 367 381 0
-22 -33 0
-22 -188 0
-22 -335 0
-22 -344 0
-22 -351 0
-22 -359 0
-22 -367 0
-22 -381 0
-33 -188 0
-33 -335 0
-33 -344 0
-33 -351 0
-33 -359 0
-33 -367 0
-33 -381 0
-188 -335 0
-188 -344 0
-188 -351 0
-188 -359 0
-188 -367 0
-188 -381 0
-335 -344 0
-335 -351 0
-335 -359 0
-335 -367 0
-335 -381 0
-344 -351 0
-344 -359 0
-344 -367 0
-344 -381 0
-351 -359 0
-351 -367 0
-351 -381 0
-359 -367 0
-359 -381 0
-367 -381 0
189 336 345 360 382 388 0
-189 -336 0
-189 -345 0
-189 -360 0
-189 -382 0
-189 -388 0
-336 -345 0
-336 -360 0
-336 -382 0
-336 -388 0
-345 -360 0
-345 -382 0
-345 -388 0
-360 -382 0
-360 -388 0
-382 -388 0
23 34 261 337 361 372 397 0
-23 -34 0
-23 -261 0
-23 -337 0
-23 -361 0
-23 -372 0
-23 -397 0
-34 -261 0
-34 -337 0
-34 -361 0
-34 -372 0
-34 -397 0
-261 -337 0
-261 -361 0
-261 -372 0
-261 -397 0
-337 -361 0
-337 -372 0
-337 -397 0
-361 -372 0
-361 -397 0
-372 -397 0
24 338 346 362 368 398 0
-24 -338 0
-24 -346 0
-24 -362 0
-24 -368 0
-24 -398 0
-338 -346 0
-338 -362 0
-338 -368 0
-338 -398 0
-346 -362 0
-346 -368 0
-346 -398 0
-362 -368 0
-362 -398 0
-368 -398 0
25 35 110 190 352 363 373 383 0
-25 -35 0
-25 -110 0
-25 -190 0
-25 -352 0
-25 -363 0
-25 -373 0
-25 -383 0
-35 -110 0
-35 -190 0
-35 -352 0
-35 -363 0
-35 -373 0
-35 -383 0
-110 -190 0
-110 -352 0
-110 -363 0
-110 -373 0
-110 -383 0
-190 -352 0
-190 -363 0
-190 -373 0
-190 -383 0
-352 -363 0
-352 -373 0
-352 -383 0
-363 -373 0
-363 -383 0
-373 -383 0
26 191 262 347 374 389 0
-26 -191 0
-26 -262 0
-26 -347 0
-26 -374 0
-26 -389 0
-191 -262 0
-191 -347 0
-191 -374 0
-191 -389 0
-262 -347 0
-262 -374 0
-262 -389 0
-347 -374 0
-347 -389 0
-374 -389 0
27 36 111 192 263 353 375 384 390 0
-27 -36 0
-27 -111 0
-27 -192 0
-27 -263 0
-27 -353 0
-27 -375 0
-27 -384 0
-27 -390 0
-36 -111 0
-36 -192 0
-36 -263 0
-36 -353 0
-36 -375 0
-36 -384 0
-36 -390 0
-111 -192 0
-111 -263 0
-111 -353 0
-111 -375 0
-111 -384 0
-111 -390 0
-192 -263 0
-192 -353 0
-192 -375 0
-192 -384 0
-192 -390 0
-263 -353 0
-263 -375 0
-263 -384 0
-263 -390 0
-353 -375 0
-353 -384 0
-353 -390 0
-375 -384 0
-375 -390 0
-384 -390 0
28 193 264 339 348 391 399 0
-28 -193 0
-28 -264 0
-28 -339 0
-28 -348 0
-28 -391 0
-28 -399 0
-193 -264 0
-193 -339 0
-193 -348 0
-193 -391 0
-193 -399 0
-264 -339 0
-264 -348 0
-264 -391 0
-264 -399 0
-339 -348 0
-339 -391 0
-339 -399 0
-348 -391 0
-348 -399 0
-391 -399 0
29 112 194 265 354 376 392 0
-29 -112 0
-29 -194 0
-29 -265 0
-29 -354 0
-29 -376 0
-29 -392 0
-112 -194 0
-112 -265 0
-112 -354 0
-112 -376 0
-112 -392 0
-194 -265 0
-194 -354 0
-194 -376 0
-194 -392 0
-265 -354 0
-265 -376 0
-265 -392 0
-354 -376 0
-354 -392 0
-376 -392 0
266 340 355 369 377 385 393 400 0
-266 -340 0
-266 -355 0
-266 -369 0
-266 -377 0
-266 -385 0
-266 -393 0
-266 -400 0
-340 -355 0
-340 -369 0
-340 -377 0
-340 -385 0
-340 -393 0
-340 -400 0
-355 -369 0
-355 -377 0
-355 -385 0
-355 -393 0
-355 -400 0
-369 -377 0
-369 -385 0
-369 -393 0
-369 -400 0
-377 -385 0
-377 -393 0
-377 -400 0
-385 -393 0
-385 -400 0
-393 -400 0
113 267 341 356 370 378 394 401 0
-113 -267 0
-113 -341 0
-113 -356 0
-113 -370 0
-113 -378 0
-113 -394 0
-113 -401 0
-267 -341 0
-267 -356 0
-267 -370 0
-267 -378 0
-267 -394 0
-267 -401 0
-341 -356 0
-341 -370 0
-341 -378 0
-341 -394 0
-341 -401 0
-356 -370 0
-356 -378 0
-356 -394 0
-356 -401 0
-370 -378 0
-370 -394 0
-370 -401 0
-378 -394 0
-378 -401 0
-394 -401 0
38 402 409 416 431 438 453 0
-38 -402 0
-38 -409 0
-38 -416 0
-38 -431 0
-38 -438 0
-38 -453 0
-402 -409 0
-402 -416 0
-402 -431 0
-402 -438 0
-402 -453 0
-409 -416 0
-409 -431 0
-409 -438 0
-409 -453 0
-416 -431 0
-416 -438 0
-416 -453 0
-431 -438 0
-431 -453 0
-438 -453 0
30 39 268 334 417 424 432 444 0
-30 -39 0
-30 -268 0
-30 -334 0
-30 -417 0
-30 -424 0
-30 -432 0
-30 -444 0
-39 -268 0
-39 -334 0
-39 -417 0
-39 -424 0
-39 -432 0
-39 -444 0
-268 -334 0
-268 -417 0
-268 -424 0
-268 -432 0
-268 -444 0
-334 -417 0
-334 -424 0
-334 -432 0
-334 -444 0
-417 -424 0
-417 -432 0
-417 -444 0
-424 -432 0
-424 -444 0
-432 -444 0
31 40 195 410 418 425 445 454 0
-31 -40 0
-31 -195 0
-31 -410 0
-31 -418 0
-31 -425 0
-31 -445 0
-31 -454 0
-40 -195 0
-40 -410 0
-40 -418 0
-40 -425 0
-40 -445 0
-40 -454 0
-195 -410 0
-195 -418 0
-195 -425 0
-195 -445 0
-195 -454 0
-410 -418 0
-410 -425 0
-410 -445 0
-410 -454 0
-418 -425 0
-418 -445 0
-418 -454 0
-425 -445 0
-425 -454 0
-445 -454 0
32 41 196 269 419 433 439 455 0
-32 -41 0
-32 -196 0
-32 -269 0
-32 -419 0
-32 -433 0
-32 -439 0
-32 -455 0
-41 -196 0
-41 -269 0
-41 -419 0
-41 -433 0
-41 -439 0
-41 -455 0
-196 -269 0
-196 -419 0
-196 -433 0
-196 -439 0
-196 -455 0
-269 -419 0
-269 -433 0
-269 -439 0
-269 -455 0
-419 -433 0
-419 -439 0
-419 -455 0
-433 -439 0
-433 -455 0
-439 -455 0
42 114 197 270 335 411 426 446 456 0
-42 -114 0
-42 -197 0
-42 -270 0
-42 -335 0
-42 -411 0
-42 -426 0
-42 -446 0
-42 -456 0
-114 -197 0
-114 -270 0
-114 -335 0
-114 -411 0
-114 -426 0
-114 -446 0
-114 -456 0
-197 -270 0
-197 -335 0
-197 -411 0
-197 -426 0
-197 -446 0
-197 -456 0
-270 -335 0
-270 -411 0
-270 -426 0
-270 -446 0
-270 -456 0
-335 -411 0
-335 -426 0
-335 -446 0
-335 -456 0
-411 -426 0
-411 -446 0
-411 -456 0
-426 -446 0
-426 -456 0
-446 -456 0
33 271 403 412 447 0
-33 -271 0
-33 -403 0
-33 -412 0
-33 -447 0
-271 -403 0
-271 -412 0
-271 -447 0
-403 -412 0
-403 -447 0
-412 -447 0
115 336 404 434 448 0
-115 -336 0
-115 -404 0
-115 -434 0
-115 -448 0
-336 -404 0
-336 -434 0
-336 -448 0
-404 -434 0
-404 -448 0
-434 -448 0
116 337 405 420 435 440 0
-116 -337 0
-116 -405 0
-116 -420 0
-116 -435 0
-116 -440 0
-337 -405 0
-337 -420 0
-337 -435 0
-337 -440 0
-405 -420 0
-405 -435 0
-405 -440 0
-420 -435 0
-420 -440 0
-435 -440 0
34 338 406 427 436 449 0
-34 -338 0
-34 -406 0
-34 -427 0
-34 -436 0
-34 -449 0
-338 -406 0
-338 -427 0
-338 -436 0
-338 -449 0
-406 -427 0
-406 -436 0
-406 -449 0
-427 -436 0
-427 -449 0
-436 -449 0
35 407 421 441 450 0
-35 -407 0
-35 -421 0
-35 -441 0
-35 -450 0
-407 -421 0
-407 -441 0
-407 -450 0
-421 -441 0
-421 -450 0
-441 -450 0
36 43 198 339 413 451 457 0
-36 -43 0
-36 -198 0
-36 -339 0
-36 -413 0
-36 -451 0
-36 -457 0
-43 -198 0
-43 -339 0
-43 -413 0
-43 -451 0
-43 -457 0
-198 -339 0
-198 -413 0
-198 -451 0
-198 -457 0
-339 -413 0
-339 -451 0
-339 -457 0
-413 -451 0
-413 -457 0
-451 -457 0
117 199 272 408 414 428 437 442 452 0
-117 -199 0
-117 -272 0
-117 -408 0
-117 -414 0
-117 -428 0
-117 -437 0
-117 -442 0
-117 -452 0
-199 -272 0
-199 -408 0
-199 -414 0
-199 -428 0
-199 -437 0
-199 -442 0
-199 -452 0
-272 -408 0
-272 -414 0
-272 -428 0
-272 -437 0
-272 -442 0
-272 -452 0
-408 -414 0
-408 -428 0
-408 -437 0
-408 -442 0
-408 -452 0
-414 -428 0
-414 -437 0
-414 -442 0
-414 -452 0
-428 -437 0
-428 -442 0
-428 -452 0
-437 -442 0
-437 -452 0
-442 -452 0
118 200 273 340 415 422 429 443 458 0
-118 -200 0
-118 -273 0
-118 -340 0
-118 -415 0
-118 -422 0
-118 -429 0
-118 -443 0
-118 -458 0
-200 -273 0
-200 -340 0
-200 -415 0
-200 -422 0
-200 -429 0
-200 -443 0
-200 -458 0
-273 -340 0
-273 -415 0
-273 -422 0
-273 -429 0
-273 -443 0
-273 -458 0
-340 -415 0
-340 -422 0
-340 -429 0
-340 -443 0
-340 -458 0
-415 -422 0
-415 -429 0
-415 -443 0
-415 -458 0
-422 -429 0
-422 -443 0
-422 -458 0
-429 -443 0
-429 -458 0
-443 -458 0
37 119 201 341 423 430 459 0
-37 -119 0
-37 -201 0
-37 -341 0
-37 -423 0
-37 -430 0
-37 -459 0
-119 -201 0
-119 -341 0
-119 -423 0
-119 -430 0
-119 -459 0
-201 -341 0
-201 -423 0
-201 -430 0
-201 -459 0
-341 -423 0
-341 -430 0
-341 -459 0
-423 -430 0
-423 -459 0
-430 -459 0
37 120 342 402 474 483 0
-37 -120 0
-37 -342 0
-37 -402 0
-37 -474 0
-37 -483 0
-120 -342 0
-120 -402 0
-120 -474 0
-120 -483 0
-342 -402 0
-342 -474 0
-342 -483 0
-402 -474 0
-402 -483 0
-474 -483 0
38 44 274 343 475 484 497 0
-38 -44 0
-38 -274 0
-38 -343 0
-38 -475 0
-38 -484 0
-38 -497 0
-44 -274 0
-44 -343 0
-44 -475 0
-44 -484 0
-44 -497 0
-274 -343 0
-274 -475 0
-274 -484 0
-274 -497 0
-343 -475 0
-343 -484 0
-343 -497 0
-475 -484 0
-475 -497 0
-484 -497 0
39 45 121 202 460 485 490 498 504 0
-39 -45 0
-39 -121 0
-39 -202 0
-39 -460 0
-39 -485 0
-39 -490 0
-39 -498 0
-39 -504 0
-45 -121 0
-45 -202 0
-45 -460 0
-45 -485 0
-45 -490 0
-45 -498 0
-45 -504 0
-121 -202 0
-121 -460 0
-121 -485 0
-121 -490 0
-121 -498 0
-121 -504 0
-202 -460 0
-202 -485 0
-202 -490 0
-202 -498 0
-202 -504 0
-460 -485 0
-460 -490 0
-460 -498 0
-460 -504 0
-485 -490 0
-485 -498 0
-485 -504 0
-490 -498 0
-490 -504 0
-498 -504 0
40 46 122 275 467 476 505 0
-40 -46 0
-40 -122 0
-40 -275 0
-40 -467 0
-40 -476 0
-40 -505 0
-46 -122 0
-46 -275 0
-46 -467 0
-46 -476 0
-46 -505 0
-122 -275 0
-122 -467 0
-122 -476 0
-122 -505 0
-275 -467 0
-275 -476 0
-275 -505 0
-467 -476 0
-467 -505 0
-476 -505 0
41 47 203 276 344 468 477 491 0
-41 -47 0
-41 -203 0
-41 -276 0
-41 -344 0
-41 -468 0
-41 -477 0
-41 -491 0
-47 -203 0
-47 -276 0
-47 -344 0
-47 -468 0
-47 -477 0
-47 -491 0
-203 -276 0
-203 -344 0
-203 -468 0
-203 -477 0
-203 -491 0
-276 -344 0
-276 -468 0
-276 -477 0
-276 -491 0
-344 -468 0
-344 -477 0
-344 -491 0
-468 -477 0
-468 -491 0
-477 -491 0
42 48 123 204 403 469 478 499 506 0
-42 -48 0
-42 -123 0
-42 -204 0
-42 -403 0
-42 -469 0
-42 -478 0
-42 -499 0
-42 -506 0
-48 -123 0
-48 -204 0
-48 -403 0
-48 -469 0
-48 -478 0
-48 -499 0
-48 -506 0
-123 -204 0
-123 -403 0
-123 -469 0
-123 -478 0
-123 -499 0
-123 -506 0
-204 -403 0
-204 -469 0
-204 -478 0
-204 -499 0
-204 -506 0
-403 -469 0
-403 -478 0
-403 -499 0
-403 -506 0
-469 -478 0
-469 -499 0
-469 -506 0
-478 -499 0
-478 -506 0
-499 -506 0
345 404 461 470 500 507 0
-345 -404 0
-345 -461 0
-345 -470 0
-345 -500 0
-345 -507 0
-404 -461 0
-404 -470 0
-404 -500 0
-404 -507 0
-461 -470 0
-461 -500 0
-461 -507 0
-470 -500 0
-470 -507 0
-500 -507 0
124 205 462 471 479 486 492 0
-124 -205 0
-124 -462 0
-124 -471 0
-124 -479 0
-124 -486 0
-124 -492 0
-205 -462 0
-205 -471 0
-205 -479 0
-205 -486 0
-205 -492 0
-462 -471 0
-462 -479 0
-462 -486 0
-462 -492 0
-471 -479 0
-471 -486 0
-471 -492 0
-479 -486 0
-479 -492 0
-486 -492 0
277 405 472 487 493 508 0
-277 -405 0
-277 -472 0
-277 -487 0
-277 -493 0
-277 -508 0
-405 -472 0
-405 -487 0
-405 -493 0
-405 -508 0
-472 -487 0
-472 -493 0
-472 -508 0
-487 -493 0
-487 -508 0
-493 -508 0
346 406 473 480 494 501 0
-346 -406 0
-346 -473 0
-346 -480 0
-346 -494 0
-346 -501 0
-406 -473 0
-406 -480 0
-406 -494 0
-406 -501 0
-473 -480 0
-473 -494 0
-473 -501 0
-480 -494 0
-480 -501 0
-494 -501 0
49 278 347 407 463 488 495 0
-49 -278 0
-49 -347 0
-49 -407 0
-49 -463 0
-49 -488 0
-49 -495 0
-278 -347 0
-278 -407 0
-278 -463 0
-278 -488 0
-278 -495 0
-347 -407 0
-347 -463 0
-347 -488 0
-347 -495 0
-407 -463 0
-407 -488 0
-407 -495 0
-463 -488 0
-463 -495 0
-488 -495 0
50 125 206 464 481 489 502 0
-50 -125 0
-50 -206 0
-50 -464 0
-50 -481 0
-50 -489 0
-50 -502 0
-125 -206 0
-125 -464 0
-125 -481 0
-125 -489 0
-125 -502 0
-206 -464 0
-206 -481 0
-206 -489 0
-206 -502 0
-464 -481 0
-464 -489 0
-464 -502 0
-481 -489 0
-481 -502 0
-489 -502 0
51 126 207 279 348 465 482 0
-51 -126 0
-51 -207 0
-51 -279 0
-51 -348 0
-51 -465 0
-51 -482 0
-126 -207 0
-126 -279 0
-126 -348 0
-126 -465 0
-126 -482 0
-207 -279 0
-207 -348 0
-207 -465 0
-207 -482 0
-279 -348 0
-279 -465 0
-279 -482 0
-348 -465 0
-348 -482 0
-465 -482 0
43 127 280 408 466 496 503 0
-43 -127 0
-43 -280 0
-43 -408 0
-43 -466 0
-43 -496 0
-43 -503 0
-127 -280 0
-127 -408 0
-127 -466 0
-127 -496 0
-127 -503 0
-280 -408 0
-280 -466 0
-280 -496 0
-280 -503 0
-408 -466 0
-408 -496 0
-408 -503 0
-466 -496 0
-466 -503 0
-496 -503 0
53 128 349 409 536 0
-53 -128 0
-53 -349 0
-53 -409 0
-53 -536 0
-128 -349 0
-128 -409 0
-128 -536 0
-349 -409 0
-349 -536 0
-409 -536 0
44 129 208 350 410 460 517 523 0
-44 -129 0
-44 -208 0
-44 -350 0
-44 -410 0
-44 -460 0
-44 -517 0
-44 -523 0
-129 -208 0
-129 -350 0
-129 -410 0
-129 -460 0
-129 -517 0
-129 -523 0
-208 -350 0
-208 -410 0
-208 -460 0
-208 -517 0
-208 -523 0
-350 -410 0
-350 -460 0
-350 -517 0
-350 -523 0
-410 -460 0
-410 -517 0
-410 -523 0
-460 -517 0
-460 -523 0
-517 -523 0
45 54 209 281 463 509 529 537 0
-45 -54 0
-45 -209 0
-45 -281 0
-45 -463 0
-45 -509 0
-45 -529 0
-45 -537 0
-54 -209 0
-54 -281 0
-54 -463 0
-54 -509 0
-54 -529 0
-54 -537 0
-209 -281 0
-209 -463 0
-209 -509 0
-209 -529 0
-209 -537 0
-281 -463 0
-281 -509 0
-281 -529 0
-281 -537 0
-463 -509 0
-463 -529 0
-463 -537 0
-509 -529 0
-509 -537 0
-529 -537 0
46 55 130 210 351 411 464 530 538 0
-46 -55 0
-46 -130 0
-46 -210 0
-46 -351 0
-46 -411 0
-46 -464 0
-46 -530 0
-46 -538 0
-55 -130 0
-55 -210 0
-55 -351 0
-55 -411 0
-55 -464 0
-55 -530 0
-55 -538 0
-130 -210 0
-130 -351 0
-130 -411 0
-130 -464 0
-130 -530 0
-130 -538 0
-210 -351 0
-210 -411 0
-210 -464 0
-210 -530 0
-210 -538 0
-351 -411 0
-351 -464 0
-351 -530 0
-351 -538 0
-411 -464 0
-411 -530 0
-411 -538 0
-464 -530 0
-464 -538 0
-530 -538 0
47 56 131 282 412 465 510 531 0
-47 -56 0
-47 -131 0
-47 -282 0
-47 -412 0
-47 -465 0
-47 -510 0
-47 -531 0
-56 -131 0
-56 -282 0
-56 -412 0
-56 -465 0
-56 -510 0
-56 -531 0
-131 -282 0
-131 -412 0
-131 -465 0
-131 -510 0
-131 -531 0
-282 -412 0
-282 -465 0
-282 -510 0
-282 -531 0
-412 -465 0
-412 -510 0
-412 -531 0
-465 -510 0
-465 -531 0
-510 -531 0
48 132 461 466 518 524 539 0
-48 -132 0
-48 -461 0
-48 -466 0
-48 -518 0
-48 -524 0
-48 -539 0
-132 -461 0
-132 -466 0
-132 -518 0
-132 -524 0
-132 -539 0
-461 -466 0
-461 -518 0
-461 -524 0
-461 -539 0
-466 -518 0
-466 -524 0
-466 -539 0
-518 -524 0
-518 -539 0
-524 -539 0
57 283 462 511 519 525 540 0
-57 -283 0
-57 -462 0
-57 -511 0
-57 -519 0
-57 -525 0
-57 -540 0
-283 -462 0
-283 -511 0
-283 -519 0
-283 -525 0
-283 -540 0
-462 -511 0
-462 -519 0
-462 -525 0
-462 -540 0
-511 -519 0
-511 -525 0
-511 -540 0
-519 -525 0
-519 -540 0
-525 -540 0
211 352 512 520 526 541 0
-211 -352 0
-211 -512 0
-211 -520 0
-211 -526 0
-211 -541 0
-352 -512 0
-352 -520 0
-352 -526 0
-352 -541 0
-512 -520 0
-512 -526 0
-512 -541 0
-520 -526 0
-520 -541 0
-526 -541 0
212 284 460 463 521 527 532 0
-212 -284 0
-212 -460 0
-212 -463 0
-212 -521 0
-212 -527 0
-212 -532 0
-284 -460 0
-284 -463 0
-284 -521 0
-284 -527 0
-284 -532 0
-460 -463 0
-460 -521 0
-460 -527 0
-460 -532 0
-463 -521 0
-463 -527 0
-463 -532 0
-521 -527 0
-521 -532 0
-527 -532 0
49 133 353 464 513 533 0
-49 -133 0
-49 -353 0
-49 -464 0
-49 -513 0
-49 -533 0
-133 -353 0
-133 -464 0
-133 -513 0
-133 -533 0
-353 -464 0
-353 -513 0
-353 -533 0
-464 -513 0
-464 -533 0
-513 -533 0
50 213 285 413 465 514 534 542 0
-50 -213 0
-50 -285 0
-50 -413 0
-50 -465 0
-50 -514 0
-50 -534 0
-50 -542 0
-213 -285 0
-213 -413 0
-213 -465 0
-213 -514 0
-213 -534 0
-213 -542 0
-285 -413 0
-285 -465 0
-285 -514 0
-285 -534 0
-285 -542 0
-413 -465 0
-413 -514 0
-413 -534 0
-413 -542 0
-465 -514 0
-465 -534 0
-465 -542 0
-514 -534 0
-514 -542 0
-534 -542 0
51 134 214 354 414 466 515 522 528 0
-51 -134 0
-51 -214 0
-51 -354 0
-51 -414 0
-51 -466 0
-51 -515 0
-51 -522 0
-51 -528 0
-134 -214 0
-134 -354 0
-134 -414 0
-134 -466 0
-134 -515 0
-134 -522 0
-134 -528 0
-214 -354 0
-214 -414 0
-214 -466 0
-214 -515 0
-214 -522 0
-214 -528 0
-354 -414 0
-354 -466 0
-354 -515 0
-354 -522 0
-354 -528 0
-414 -466 0
-414 -515 0
-414 -522 0
-414 -528 0
-466 -515 0
-466 -522 0
-466 -528 0
-515 -522 0
-515 -528 0
-522 -528 0
135 215 355 415 461 535 543 0
-135 -215 0
-135 -355 0
-135 -415 0
-135 -461 0
-135 -535 0
-135 -543 0
-215 -355 0
-215 -415 0
-215 -461 0
-215 -535 0
-215 -543 0
-355 -415 0
-355 -461 0
-355 -535 0
-355 -543 0
-415 -461 0
-415 -535 0
-415 -543 0
-461 -535 0
-461 -543 0
-535 -543 0
52 136 216 286 356 462 516 544 0
-52 -136 0
-52 -216 0
-52 -286 0
-52 -356 0
-52 -462 0
-52 -516 0
-52 -544 0
-136 -216 0
-136 -286 0
-136 -356 0
-136 -462 0
-136 -516 0
-136 -544 0
-216 -286 0
-216 -356 0
-216 -462 0
-216 -516 0
-216 -544 0
-286 -356 0
-286 -462 0
-286 -516 0
-286 -544 0
-356 -462 0
-356 -516 0
-356 -544 0
-462 -516 0
-462 -544 0
-516 -544 0
52 59 137 357 416 545 552 0
-52 -59 0
-52 -137 0
-52 -357 0
-52 -416 0
-52 -545 0
-52 -552 0
-59 -137 0
-59 -357 0
-59 -416 0
-59 -545 0
-59 -552 0
-137 -357 0
-137 -416 0
-137 -545 0
-137 -552 0
-357 -416 0
-357 -545 0
-357 -552 0
-416 -545 0
-416 -552 0
-545 -552 0
53 60 287 358 405 417 546 568 0
-53 -60 0
-53 -287 0
-53 -358 0
-53 -405 0
-53 -417 0
-53 -546 0
-53 -568 0
-60 -287 0
-60 -358 0
-60 -405 0
-60 -417 0
-60 -546 0
-60 -568 0
-287 -358 0
-287 -405 0
-287 -417 0
-287 -546 0
-287 -568 0
-358 -405 0
-358 -417 0
-358 -546 0
-358 -568 0
-405 -417 0
-405 -546 0
-405 -568 0
-417 -546 0
-417 -568 0
-546 -568 0
61 217 406 418 553 560 569 0
-61 -217 0
-61 -406 0
-61 -418 0
-61 -553 0
-61 -560 0
-61 -569 0
-217 -406 0
-217 -418 0
-217 -553 0
-217 -560 0
-217 -569 0
-406 -418 0
-406 -553 0
-406 -560 0
-406 -569 0
-418 -553 0
-418 -560 0
-418 -569 0
-553 -560 0
-553 -569 0
-560 -569 0
138 218 288 419 463 467 554 561 0
-138 -218 0
-138 -288 0
-138 -419 0
-138 -463 0
-138 -467 0
-138 -554 0
-138 -561 0
-218 -288 0
-218 -419 0
-218 -463 0
-218 -467 0
-218 -554 0
-218 -561 0
-288 -419 0
-288 -463 0
-288 -467 0
-288 -554 0
-288 -561 0
-419 -463 0
-419 -467 0
-419 -554 0
-419 -561 0
-463 -467 0
-463 -554 0
-463 -561 0
-467 -554 0
-467 -561 0
-554 -561 0
54 62 139 359 407 464 468 555 0
-54 -62 0
-54 -139 0
-54 -359 0
-54 -407 0
-54 -464 0
-54 -468 0
-54 -555 0
-62 -139 0
-62 -359 0
-62 -407 0
-62 -464 0
-62 -468 0
-62 -555 0
-139 -359 0
-139 -407 0
-139 -464 0
-139 -468 0
-139 -555 0
-359 -407 0
-359 -464 0
-359 -468 0
-359 -555 0
-407 -464 0
-407 -468 0
-407 -555 0
-464 -468 0
-464 -555 0
-468 -555 0
55 140 219 289 465 469 562 570 0
-55 -140 0
-55 -219 0
-55 -289 0
-55 -465 0
-55 -469 0
-55 -562 0
-55 -570 0
-140 -219 0
-140 -289 0
-140 -465 0
-140 -469 0
-140 -562 0
-140 -570 0
-219 -289 0
-219 -465 0
-219 -469 0
-219 -562 0
-219 -570 0
-289 -465 0
-289 -469 0
-289 -562 0
-289 -570 0
-465 -469 0
-465 -562 0
-465 -570 0
-469 -562 0
-469 -570 0
-562 -570 0
56 220 360 466 470 547 563 0
-56 -220 0
-56 -360 0
-56 -466 0
-56 -470 0
-56 -547 0
-56 -563 0
-220 -360 0
-220 -466 0
-220 -470 0
-220 -547 0
-220 -563 0
-360 -466 0
-360 -470 0
-360 -547 0
-360 -563 0
-466 -470 0
-466 -547 0
-466 -563 0
-470 -547 0
-470 -563 0
-547 -563 0
141 221 408 471 556 564 571 0
-141 -221 0
-141 -408 0
-141 -471 0
-141 -556 0
-141 -564 0
-141 -571 0
-221 -408 0
-221 -471 0
-221 -556 0
-221 -564 0
-221 -571 0
-408 -471 0
-408 -556 0
-408 -564 0
-408 -571 0
-471 -556 0
-471 -564 0
-471 -571 0
-556 -564 0
-556 -571 0
-564 -571 0
57 63 142 361 420 472 548 557 572 0
-57 -63 0
-57 -142 0
-57 -361 0
-57 -420 0
-57 -472 0
-57 -548 0
-57 -557 0
-57 -572 0
-63 -142 0
-63 -361 0
-63 -420 0
-63 -472 0
-63 -548 0
-63 -557 0
-63 -572 0
-142 -361 0
-142 -420 0
-142 -472 0
-142 -548 0
-142 -557 0
-142 -572 0
-361 -420 0
-361 -472 0
-361 -548 0
-361 -557 0
-361 -572 0
-420 -472 0
-420 -548 0
-420 -557 0
-420 -572 0
-472 -548 0
-472 -557 0
-472 -572 0
-548 -557 0
-548 -572 0
-557 -572 0
64 362 473 549 558 565 573 0
-64 -362 0
-64 -473 0
-64 -549 0
-64 -558 0
-64 -565 0
-64 -573 0
-362 -473 0
-362 -549 0
-362 -558 0
-362 -565 0
-362 -573 0
-473 -549 0
-473 -558 0
-473 -565 0
-473 -573 0
-549 -558 0
-549 -565 0
-549 -573 0
-558 -565 0
-558 -573 0
-565 -573 0
222 290 363 402 574 0
-222 -290 0
-222 -363 0
-222 -402 0
-222 -574 0
-290 -363 0
-290 -402 0
-290 -574 0
-363 -402 0
-363 -574 0
-402 -574 0
65 223 291 421 460 550 559 566 0
-65 -223 0
-65 -291 0
-65 -421 0
-65 -460 0
-65 -550 0
-65 -559 0
-65 -566 0
-223 -291 0
-223 -421 0
-223 -460 0
-223 -550 0
-223 -559 0
-223 -566 0
-291 -421 0
-291 -460 0
-291 -550 0
-291 -559 0
-291 -566 0
-421 -460 0
-421 -550 0
-421 -559 0
-421 -566 0
-460 -550 0
-460 -559 0
-460 -566 0
-550 -559 0
-550 -566 0
-559 -566 0
292 403 422 461 551 567 0
-292 -403 0
-292 -422 0
-292 -461 0
-292 -551 0
-292 -567 0
-403 -422 0
-403 -461 0
-403 -551 0
-403 -567 0
-422 -461 0
-422 -551 0
-422 -567 0
-461 -551 0
-461 -567 0
-551 -567 0
58 143 224 293 404 423 462 575 0
-58 -143 0
-58 -224 0
-58 -293 0
-58 -404 0
-58 -423 0
-58 -462 0
-58 -575 0
-143 -224 0
-143 -293 0
-143 -404 0
-143 -423 0
-143 -462 0
-143 -575 0
-224 -293 0
-224 -404 0
-224 -423 0
-224 -462 0
-224 -575 0
-293 -404 0
-293 -423 0
-293 -462 0
-293 -575 0
-404 -423 0
-404 -462 0
-404 -575 0
-423 -462 0
-423 -575 0
-462 -575 0
58 67 144 336 364 474 0
-58 -67 0
-58 -144 0
-58 -336 0
-58 -364 0
-58 -474 0
-67 -144 0
-67 -336 0
-67 -364 0
-67 -474 0
-144 -336 0
-144 -364 0
-144 -474 0
-336 -364 0
-336 -474 0
-364 -474 0
59 294 365 405 424 475 576 584 0
-59 -294 0
-59 -365 0
-59 -405 0
-59 -424 0
-59 -475 0
-59 -576 0
-59 -584 0
-294 -365 0
-294 -405 0
-294 -424 0
-294 -475 0
-294 -576 0
-294 -584 0
-365 -405 0
-365 -424 0
-365 -475 0
-365 -576 0
-365 -584 0
-405 -424 0
-405 -475 0
-405 -576 0
-405 -584 0
-424 -475 0
-424 -576 0
-424 -584 0
-475 -576 0
-475 -584 0
-576 -584 0
60 68 145 225 337 366 406 425 577 0
-60 -68 0
-60 -145 0
-60 -225 0
-60 -337 0
-60 -366 0
-60 -406 0
-60 -425 0
-60 -577 0
-68 -145 0
-68 -225 0
-68 -337 0
-68 -366 0
-68 -406 0
-68 -425 0
-68 -577 0
-145 -225 0
-145 -337 0
-145 -366 0
-145 -406 0
-145 -425 0
-145 -577 0
-225 -337 0
-225 -366 0
-225 -406 0
-225 -425 0
-225 -577 0
-337 -366 0
-337 -406 0
-337 -425 0
-337 -577 0
-366 -406 0
-366 -425 0
-366 -577 0
-406 -425 0
-406 -577 0
-425 -577 0
61 146 295 338 476 509 578 585 592 0
-61 -146 0
-61 -295 0
-61 -338 0
-61 -476 0
-61 -509 0
-61 -578 0
-61 -585 0
-61 -592 0
-146 -295 0
-146 -338 0
-146 -476 0
-146 -509 0
-146 -578 0
-146 -585 0
-146 -592 0
-295 -338 0
-295 -476 0
-295 -509 0
-295 -578 0
-295 -585 0
-295 -592 0
-338 -476 0
-338 -509 0
-338 -578 0
-338 -585 0
-338 -592 0
-476 -509 0
-476 -578 0
-476 -585 0
-476 -592 0
-509 -578 0
-509 -585 0
-509 -592 0
-578 -585 0
-578 -592 0
-585 -592 0
226 296 367 407 426 477 586 593 0
-226 -296 0
-226 -367 0
-226 -407 0
-226 -426 0
-226 -477 0
-226 -586 0
-226 -593 0
-296 -367 0
-296 -407 0
-296 -426 0
-296 -477 0
-296 -586 0
-296 -593 0
-367 -407 0
-367 -426 0
-367 -477 0
-367 -586 0
-367 -593 0
-407 -426 0
-407 -477 0
-407 -586 0
-407 -593 0
-426 -477 0
-426 -586 0
-426 -593 0
-477 -586 0
-477 -593 0
-586 -593 0
62 147 227 478 510 587 0
-62 -147 0
-62 -227 0
-62 -478 0
-62 -510 0
-62 -587 0
-147 -227 0
-147 -478 0
-147 -510 0
-147 -587 0
-227 -478 0
-227 -510 0
-227 -587 0
-478 -510 0
-478 -587 0
-510 -587 0
297 339 408 479 511 579 594 0
-297 -339 0
-297 -408 0
-297 -479 0
-297 -511 0
-297 -579 0
-297 -594 0
-339 -408 0
-339 -479 0
-339 -511 0
-339 -579 0
-339 -594 0
-408 -479 0
-408 -511 0
-408 -579 0
-408 -594 0
-479 -511 0
-479 -579 0
-479 -594 0
-511 -579 0
-511 -594 0
-579 -594 0
63 69 298 340 368 427 480 580 588 0
-63 -69 0
-63 -298 0
-63 -340 0
-63 -368 0
-63 -427 0
-63 -480 0
-63 -580 0
-63 -588 0
-69 -298 0
-69 -340 0
-69 -368 0
-69 -427 0
-69 -480 0
-69 -580 0
-69 -588 0
-298 -340 0
-298 -368 0
-298 -427 0
-298 -480 0
-298 -580 0
-298 -588 0
-340 -368 0
-340 -427 0
-340 -480 0
-340 -580 0
-340 -588 0
-368 -427 0
-368 -480 0
-368 -580 0
-368 -588 0
-427 -480 0
-427 -580 0
-427 -588 0
-480 -580 0
-480 -588 0
-580 -588 0
64 70 299 341 402 512 581 595 0
-64 -70 0
-64 -299 0
-64 -341 0
-64 -402 0
-64 -512 0
-64 -581 0
-64 -595 0
-70 -299 0
-70 -341 0
-70 -402 0
-70 -512 0
-70 -581 0
-70 -595 0
-299 -341 0
-299 -402 0
-299 -512 0
-299 -581 0
-299 -595 0
-341 -402 0
-341 -512 0
-341 -581 0
-341 -595 0
-402 -512 0
-402 -581 0
-402 -595 0
-512 -581 0
-512 -595 0
-581 -595 0
65 228 300 334 481 513 589 0
-65 -228 0
-65 -300 0
-65 -334 0
-65 -481 0
-65 -513 0
-65 -589 0
-228 -300 0
-228 -334 0
-228 -481 0
-228 -513 0
-228 -589 0
-300 -334 0
-300 -481 0
-300 -513 0
-300 -589 0
-334 -481 0
-334 -513 0
-334 -589 0
-481 -513 0
-481 -589 0
-513 -589 0
71 148 301 482 514 590 596 0
-71 -148 0
-71 -301 0
-71 -482 0
-71 -514 0
-71 -590 0
-71 -596 0
-148 -301 0
-148 -482 0
-148 -514 0
-148 -590 0
-148 -596 0
-301 -482 0
-301 -514 0
-301 -590 0
-301 -596 0
-482 -514 0
-482 -590 0
-482 -596 0
-514 -590 0
-514 -596 0
-590 -596 0
229 428 515 582 591 0
-229 -428 0
-229 -515 0
-229 -582 0
-229 -591 0
-428 -515 0
-428 -582 0
-428 -591 0
-515 -582 0
-515 -591 0
-582 -591 0
149 230 302 335 369 403 429 583 597 0
-149 -230 0
-149 -302 0
-149 -335 0
-149 -369 0
-149 -403 0
-149 -429 0
-149 -583 0
-149 -597 0
-230 -302 0
-230 -335 0
-230 -369 0
-230 -403 0
-230 -429 0
-230 -583 0
-230 -597 0
-302 -335 0
-302 -369 0
-302 -403 0
-302 -429 0
-302 -583 0
-302 -597 0
-335 -369 0
-335 -403 0
-335 -429 0
-335 -583 0
-335 -597 0
-369 -403 0
-369 -429 0
-369 -583 0
-369 -597 0
-403 -429 0
-403 -583 0
-403 -597 0
-429 -583 0
-429 -597 0
-583 -597 0
66 370 404 430 516 598 0
-66 -370 0
-66 -404 0
-66 -430 0
-66 -516 0
-66 -598 0
-370 -404 0
-370 -430 0
-370 -516 0
-370 -598 0
-404 -430 0
-404 -516 0
-404 -598 0
-430 -516 0
-430 -598 0
-516 -598 0
66 73 336 431 483 545 605 0
-66 -73 0
-66 -336 0
-66 -431 0
-66 -483 0
-66 -545 0
-66 -605 0
-73 -336 0
-73 -431 0
-73 -483 0
-73 -545 0
-73 -605 0
-336 -431 0
-336 -483 0
-336 -545 0
-336 -605 0
-431 -483 0
-431 -545 0
-431 -605 0
-483 -545 0
-483 -605 0
-545 -605 0
67 74 303 432 484 546 0
-67 -74 0
-67 -303 0
-67 -432 0
-67 -484 0
-67 -546 0
-74 -303 0
-74 -432 0
-74 -484 0
-74 -546 0
-303 -432 0
-303 -484 0
-303 -546 0
-432 -484 0
-432 -546 0
-484 -546 0
231 337 371 485 517 599 606 0
-231 -337 0
-231 -371 0
-231 -485 0
-231 -517 0
-231 -599 0
-231 -606 0
-337 -371 0
-337 -485 0
-337 -517 0
-337 -599 0
-337 -606 0
-371 -485 0
-371 -517 0
-371 -599 0
-371 -606 0
-485 -517 0
-485 -599 0
-485 -606 0
-517 -599 0
-517 -606 0
-599 -606 0
68 150 232 261 304 338 433 600 0
-68 -150 0
-68 -232 0
-68 -261 0
-68 -304 0
-68 -338 0
-68 -433 0
-68 -600 0
-150 -232 0
-150 -261 0
-150 -304 0
-150 -338 0
-150 -433 0
-150 -600 0
-232 -261 0
-232 -304 0
-232 -338 0
-232 -433 0
-232 -600 0
-261 -304 0
-261 -338 0
-261 -433 0
-261 -600 0
-304 -338 0
-304 -433 0
-304 -600 0
-338 -433 0
-338 -600 0
-433 -600 0
151 233 262 434 518 547 601 607 0
-151 -233 0
-151 -262 0
-151 -434 0
-151 -518 0
-151 -547 0
-151 -601 0
-151 -607 0
-233 -262 0
-233 -434 0
-233 -518 0
-233 -547 0
-233 -601 0
-233 -607 0
-262 -434 0
-262 -518 0
-262 -547 0
-262 -601 0
-262 -607 0
-434 -518 0
-434 -547 0
-434 -601 0
-434 -607 0
-518 -547 0
-518 -601 0
-518 -607 0
-547 -601 0
-547 -607 0
-601 -607 0
75 152 234 263 339 486 519 608 0
-75 -152 0
-75 -234 0
-75 -263 0
-75 -339 0
-75 -486 0
-75 -519 0
-75 -608 0
-152 -234 0
-152 -263 0
-152 -339 0
-152 -486 0
-152 -519 0
-152 -608 0
-234 -263 0
-234 -339 0
-234 -486 0
-234 -519 0
-234 -608 0
-263 -339 0
-263 -486 0
-263 -519 0
-263 -608 0
-339 -486 0
-339 -519 0
-339 -608 0
-486 -519 0
-486 -608 0
-519 -608 0
76 153 264 305 372 435 487 548 609 0
-76 -153 0
-76 -264 0
-76 -305 0
-76 -372 0
-76 -435 0
-76 -487 0
-76 -548 0
-76 -609 0
-153 -264 0
-153 -305 0
-153 -372 0
-153 -435 0
-153 -487 0
-153 -548 0
-153 -609 0
-264 -305 0
-264 -372 0
-264 -435 0
-264 -487 0
-264 -548 0
-264 -609 0
-305 -372 0
-305 -435 0
-305 -487 0
-305 -548 0
-305 -609 0
-372 -435 0
-372 -487 0
-372 -548 0
-372 -609 0
-435 -487 0
-435 -548 0
-435 -609 0
-487 -548 0
-487 -609 0
-548 -609 0
77 265 306 340 436 549 0
-77 -265 0
-77 -306 0
-77 -340 0
-77 -436 0
-77 -549 0
-265 -306 0
-265 -340 0
-265 -436 0
-265 -549 0
-306 -340 0
-306 -436 0
-306 -549 0
-340 -436 0
-340 -549 0
-436 -549 0
69 154 266 307 341 373 520 0
-69 -154 0
-69 -266 0
-69 -307 0
-69 -341 0
-69 -373 0
-69 -520 0
-154 -266 0
-154 -307 0
-154 -341 0
-154 -373 0
-154 -520 0
-266 -307 0
-266 -341 0
-266 -373 0
-266 -520 0
-307 -341 0
-307 -373 0
-307 -520 0
-341 -373 0
-341 -520 0
-373 -520 0
70 78 235 267 374 488 521 550 602 0
-70 -78 0
-70 -235 0
-70 -267 0
-70 -374 0
-70 -488 0
-70 -521 0
-70 -550 0
-70 -602 0
-78 -235 0
-78 -267 0
-78 -374 0
-78 -488 0
-78 -521 0
-78 -550 0
-78 -602 0
-235 -267 0
-235 -374 0
-235 -488 0
-235 -521 0
-235 -550 0
-235 -602 0
-267 -374 0
-267 -488 0
-267 -521 0
-267 -550 0
-267 -602 0
-374 -488 0
-374 -521 0
-374 -550 0
-374 -602 0
-488 -521 0
-488 -550 0
-488 -602 0
-521 -550 0
-521 -602 0
-550 -602 0
155 236 308 334 375 489 0
-155 -236 0
-155 -308 0
-155 -334 0
-155 -375 0
-155 -489 0
-236 -308 0
-236 -334 0
-236 -375 0
-236 -489 0
-308 -334 0
-308 -375 0
-308 -489 0
-334 -375 0
-334 -489 0
-375 -489 0
71 237 376 437 522 0
-71 -237 0
-71 -376 0
-71 -437 0
-71 -522 0
-237 -376 0
-237 -437 0
-237 -522 0
-376 -437 0
-376 -522 0
-437 -522 0
156 309 335 377 551 603 610 0
-156 -309 0
-156 -335 0
-156 -377 0
-156 -551 0
-156 -603 0
-156 -610 0
-309 -335 0
-309 -377 0
-309 -551 0
-309 -603 0
-309 -610 0
-335 -377 0
-335 -551 0
-335 -603 0
-335 -610 0
-377 -551 0
-377 -603 0
-377 -610 0
-551 -603 0
-551 -610 0
-603 -610 0
72 157 238 378 604 0
-72 -157 0
-72 -238 0
-72 -378 0
-72 -604 0
-157 -238 0
-157 -378 0
-157 -604 0
-238 -378 0
-238 -604 0
-378 -604 0
72 79 158 438 552 0
-72 -79 0
-72 -158 0
-72 -438 0
-72 -552 0
-79 -158 0
-79 -438 0
-79 -552 0
-158 -438 0
-158 -552 0
-438 -552 0
73 80 180 310 379 576 0
-73 -80 0
-73 -180 0
-73 -310 0
-73 -379 0
-73 -576 0
-80 -180 0
-80 -310 0
-80 -379 0
-80 -576 0
-180 -310 0
-180 -379 0
-180 -576 0
-310 -379 0
-310 -576 0
-379 -576 0
74 81 239 380 490 523 553 577 611 0
-74 -81 0
-74 -239 0
-74 -380 0
-74 -490 0
-74 -523 0
-74 -553 0
-74 -577 0
-74 -611 0
-81 -239 0
-81 -380 0
-81 -490 0
-81 -523 0
-81 -553 0
-81 -577 0
-81 -611 0
-239 -380 0
-239 -490 0
-239 -523 0
-239 -553 0
-239 -577 0
-239 -611 0
-380 -490 0
-380 -523 0
-380 -553 0
-380 -577 0
-380 -611 0
-490 -523 0
-490 -553 0
-490 -577 0
-490 -611 0
-523 -553 0
-523 -577 0
-523 -611 0
-553 -577 0
-553 -611 0
-577 -611 0
82 181 261 439 554 578 612 0
-82 -181 0
-82 -261 0
-82 -439 0
-82 -554 0
-82 -578 0
-82 -612 0
-181 -261 0
-181 -439 0
-181 -554 0
-181 -578 0
-181 -612 0
-261 -439 0
-261 -554 0
-261 -578 0
-261 -612 0
-439 -554 0
-439 -578 0
-439 -612 0
-554 -578 0
-554 -612 0
-578 -612 0
83 182 311 381 491 555 613 0
-83 -182 0
-83 -311 0
-83 -381 0
-83 -491 0
-83 -555 0
-83 -613 0
-182 -311 0
-182 -381 0
-182 -491 0
-182 -555 0
-182 -613 0
-311 -381 0
-311 -491 0
-311 -555 0
-311 -613 0
-381 -491 0
-381 -555 0
-381 -613 0
-491 -555 0
-491 -613 0
-555 -613 0
159 183 262 382 524 614 0
-159 -183 0
-159 -262 0
-159 -382 0
-159 -524 0
-159 -614 0
-183 -262 0
-183 -382 0
-183 -524 0
-183 -614 0
-262 -382 0
-262 -524 0
-262 -614 0
-382 -524 0
-382 -614 0
-524 -614 0
184 263 312 492 525 556 579 615 0
-184 -263 0
-184 -312 0
-184 -492 0
-184 -525 0
-184 -556 0
-184 -579 0
-184 -615 0
-263 -312 0
-263 -492 0
-263 -525 0
-263 -556 0
-263 -579 0
-263 -615 0
-312 -492 0
-312 -525 0
-312 -556 0
-312 -579 0
-312 -615 0
-492 -525 0
-492 -556 0
-492 -579 0
-492 -615 0
-525 -556 0
-525 -579 0
-525 -615 0
-556 -579 0
-556 -615 0
-579 -615 0
75 84 160 240 264 440 493 557 0
-75 -84 0
-75 -160 0
-75 -240 0
-75 -264 0
-75 -440 0
-75 -493 0
-75 -557 0
-84 -160 0
-84 -240 0
-84 -264 0
-84 -440 0
-84 -493 0
-84 -557 0
-160 -240 0
-160 -264 0
-160 -440 0
-160 -493 0
-160 -557 0
-240 -264 0
-240 -440 0
-240 -493 0
-240 -557 0
-264 -440 0
-264 -493 0
-264 -557 0
-440 -493 0
-440 -557 0
-493 -557 0
76 185 265 313 494 558 580 616 0
-76 -185 0
-76 -265 0
-76 -313 0
-76 -494 0
-76 -558 0
-76 -580 0
-76 -616 0
-185 -265 0
-185 -313 0
-185 -494 0
-185 -558 0
-185 -580 0
-185 -616 0
-265 -313 0
-265 -494 0
-265 -558 0
-265 -580 0
-265 -616 0
-313 -494 0
-313 -558 0
-313 -580 0
-313 -616 0
-494 -558 0
-494 -580 0
-494 -616 0
-558 -580 0
-558 -616 0
-580 -616 0
77 161 241 266 383 526 581 0
-77 -161 0
-77 -241 0
-77 -266 0
-77 -383 0
-77 -526 0
-77 -581 0
-161 -241 0
-161 -266 0
-161 -383 0
-161 -526 0
-161 -581 0
-241 -266 0
-241 -383 0
-241 -526 0
-241 -581 0
-266 -383 0
-266 -526 0
-266 -581 0
-383 -526 0
-383 -581 0
-526 -581 0
186 242 267 441 495 527 559 0
-186 -242 0
-186 -267 0
-186 -441 0
-186 -495 0
-186 -527 0
-186 -559 0
-242 -267 0
-242 -441 0
-242 -495 0
-242 -527 0
-242 -559 0
-267 -441 0
-267 -495 0
-267 -527 0
-267 -559 0
-441 -495 0
-441 -527 0
-441 -559 0
-495 -527 0
-495 -559 0
-527 -559 0
78 85 162 187 243 314 384 0
-78 -85 0
-78 -162 0
-78 -187 0
-78 -243 0
-78 -314 0
-78 -384 0
-85 -162 0
-85 -187 0
-85 -243 0
-85 -314 0
-85 -384 0
-162 -187 0
-162 -243 0
-162 -314 0
-162 -384 0
-187 -243 0
-187 -314 0
-187 -384 0
-243 -314 0
-243 -384 0
-314 -384 0
163 244 315 442 496 528 582 0
-163 -244 0
-163 -315 0
-163 -442 0
-163 -496 0
-163 -528 0
-163 -582 0
-244 -315 0
-244 -442 0
-244 -496 0
-244 -528 0
-244 -582 0
-315 -442 0
-315 -496 0
-315 -528 0
-315 -582 0
-442 -496 0
-442 -528 0
-442 -582 0
-496 -528 0
-496 -582 0
-528 -582 0
164 245 316 385 443 583 617 0
-164 -245 0
-164 -316 0
-164 -385 0
-164 -443 0
-164 -583 0
-164 -617 0
-245 -316 0
-245 -385 0
-245 -443 0
-245 -583 0
-245 -617 0
-316 -385 0
-316 -443 0
-316 -583 0
-316 -617 0
-385 -443 0
-385 -583 0
-385 -617 0
-443 -583 0
-443 -617 0
-583 -617 0
79 93 180 386 444 497 584 0
-79 -93 0
-79 -180 0
-79 -386 0
-79 -444 0
-79 -497 0
-79 -584 0
-93 -180 0
-93 -386 0
-93 -444 0
-93 -497 0
-93 -584 0
-180 -386 0
-180 -444 0
-180 -497 0
-180 -584 0
-386 -444 0
-386 -497 0
-386 -584 0
-444 -497 0
-444 -584 0
-497 -584 0
80 94 165 387 445 498 560 599 0
-80 -94 0
-80 -165 0
-80 -387 0
-80 -445 0
-80 -498 0
-80 -560 0
-80 -599 0
-94 -165 0
-94 -387 0
-94 -445 0
-94 -498 0
-94 -560 0
-94 -599 0
-165 -387 0
-165 -445 0
-165 -498 0
-165 -560 0
-165 -599 0
-387 -445 0
-387 -498 0
-387 -560 0
-387 -599 0
-445 -498 0
-445 -560 0
-445 -599 0
-498 -560 0
-498 -599 0
-560 -599 0
81 87 95 181 529 561 585 600 0
-81 -87 0
-81 -95 0
-81 -181 0
-81 -529 0
-81 -561 0
-81 -585 0
-81 -600 0
-87 -95 0
-87 -181 0
-87 -529 0
-87 -561 0
-87 -585 0
-87 -600 0
-95 -181 0
-95 -529 0
-95 -561 0
-95 -585 0
-95 -600 0
-181 -529 0
-181 -561 0
-181 -585 0
-181 -600 0
-529 -561 0
-529 -585 0
-529 -600 0
-561 -585 0
-561 -600 0
-585 -600 0
82 88 96 182 246 317 446 530 586 0
-82 -88 0
-82 -96 0
-82 -182 0
-82 -246 0
-82 -317 0
-82 -446 0
-82 -530 0
-82 -586 0
-88 -96 0
-88 -182 0
-88 -246 0
-88 -317 0
-88 -446 0
-88 -530 0
-88 -586 0
-96 -182 0
-96 -246 0
-96 -317 0
-96 -446 0
-96 -530 0
-96 -586 0
-182 -246 0
-182 -317 0
-182 -446 0
-182 -530 0
-182 -586 0
-246 -317 0
-246 -446 0
-246 -530 0
-246 -586 0
-317 -446 0
-317 -530 0
-317 -586 0
-446 -530 0
-446 -586 0
-530 -586 0
83 89 97 447 499 531 562 587 0
-83 -89 0
-83 -97 0
-83 -447 0
-83 -499 0
-83 -531 0
-83 -562 0
-83 -587 0
-89 -97 0
-89 -447 0
-89 -499 0
-89 -531 0
-89 -562 0
-89 -587 0
-97 -447 0
-97 -499 0
-97 -531 0
-97 -562 0
-97 -587 0
-447 -499 0
-447 -531 0
-447 -562 0
-447 -587 0
-499 -531 0
-499 -562 0
-499 -587 0
-531 -562 0
-531 -587 0
-562 -587 0
166 183 247 388 448 500 563 601 0
-166 -183 0
-166 -247 0
-166 -388 0
-166 -448 0
-166 -500 0
-166 -563 0
-166 -601 0
-183 -247 0
-183 -388 0
-183 -448 0
-183 -500 0
-183 -563 0
-183 -601 0
-247 -388 0
-247 -448 0
-247 -500 0
-247 -563 0
-247 -601 0
-388 -448 0
-388 -500 0
-388 -563 0
-388 -601 0
-448 -500 0
-448 -563 0
-448 -601 0
-500 -563 0
-500 -601 0
-563 -601 0
90 98 167 184 248 318 564 0
-90 -98 0
-90 -167 0
-90 -184 0
-90 -248 0
-90 -318 0
-90 -564 0
-98 -167 0
-98 -184 0
-98 -248 0
-98 -318 0
-98 -564 0
-167 -184 0
-167 -248 0
-167 -318 0
-167 -564 0
-184 -248 0
-184 -318 0
-184 -564 0
-248 -318 0
-248 -564 0
-318 -564 0
84 91 99 185 319 449 501 565 588 0
-84 -91 0
-84 -99 0
-84 -185 0
-84 -319 0
-84 -449 0
-84 -501 0
-84 -565 0
-84 -588 0
-91 -99 0
-91 -185 0
-91 -319 0
-91 -449 0
-91 -501 0
-91 -565 0
-91 -588 0
-99 -185 0
-99 -319 0
-99 -449 0
-99 -501 0
-99 -565 0
-99 -588 0
-185 -319 0
-185 -449 0
-185 -501 0
-185 -565 0
-185 -588 0
-319 -449 0
-319 -501 0
-319 -565 0
-319 -588 0
-449 -501 0
-449 -565 0
-449 -588 0
-501 -565 0
-501 -588 0
-565 -588 0
186 249 320 389 450 532 566 602 0
-186 -249 0
-186 -320 0
-186 -389 0
-186 -450 0
-186 -532 0
-186 -566 0
-186 -602 0
-249 -320 0
-249 -389 0
-249 -450 0
-249 -532 0
-249 -566 0
-249 -602 0
-320 -389 0
-320 -450 0
-320 -532 0
-320 -566 0
-320 -602 0
-389 -450 0
-389 -532 0
-389 -566 0
-389 -602 0
-450 -532 0
-450 -566 0
-450 -602 0
-532 -566 0
-532 -602 0
-566 -602 0
187 250 321 390 502 533 589 0
-187 -250 0
-187 -321 0
-187 -390 0
-187 -502 0
-187 -533 0
-187 -589 0
-250 -321 0
-250 -390 0
-250 -502 0
-250 -533 0
-250 -589 0
-321 -390 0
-321 -502 0
-321 -533 0
-321 -589 0
-390 -502 0
-390 -533 0
-390 -589 0
-502 -533 0
-502 -589 0
-533 -589 0
85 100 168 251 322 391 451 534 590 0
-85 -100 0
-85 -168 0
-85 -251 0
-85 -322 0
-85 -391 0
-85 -451 0
-85 -534 0
-85 -590 0
-100 -168 0
-100 -251 0
-100 -322 0
-100 -391 0
-100 -451 0
-100 -534 0
-100 -590 0
-168 -251 0
-168 -322 0
-168 -391 0
-168 -451 0
-168 -534 0
-168 -590 0
-251 -322 0
-251 -391 0
-251 -451 0
-251 -534 0
-251 -590 0
-322 -391 0
-322 -451 0
-322 -534 0
-322 -590 0
-391 -451 0
-391 -534 0
-391 -590 0
-451 -534 0
-451 -590 0
-534 -590 0
169 323 392 452 503 591 0
-169 -323 0
-169 -392 0
-169 -452 0
-169 -503 0
-169 -591 0
-323 -392 0
-323 -452 0
-323 -503 0
-323 -591 0
-392 -452 0
-392 -503 0
-392 -591 0
-452 -503 0
-452 -591 0
-503 -591 0
170 252 324 393 535 567 603 0
-170 -252 0
-170 -324 0
-170 -393 0
-170 -535 0
-170 -567 0
-170 -603 0
-252 -324 0
-252 -393 0
-252 -535 0
-252 -567 0
-252 -603 0
-324 -393 0
-324 -535 0
-324 -567 0
-324 -603 0
-393 -535 0
-393 -567 0
-393 -603 0
-535 -567 0
-535 -603 0
-567 -603 0
86 92 171 253 325 394 604 0
-86 -92 0
-86 -171 0
-86 -253 0
-86 -325 0
-86 -394 0
-86 -604 0
-92 -171 0
-92 -253 0
-92 -325 0
-92 -394 0
-92 -604 0
-171 -253 0
-171 -325 0
-171 -394 0
-171 -604 0
-253 -325 0
-253 -394 0
-253 -604 0
-325 -394 0
-325 -604 0
-394 -604 0
1 86 172 395 453 536 605 0
-1 -86 0
-1 -172 0
-1 -395 0
-1 -453 0
-1 -536 0
-1 -605 0
-86 -172 0
-86 -395 0
-86 -453 0
-86 -536 0
-86 -605 0
-172 -395 0
-172 -453 0
-172 -536 0
-172 -605 0
-395 -453 0
-395 -536 0
-395 -605 0
-453 -536 0
-453 -605 0
-536 -605 0
2 93 326 396 568 0
-2 -93 0
-2 -326 0
-2 -396 0
-2 -568 0
-93 -326 0
-93 -396 0
-93 -568 0
-326 -396 0
-326 -568 0
-396 -568 0
3 94 173 454 504 569 606 611 0
-3 -94 0
-3 -173 0
-3 -454 0
-3 -504 0
-3 -569 0
-3 -606 0
-3 -611 0
-94 -173 0
-94 -454 0
-94 -504 0
-94 -569 0
-94 -606 0
-94 -611 0
-173 -454 0
-173 -504 0
-173 -569 0
-173 -606 0
-173 -611 0
-454 -504 0
-454 -569 0
-454 -606 0
-454 -611 0
-504 -569 0
-504 -606 0
-504 -611 0
-569 -606 0
-569 -611 0
-606 -611 0
4 95 174 254 455 505 537 592 612 0
-4 -95 0
-4 -174 0
-4 -254 0
-4 -455 0
-4 -505 0
-4 -537 0
-4 -592 0
-4 -612 0
-95 -174 0
-95 -254 0
-95 -455 0
-95 -505 0
-95 -537 0
-95 -592 0
-95 -612 0
-174 -254 0
-174 -455 0
-174 -505 0
-174 -537 0
-174 -592 0
-174 -612 0
-254 -455 0
-254 -505 0
-254 -537 0
-254 -592 0
-254 -612 0
-455 -505 0
-455 -537 0
-455 -592 0
-455 -612 0
-505 -537 0
-505 -592 0
-505 -612 0
-537 -592 0
-537 -612 0
-592 -612 0
5 87 96 175 327 456 538 593 613 0
-5 -87 0
-5 -96 0
-5 -175 0
-5 -327 0
-5 -456 0
-5 -538 0
-5 -593 0
-5 -613 0
-87 -96 0
-87 -175 0
-87 -327 0
-87 -456 0
-87 -538 0
-87 -593 0
-87 -613 0
-96 -175 0
-96 -327 0
-96 -456 0
-96 -538 0
-96 -593 0
-96 -613 0
-175 -327 0
-175 -456 0
-175 -538 0
-175 -593 0
-175 -613 0
-327 -456 0
-327 -538 0
-327 -593 0
-327 -613 0
-456 -538 0
-456 -593 0
-456 -613 0
-538 -593 0
-538 -613 0
-593 -613 0
88 97 176 255 328 506 570 0
-88 -97 0
-88 -176 0
-88 -255 0
-88 -328 0
-88 -506 0
-88 -570 0
-97 -176 0
-97 -255 0
-97 -328 0
-97 -506 0
-97 -570 0
-176 -255 0
-176 -328 0
-176 -506 0
-176 -570 0
-255 -328 0
-255 -506 0
-255 -570 0
-328 -506 0
-328 -570 0
-506 -570 0
89 177 507 539 607 614 0
-89 -177 0
-89 -507 0
-89 -539 0
-89 -607 0
-89 -614 0
-177 -507 0
-177 -539 0
-177 -607 0
-177 -614 0
-507 -539 0
-507 -607 0
-507 -614 0
-539 -607 0
-539 -614 0
-607 -614 0
98 178 256 329 540 571 594 608 615 0
-98 -178 0
-98 -256 0
-98 -329 0
-98 -540 0
-98 -571 0
-98 -594 0
-98 -608 0
-98 -615 0
-178 -256 0
-178 -329 0
-178 -540 0
-178 -571 0
-178 -594 0
-178 -608 0
-178 -615 0
-256 -329 0
-256 -540 0
-256 -571 0
-256 -594 0
-256 -608 0
-256 -615 0
-329 -540 0
-329 -571 0
-329 -594 0
-329 -608 0
-329 -615 0
-540 -571 0
-540 -594 0
-540 -608 0
-540 -615 0
-571 -594 0
-571 -608 0
-571 -615 0
-594 -608 0
-594 -615 0
-608 -615 0
6 90 179 257 397 508 572 609 0
-6 -90 0
-6 -179 0
-6 -257 0
-6 -397 0
-6 -508 0
-6 -572 0
-6 -609 0
-90 -179 0
-90 -257 0
-90 -397 0
-90 -508 0
-90 -572 0
-90 -609 0
-179 -257 0
-179 -397 0
-179 -508 0
-179 -572 0
-179 -609 0
-257 -397 0
-257 -508 0
-257 -572 0
-257 -609 0
-397 -508 0
-397 -572 0
-397 -609 0
-508 -572 0
-508 -609 0
-572 -609 0
99 330 398 573 616 0
-99 -330 0
-99 -398 0
-99 -573 0
-99 -616 0
-330 -398 0
-330 -573 0
-330 -616 0
-398 -573 0
-398 -616 0
-573 -616 0
7 91 258 331 541 574 595 0
-7 -91 0
-7 -258 0
-7 -331 0
-7 -541 0
-7 -574 0
-7 -595 0
-91 -258 0
-91 -331 0
-91 -541 0
-91 -574 0
-91 -595 0
-258 -331 0
-258 -541 0
-258 -574 0
-258 -595 0
-331 -541 0
-331 -574 0
-331 -595 0
-541 -574 0
-541 -595 0
-574 -595 0
100 259 332 399 457 542 596 0
-100 -259 0
-100 -332 0
-100 -399 0
-100 -457 0
-100 -542 0
-100 -596 0
-259 -332 0
-259 -399 0
-259 -457 0
-259 -542 0
-259 -596 0
-332 -399 0
-332 -457 0
-332 -542 0
-332 -596 0
-399 -457 0
-399 -542 0
-399 -596 0
-457 -542 0
-457 -596 0
-542 -596 0
260 400 458 543 597 610 617 0
-260 -400 0
-260 -458 0
-260 -543 0
-260 -597 0
-260 -610 0
-260 -617 0
-400 -458 0
-400 -543 0
-400 -597 0
-400 -610 0
-400 -617 0
-458 -543 0
-458 -597 0
-458 -610 0
-458 -617 0
-543 -597 0
-543 -610 0
-543 -617 0
-597 -610 0
-597 -617 0
-610 -617 0
92 333 401 459 544 575 598 0
-92 -333 0
-92 -401 0
-92 -459 0
-92 -544 0
-92 -575 0
-92 -598 0
-333 -401 0
-333 -459 0
-333 -544 0
-333 -575 0
-333 -598 0
-401 -459 0
-401 -544 0
-401 -575 0
-401 -598 0
-459 -544 0
-459 -575 0
-459 -598 0
-544 -575 0
-544 -598 0
-575 -598 0
632 640 646 653 661 668 676 0
-632 -640 0
-632 -646 0
-632 -653 0
-632 -661 0
-632 -668 0
-632 -676 0
-640 -646 0
-640 -653 0
-640 -661 0
-640 -668 0
-640 -676 0
-646 -653 0
-646 -661 0
-646 -668 0
-646 -676 0
-653 -661 0
-653 -668 0
-653 -676 0
-661 -668 0
-661 -676 0
-668 -676 0
618 626 633 641 654 662 677 0
-618 -626 0
-618 -633 0
-618 -641 0
-618 -654 0
-618 -662 0
-618 -677 0
-626 -633 0
-626 -641 0
-626 -654 0
-626 -662 0
-626 -677 0
-633 -641 0
-633 -654 0
-633 -662 0
-633 -677 0
-641 -654 0
-641 -662 0
-641 -677 0
-654 -662 0
-654 -677 0
-662 -677 0
86 101 617 634 647 655 669 0
-86 -101 0
-86 -617 0
-86 -634 0
-86 -647 0
-86 -655 0
-86 -669 0
-101 -617 0
-101 -634 0
-101 -647 0
-101 -655 0
-101 -669 0
-617 -634 0
-617 -647 0
-617 -655 0
-617 -669 0
-634 -647 0
-634 -655 0
-634 -669 0
-647 -655 0
-647 -669 0
-655 -669 0
8 102 618 627 642 656 663 678 0
-8 -102 0
-8 -618 0
-8 -627 0
-8 -642 0
-8 -656 0
-8 -663 0
-8 -678 0
-102 -618 0
-102 -627 0
-102 -642 0
-102 -656 0
-102 -663 0
-102 -678 0
-618 -627 0
-618 -642 0
-618 -656 0
-618 -663 0
-618 -678 0
-627 -642 0
-627 -656 0
-627 -663 0
-627 -678 0
-642 -656 0
-642 -663 0
-642 -678 0
-656 -663 0
-656 -678 0
-663 -678 0
9 87 103 611 648 679 0
-9 -87 0
-9 -103 0
-9 -611 0
-9 -648 0
-9 -679 0
-87 -103 0
-87 -611 0
-87 -648 0
-87 -679 0
-103 -611 0
-103 -648 0
-103 -679 0
-611 -648 0
-611 -679 0
-648 -679 0
88 104 612 619 628 635 649 657 664 680 0
-88 -104 0
-88 -612 0
-88 -619 0
-88 -628 0
-88 -635 0
-88 -649 0
-88 -657 0
-88 -664 0
-88 -680 0
-104 -612 0
-104 -619 0
-104 -628 0
-104 -635 0
-104 -649 0
-104 -657 0
-104 -664 0
-104 -680 0
-612 -619 0
-612 -628 0
-612 -635 0
-612 -649 0
-612 -657 0
-612 -664 0
-612 -680 0
-619 -628 0
-619 -635 0
-619 -649 0
-619 -657 0
-619 -664 0
-619 -680 0
-628 -635 0
-628 -649 0
-628 -657 0
-628 -664 0
-628 -680 0
-635 -649 0
-635 -657 0
-635 -664 0
-635 -680 0
-649 -657 0
-649 -664 0
-649 -680 0
-657 -664 0
-657 -680 0
-664 -680 0
10 89 613 620 658 670 0
-10 -89 0
-10 -613 0
-10 -620 0
-10 -658 0
-10 -670 0
-89 -613 0
-89 -620 0
-89 -658 0
-89 -670 0
-613 -620 0
-613 -658 0
-613 -670 0
-620 -658 0
-620 -670 0
-658 -670 0
105 619 621 629 659 671 681 0
-105 -619 0
-105 -621 0
-105 -629 0
-105 -659 0
-105 -671 0
-105 -681 0
-619 -621 0
-619 -629 0
-619 -659 0
-619 -671 0
-619 -681 0
-621 -629 0
-621 -659 0
-621 -671 0
-621 -681 0
-629 -659 0
-629 -671 0
-629 -681 0
-659 -671 0
-659 -681 0
-671 -681 0
90 614 620 622 636 650 672 0
-90 -614 0
-90 -620 0
-90 -622 0
-90 -636 0
-90 -650 0
-90 -672 0
-614 -620 0
-614 -622 0
-614 -636 0
-614 -650 0
-614 -672 0
-620 -622 0
-620 -636 0
-620 -650 0
-620 -672 0
-622 -636 0
-622 -650 0
-622 -672 0
-636 -650 0
-636 -672 0
-650 -672 0
11 106 615 621 623 643 0
-11 -106 0
-11 -615 0
-11 -621 0
-11 -623 0
-11 -643 0
-106 -615 0
-106 -621 0
-106 -623 0
-106 -643 0
-615 -621 0
-615 -623 0
-615 -643 0
-621 -623 0
-621 -643 0
-623 -643 0
91 107 622 624 630 651 665 673 0
-91 -107 0
-91 -622 0
-91 -624 0
-91 -630 0
-91 -651 0
-91 -665 0
-91 -673 0
-107 -622 0
-107 -624 0
-107 -630 0
-107 -651 0
-107 -665 0
-107 -673 0
-622 -624 0
-622 -630 0
-622 -651 0
-622 -665 0
-622 -673 0
-624 -630 0
-624 -651 0
-624 -665 0
-624 -673 0
-630 -651 0
-630 -665 0
-630 -673 0
-651 -665 0
-651 -673 0
-665 -673 0
12 616 623 631 637 644 674 682 0
-12 -616 0
-12 -623 0
-12 -631 0
-12 -637 0
-12 -644 0
-12 -674 0
-12 -682 0
-616 -623 0
-616 -631 0
-616 -637 0
-616 -644 0
-616 -674 0
-616 -682 0
-623 -631 0
-623 -637 0
-623 -644 0
-623 -674 0
-623 -682 0
-631 -637 0
-631 -644 0
-631 -674 0
-631 -682 0
-637 -644 0
-637 -674 0
-637 -682 0
-644 -674 0
-644 -682 0
-674 -682 0
13 624 625 638 645 660 666 675 0
-13 -624 0
-13 -625 0
-13 -638 0
-13 -645 0
-13 -660 0
-13 -666 0
-13 -675 0
-624 -625 0
-624 -638 0
-624 -645 0
-624 -660 0
-624 -666 0
-624 -675 0
-625 -638 0
-625 -645 0
-625 -660 0
-625 -666 0
-625 -675 0
-638 -645 0
-638 -660 0
-638 -666 0
-638 -675 0
-645 -660 0
-645 -666 0
-645 -675 0
-660 -666 0
-660 -675 0
-666 -675 0
625 639 652 667 683 0
-625 -639 0
-625 -652 0
-625 -667 0
-625 -683 0
-639 -652 0
-639 -667 0
-639 -683 0
-652 -667 0
-652 -683 0
-667 -683 0
109 627 684 692 700 708 715 722 0
-109 -627 0
-109 -684 0
-109 -692 0
-109 -700 0
-109 -708 0
-109 -715 0
-109 -722 0
-627 -684 0
-627 -692 0
-627 -700 0
-627 -708 0
-627 -715 0
-627 -722 0
-684 -692 0
-684 -700 0
-684 -708 0
-684 -715 0
-684 -722 0
-692 -700 0
-692 -708 0
-692 -715 0
-692 -722 0
-700 -708 0
-700 -715 0
-700 -722 0
-708 -715 0
-708 -722 0
-715 -722 0
172 617 685 693 709 716 0
-172 -617 0
-172 -685 0
-172 -693 0
-172 -709 0
-172 -716 0
-617 -685 0
-617 -693 0
-617 -709 0
-617 -716 0
-685 -693 0
-685 -709 0
-685 -716 0
-693 -709 0
-693 -716 0
-709 -716 0
14 603 694 701 717 723 0
-14 -603 0
-14 -694 0
-14 -701 0
-14 -717 0
-14 -723 0
-603 -694 0
-603 -701 0
-603 -717 0
-603 -723 0
-694 -701 0
-694 -717 0
-694 -723 0
-701 -717 0
-701 -723 0
-717 -723 0
15 173 604 686 695 702 0
-15 -173 0
-15 -604 0
-15 -686 0
-15 -695 0
-15 -702 0
-173 -604 0
-173 -686 0
-173 -695 0
-173 -702 0
-604 -686 0
-604 -695 0
-604 -702 0
-686 -695 0
-686 -702 0
-695 -702 0
16 174 628 687 703 710 724 730 0
-16 -174 0
-16 -628 0
-16 -687 0
-16 -703 0
-16 -710 0
-16 -724 0
-16 -730 0
-174 -628 0
-174 -687 0
-174 -703 0
-174 -710 0
-174 -724 0
-174 -730 0
-628 -687 0
-628 -703 0
-628 -710 0
-628 -724 0
-628 -730 0
-687 -703 0
-687 -710 0
-687 -724 0
-687 -730 0
-703 -710 0
-703 -724 0
-703 -730 0
-710 -724 0
-710 -730 0
-724 -730 0
175 611 688 704 731 736 0
-175 -611 0
-175 -688 0
-175 -704 0
-175 -731 0
-175 -736 0
-611 -688 0
-611 -704 0
-611 -731 0
-611 -736 0
-688 -704 0
-688 -731 0
-688 -736 0
-704 -731 0
-704 -736 0
-731 -736 0
176 599 612 629 711 718 732 0
-176 -599 0
-176 -612 0
-176 -629 0
-176 -711 0
-176 -718 0
-176 -732 0
-599 -612 0
-599 -629 0
-599 -711 0
-599 -718 0
-599 -732 0
-612 -629 0
-612 -711 0
-612 -718 0
-612 -732 0
-629 -711 0
-629 -718 0
-629 -732 0
-711 -718 0
-711 -732 0
-718 -732 0
17 177 600 613 689 737 0
-17 -177 0
-17 -600 0
-17 -613 0
-17 -689 0
-17 -737 0
-177 -600 0
-177 -613 0
-177 -689 0
-177 -737 0
-600 -613 0
-600 -689 0
-600 -737 0
-613 -689 0
-613 -737 0
-689 -737 0
18 110 178 690 725 738 0
-18 -110 0
-18 -178 0
-18 -690 0
-18 -725 0
-18 -738 0
-110 -178 0
-110 -690 0
-110 -725 0
-110 -738 0
-178 -690 0
-178 -725 0
-178 -738 0
-690 -725 0
-690 -738 0
-725 -738 0
179 614 630 719 726 733 739 0
-179 -614 0
-179 -630 0
-179 -719 0
-179 -726 0
-179 -733 0
-179 -739 0
-614 -630 0
-614 -719 0
-614 -726 0
-614 -733 0
-614 -739 0
-630 -719 0
-630 -726 0
-630 -733 0
-630 -739 0
-719 -726 0
-719 -733 0
-719 -739 0
-726 -733 0
-726 -739 0
-733 -739 0
19 111 601 615 631 696 705 720 727 0
-19 -111 0
-19 -601 0
-19 -615 0
-19 -631 0
-19 -696 0
-19 -705 0
-19 -720 0
-19 -727 0
-111 -601 0
-111 -615 0
-111 -631 0
-111 -696 0
-111 -705 0
-111 -720 0
-111 -727 0
-601 -615 0
-601 -631 0
-601 -696 0
-601 -705 0
-601 -720 0
-601 -727 0
-615 -631 0
-615 -696 0
-615 -705 0
-615 -720 0
-615 -727 0
-631 -696 0
-631 -705 0
-631 -720 0
-631 -727 0
-696 -705 0
-696 -720 0
-696 -727 0
-705 -720 0
-705 -727 0
-720 -727 0
20 112 616 697 706 712 728 734 740 0
-20 -112 0
-20 -616 0
-20 -697 0
-20 -706 0
-20 -712 0
-20 -728 0
-20 -734 0
-20 -740 0
-112 -616 0
-112 -697 0
-112 -706 0
-112 -712 0
-112 -728 0
-112 -734 0
-112 -740 0
-616 -697 0
-616 -706 0
-616 -712 0
-616 -728 0
-616 -734 0
-616 -740 0
-697 -706 0
-697 -712 0
-697 -728 0
-697 -734 0
-697 -740 0
-706 -712 0
-706 -728 0
-706 -734 0
-706 -740 0
-712 -728 0
-712 -734 0
-712 -740 0
-728 -734 0
-728 -740 0
-734 -740 0
113 691 698 713 721 729 735 0
-113 -691 0
-113 -698 0
-113 -713 0
-113 -721 0
-113 -729 0
-113 -735 0
-691 -698 0
-691 -713 0
-691 -721 0
-691 -729 0
-691 -735 0
-698 -713 0
-698 -721 0
-698 -729 0
-698 -735 0
-713 -721 0
-713 -729 0
-713 -735 0
-721 -729 0
-721 -735 0
-729 -735 0
108 602 626 699 707 714 741 0
-108 -602 0
-108 -626 0
-108 -699 0
-108 -707 0
-108 -714 0
-108 -741 0
-602 -626 0
-602 -699 0
-602 -707 0
-602 -714 0
-602 -741 0
-626 -699 0
-626 -707 0
-626 -714 0
-626 -741 0
-699 -707 0
-699 -714 0
-699 -741 0
-707 -714 0
-707 -741 0
-714 -741 0
21 260 634 751 759 765 781 0
-21 -260 0
-21 -634 0
-21 -751 0
-21 -759 0
-21 -765 0
-21 -781 0
-260 -634 0
-260 -751 0
-260 -759 0
-260 -765 0
-260 -781 0
-634 -751 0
-634 -759 0
-634 -765 0
-634 -781 0
-751 -759 0
-751 -765 0
-751 -781 0
-759 -765 0
-759 -781 0
-765 -781 0
114 582 603 618 742 766 787 0
-114 -582 0
-114 -603 0
-114 -618 0
-114 -742 0
-114 -766 0
-114 -787 0
-582 -603 0
-582 -618 0
-582 -742 0
-582 -766 0
-582 -787 0
-603 -618 0
-603 -742 0
-603 -766 0
-603 -787 0
-618 -742 0
-618 -766 0
-618 -787 0
-742 -766 0
-742 -787 0
-766 -787 0
22 583 604 743 752 760 771 0
-22 -583 0
-22 -604 0
-22 -743 0
-22 -752 0
-22 -760 0
-22 -771 0
-583 -604 0
-583 -743 0
-583 -752 0
-583 -760 0
-583 -771 0
-604 -743 0
-604 -752 0
-604 -760 0
-604 -771 0
-743 -752 0
-743 -760 0
-743 -771 0
-752 -760 0
-752 -771 0
-760 -771 0
115 254 635 767 772 782 788 0
-115 -254 0
-115 -635 0
-115 -767 0
-115 -772 0
-115 -782 0
-115 -788 0
-254 -635 0
-254 -767 0
-254 -772 0
-254 -782 0
-254 -788 0
-635 -767 0
-635 -772 0
-635 -782 0
-635 -788 0
-767 -772 0
-767 -782 0
-767 -788 0
-772 -782 0
-772 -788 0
-782 -788 0
116 255 576 599 744 753 761 768 773 783 0
-116 -255 0
-116 -576 0
-116 -599 0
-116 -744 0
-116 -753 0
-116 -761 0
-116 -768 0
-116 -773 0
-116 -783 0
-255 -576 0
-255 -599 0
-255 -744 0
-255 -753 0
-255 -761 0
-255 -768 0
-255 -773 0
-255 -783 0
-576 -599 0
-576 -744 0
-576 -753 0
-576 -761 0
-576 -768 0
-576 -773 0
-576 -783 0
-599 -744 0
-599 -753 0
-599 -761 0
-599 -768 0
-599 -773 0
-599 -783 0
-744 -753 0
-744 -761 0
-744 -768 0
-744 -773 0
-744 -783 0
-753 -761 0
-753 -768 0
-753 -773 0
-753 -783 0
-761 -768 0
-761 -773 0
-761 -783 0
-768 -773 0
-768 -783 0
-773 -783 0
23 577 600 636 745 762 0
-23 -577 0
-23 -600 0
-23 -636 0
-23 -745 0
-23 -762 0
-577 -600 0
-577 -636 0
-577 -745 0
-577 -762 0
-600 -636 0
-600 -745 0
-600 -762 0
-636 -745 0
-636 -762 0
-745 -762 0
24 256 578 619 774 789 0
-24 -256 0
-24 -578 0
-24 -619 0
-24 -774 0
-24 -789 0
-256 -578 0
-256 -619 0
-256 -774 0
-256 -789 0
-578 -619 0
-578 -774 0
-578 -789 0
-619 -774 0
-619 -789 0
-774 -789 0
25 257 620 769 775 784 790 0
-25 -257 0
-25 -620 0
-25 -769 0
-25 -775 0
-25 -784 0
-25 -790 0
-257 -620 0
-257 -769 0
-257 -775 0
-257 -784 0
-257 -790 0
-620 -769 0
-620 -775 0
-620 -784 0
-620 -790 0
-769 -775 0
-769 -784 0
-769 -790 0
-775 -784 0
-775 -790 0
-784 -790 0
26 601 621 637 746 754 776 0
-26 -601 0
-26 -621 0
-26 -637 0
-26 -746 0
-26 -754 0
-26 -776 0
-601 -621 0
-601 -637 0
-601 -746 0
-601 -754 0
-601 -776 0
-621 -637 0
-621 -746 0
-621 -754 0
-621 -776 0
-637 -746 0
-637 -754 0
-637 -776 0
-746 -754 0
-746 -776 0
-754 -776 0
27 258 622 638 755 777 0
-27 -258 0
-27 -622 0
-27 -638 0
-27 -755 0
-27 -777 0
-258 -622 0
-258 -638 0
-258 -755 0
-258 -777 0
-622 -638 0
-622 -755 0
-622 -777 0
-638 -755 0
-638 -777 0
-755 -777 0
28 117 579 623 747 778 785 791 0
-28 -117 0
-28 -579 0
-28 -623 0
-28 -747 0
-28 -778 0
-28 -785 0
-28 -791 0
-117 -579 0
-117 -623 0
-117 -747 0
-117 -778 0
-117 -785 0
-117 -791 0
-579 -623 0
-579 -747 0
-579 -778 0
-579 -785 0
-579 -791 0
-623 -747 0
-623 -778 0
-623 -785 0
-623 -791 0
-747 -778 0
-747 -785 0
-747 -791 0
-778 -785 0
-778 -791 0
-785 -791 0
29 118 624 639 748 756 763 779 792 0
-29 -118 0
-29 -624 0
-29 -639 0
-29 -748 0
-29 -756 0
-29 -763 0
-29 -779 0
-29 -792 0
-118 -624 0
-118 -639 0
-118 -748 0
-118 -756 0
-118 -763 0
-118 -779 0
-118 -792 0
-624 -639 0
-624 -748 0
-624 -756 0
-624 -763 0
-624 -779 0
-624 -792 0
-639 -748 0
-639 -756 0
-639 -763 0
-639 -779 0
-639 -792 0
-748 -756 0
-748 -763 0
-748 -779 0
-748 -792 0
-756 -763 0
-756 -779 0
-756 -792 0
-763 -779 0
-763 -792 0
-779 -792 0
119 259 580 632 749 757 764 770 0
-119 -259 0
-119 -580 0
-119 -632 0
-119 -749 0
-119 -757 0
-119 -764 0
-119 -770 0
-259 -580 0
-259 -632 0
-259 -749 0
-259 -757 0
-259 -764 0
-259 -770 0
-580 -632 0
-580 -749 0
-580 -757 0
-580 -764 0
-580 -770 0
-632 -749 0
-632 -757 0
-632 -764 0
-632 -770 0
-749 -757 0
-749 -764 0
-749 -770 0
-757 -764 0
-757 -770 0
-764 -770 0
581 602 625 633 750 758 780 786 793 0
-581 -602 0
-581 -625 0
-581 -633 0
-581 -750 0
-581 -758 0
-581 -780 0
-581 -786 0
-581 -793 0
-602 -625 0
-602 -633 0
-602 -750 0
-602 -758 0
-602 -780 0
-602 -786 0
-602 -793 0
-625 -633 0
-625 -750 0
-625 -758 0
-625 -780 0
-625 -786 0
-625 -793 0
-633 -750 0
-633 -758 0
-633 -780 0
-633 -786 0
-633 -793 0
-750 -758 0
-750 -780 0
-750 -786 0
-750 -793 0
-758 -780 0
-758 -786 0
-758 -793 0
-780 -786 0
-780 -793 0
-786 -793 0
30 121 333 550 626 642 684 802 809 816 825 0
-30 -121 0
-30 -333 0
-30 -550 0
-30 -626 0
-30 -642 0
-30 -684 0
-30 -802 0
-30 -809 0
-30 -816 0
-30 -825 0
-121 -333 0
-121 -550 0
-121 -626 0
-121 -642 0
-121 -684 0
-121 -802 0
-121 -809 0
-121 -816 0
-121 -825 0
-333 -550 0
-333 -626 0
-333 -642 0
-333 -684 0
-333 -802 0
-333 -809 0
-333 -816 0
-333 -825 0
-550 -626 0
-550 -642 0
-550 -684 0
-550 -802 0
-550 -809 0
-550 -816 0
-550 -825 0
-626 -642 0
-626 -684 0
-626 -802 0
-626 -809 0
-626 -816 0
-626 -825 0
-642 -684 0
-642 -802 0
-642 -809 0
-642 -816 0
-642 -825 0
-684 -802 0
-684 -809 0
-684 -816 0
-684 -825 0
-802 -809 0
-802 -816 0
-802 -825 0
-809 -816 0
-809 -825 0
-816 -825 0
31 122 685 794 803 810 831 0
-31 -122 0
-31 -685 0
-31 -794 0
-31 -803 0
-31 -810 0
-31 -831 0
-122 -685 0
-122 -794 0
-122 -803 0
-122 -810 0
-122 -831 0
-685 -794 0
-685 -803 0
-685 -810 0
-685 -831 0
-794 -803 0
-794 -810 0
-794 -831 0
-803 -810 0
-803 -831 0
-810 -831 0
32 326 582 627 795 817 0
-32 -326 0
-32 -582 0
-32 -627 0
-32 -795 0
-32 -817 0
-326 -582 0
-326 -627 0
-326 -795 0
-326 -817 0
-582 -627 0
-582 -795 0
-582 -817 0
-627 -795 0
-627 -817 0
-795 -817 0
123 583 686 796 804 818 832 0
-123 -583 0
-123 -686 0
-123 -796 0
-123 -804 0
-123 -818 0
-123 -832 0
-583 -686 0
-583 -796 0
-583 -804 0
-583 -818 0
-583 -832 0
-686 -796 0
-686 -804 0
-686 -818 0
-686 -832 0
-796 -804 0
-796 -818 0
-796 -832 0
-804 -818 0
-804 -832 0
-818 -832 0
33 551 687 797 819 826 833 0
-33 -551 0
-33 -687 0
-33 -797 0
-33 -819 0
-33 -826 0
-33 -833 0
-551 -687 0
-551 -797 0
-551 -819 0
-551 -826 0
-551 -833 0
-687 -797 0
-687 -819 0
-687 -826 0
-687 -833 0
-797 -819 0
-797 -826 0
-797 -833 0
-819 -826 0
-819 -833 0
-826 -833 0
124 327 688 798 805 811 0
-124 -327 0
-124 -688 0
-124 -798 0
-124 -805 0
-124 -811 0
-327 -688 0
-327 -798 0
-327 -805 0
-327 -811 0
-688 -798 0
-688 -805 0
-688 -811 0
-798 -805 0
-798 -811 0
-805 -811 0
328 545 576 628 799 812 820 834 0
-328 -545 0
-328 -576 0
-328 -628 0
-328 -799 0
-328 -812 0
-328 -820 0
-328 -834 0
-545 -576 0
-545 -628 0
-545 -799 0
-545 -812 0
-545 -820 0
-545 -834 0
-576 -628 0
-576 -799 0
-576 -812 0
-576 -820 0
-576 -834 0
-628 -799 0
-628 -812 0
-628 -820 0
-628 -834 0
-799 -812 0
-799 -820 0
-799 -834 0
-812 -820 0
-812 -834 0
-820 -834 0
546 577 689 806 835 0
-546 -577 0
-546 -689 0
-546 -806 0
-546 -835 0
-577 -689 0
-577 -806 0
-577 -835 0
-689 -806 0
-689 -835 0
-806 -835 0
34 329 578 629 643 690 813 821 0
-34 -329 0
-34 -578 0
-34 -629 0
-34 -643 0
-34 -690 0
-34 -813 0
-34 -821 0
-329 -578 0
-329 -629 0
-329 -643 0
-329 -690 0
-329 -813 0
-329 -821 0
-578 -629 0
-578 -643 0
-578 -690 0
-578 -813 0
-578 -821 0
-629 -643 0
-629 -690 0
-629 -813 0
-629 -821 0
-643 -690 0
-643 -813 0
-643 -821 0
-690 -813 0
-690 -821 0
-813 -821 0
35 125 330 644 800 814 0
-35 -125 0
-35 -330 0
-35 -644 0
-35 -800 0
-35 -814 0
-125 -330 0
-125 -644 0
-125 -800 0
-125 -814 0
-330 -644 0
-330 -800 0
-330 -814 0
-644 -800 0
-644 -814 0
-800 -814 0
126 331 630 645 801 822 827 0
-126 -331 0
-126 -630 0
-126 -645 0
-126 -801 0
-126 -822 0
-126 -827 0
-331 -630 0
-331 -645 0
-331 -801 0
-331 -822 0
-331 -827 0
-630 -645 0
-630 -801 0
-630 -822 0
-630 -827 0
-645 -801 0
-645 -822 0
-645 -827 0
-801 -822 0
-801 -827 0
-822 -827 0
36 127 547 579 631 823 828 836 0
-36 -127 0
-36 -547 0
-36 -579 0
-36 -631 0
-36 -823 0
-36 -828 0
-36 -836 0
-127 -547 0
-127 -579 0
-127 -631 0
-127 -823 0
-127 -828 0
-127 -836 0
-547 -579 0
-547 -631 0
-547 -823 0
-547 -828 0
-547 -836 0
-579 -631 0
-579 -823 0
-579 -828 0
-579 -836 0
-631 -823 0
-631 -828 0
-631 -836 0
-823 -828 0
-823 -836 0
-828 -836 0
332 548 580 640 691 807 815 824 829 0
-332 -548 0
-332 -580 0
-332 -640 0
-332 -691 0
-332 -807 0
-332 -815 0
-332 -824 0
-332 -829 0
-548 -580 0
-548 -640 0
-548 -691 0
-548 -807 0
-548 -815 0
-548 -824 0
-548 -829 0
-580 -640 0
-580 -691 0
-580 -807 0
-580 -815 0
-580 -824 0
-580 -829 0
-640 -691 0
-640 -807 0
-640 -815 0
-640 -824 0
-640 -829 0
-691 -807 0
-691 -815 0
-691 -824 0
-691 -829 0
-807 -815 0
-807 -824 0
-807 -829 0
-815 -824 0
-815 -829 0
-824 -829 0
120 549 581 641 808 830 0
-120 -549 0
-120 -581 0
-120 -641 0
-120 -808 0
-120 -830 0
-549 -581 0
-549 -641 0
-549 -808 0
-549 -830 0
-581 -641 0
-581 -808 0
-581 -830 0
-641 -808 0
-641 -830 0
-808 -830 0
37 400 632 647 844 850 857 863 0
-37 -400 0
-37 -632 0
-37 -647 0
-37 -844 0
-37 -850 0
-37 -857 0
-37 -863 0
-400 -632 0
-400 -647 0
-400 -844 0
-400 -850 0
-400 -857 0
-400 -863 0
-632 -647 0
-632 -844 0
-632 -850 0
-632 -857 0
-632 -863 0
-647 -844 0
-647 -850 0
-647 -857 0
-647 -863 0
-844 -850 0
-844 -857 0
-844 -863 0
-850 -857 0
-850 -863 0
-857 -863 0
38 129 401 512 550 633 692 845 864 0
-38 -129 0
-38 -401 0
-38 -512 0
-38 -550 0
-38 -633 0
-38 -692 0
-38 -845 0
-38 -864 0
-129 -401 0
-129 -512 0
-129 -550 0
-129 -633 0
-129 -692 0
-129 -845 0
-129 -864 0
-401 -512 0
-401 -550 0
-401 -633 0
-401 -692 0
-401 -845 0
-401 -864 0
-512 -550 0
-512 -633 0
-512 -692 0
-512 -845 0
-512 -864 0
-550 -633 0
-550 -692 0
-550 -845 0
-550 -864 0
-633 -692 0
-633 -845 0
-633 -864 0
-692 -845 0
-692 -864 0
-845 -864 0
39 395 634 693 837 858 0
-39 -395 0
-39 -634 0
-39 -693 0
-39 -837 0
-39 -858 0
-395 -634 0
-395 -693 0
-395 -837 0
-395 -858 0
-634 -693 0
-634 -837 0
-634 -858 0
-693 -837 0
-693 -858 0
-837 -858 0
40 130 396 513 694 742 846 0
-40 -130 0
-40 -396 0
-40 -513 0
-40 -694 0
-40 -742 0
-40 -846 0
-130 -396 0
-130 -513 0
-130 -694 0
-130 -742 0
-130 -846 0
-396 -513 0
-396 -694 0
-396 -742 0
-396 -846 0
-513 -694 0
-513 -742 0
-513 -846 0
-694 -742 0
-694 -846 0
-742 -846 0
41 131 514 648 695 743 0
-41 -131 0
-41 -514 0
-41 -648 0
-41 -695 0
-41 -743 0
-131 -514 0
-131 -648 0
-131 -695 0
-131 -743 0
-514 -648 0
-514 -695 0
-514 -743 0
-648 -695 0
-648 -743 0
-695 -743 0
42 132 515 551 649 838 851 0
-42 -132 0
-42 -515 0
-42 -551 0
-42 -649 0
-42 -838 0
-42 -851 0
-132 -515 0
-132 -551 0
-132 -649 0
-132 -838 0
-132 -851 0
-515 -551 0
-515 -649 0
-515 -838 0
-515 -851 0
-551 -649 0
-551 -838 0
-551 -851 0
-649 -838 0
-649 -851 0
-838 -851 0
516 545 635 744 852 859 865 0
-516 -545 0
-516 -635 0
-516 -744 0
-516 -852 0
-516 -859 0
-516 -865 0
-545 -635 0
-545 -744 0
-545 -852 0
-545 -859 0
-545 -865 0
-635 -744 0
-635 -852 0
-635 -859 0
-635 -865 0
-744 -852 0
-744 -859 0
-744 -865 0
-852 -859 0
-852 -865 0
-859 -865 0
546 650 745 839 847 860 866 0
-546 -650 0
-546 -745 0
-546 -839 0
-546 -847 0
-546 -860 0
-546 -866 0
-650 -745 0
-650 -839 0
-650 -847 0
-650 -860 0
-650 -866 0
-745 -839 0
-745 -847 0
-745 -860 0
-745 -866 0
-839 -847 0
-839 -860 0
-839 -866 0
-847 -860 0
-847 -866 0
-860 -866 0
397 636 651 840 848 853 861 867 0
-397 -636 0
-397 -651 0
-397 -840 0
-397 -848 0
-397 -853 0
-397 -861 0
-397 -867 0
-636 -651 0
-636 -840 0
-636 -848 0
-636 -853 0
-636 -861 0
-636 -867 0
-651 -840 0
-651 -848 0
-651 -853 0
-651 -861 0
-651 -867 0
-840 -848 0
-840 -853 0
-840 -861 0
-840 -867 0
-848 -853 0
-848 -861 0
-848 -867 0
-853 -861 0
-853 -867 0
-861 -867 0
133 398 509 696 746 854 0
-133 -398 0
-133 -509 0
-133 -696 0
-133 -746 0
-133 -854 0
-398 -509 0
-398 -696 0
-398 -746 0
-398 -854 0
-509 -696 0
-509 -746 0
-509 -854 0
-696 -746 0
-696 -854 0
-746 -854 0
134 510 547 637 697 747 841 855 0
-134 -510 0
-134 -547 0
-134 -637 0
-134 -697 0
-134 -747 0
-134 -841 0
-134 -855 0
-510 -547 0
-510 -637 0
-510 -697 0
-510 -747 0
-510 -841 0
-510 -855 0
-547 -637 0
-547 -697 0
-547 -747 0
-547 -841 0
-547 -855 0
-637 -697 0
-637 -747 0
-637 -841 0
-637 -855 0
-697 -747 0
-697 -841 0
-697 -855 0
-747 -841 0
-747 -855 0
-841 -855 0
43 135 638 652 748 842 849 868 0
-43 -135 0
-43 -638 0
-43 -652 0
-43 -748 0
-43 -842 0
-43 -849 0
-43 -868 0
-135 -638 0
-135 -652 0
-135 -748 0
-135 -842 0
-135 -849 0
-135 -868 0
-638 -652 0
-638 -748 0
-638 -842 0
-638 -849 0
-638 -868 0
-652 -748 0
-652 -842 0
-652 -849 0
-652 -868 0
-748 -842 0
-748 -849 0
-748 -868 0
-842 -849 0
-842 -868 0
-849 -868 0
136 399 511 548 646 698 749 843 862 0
-136 -399 0
-136 -511 0
-136 -548 0
-136 -646 0
-136 -698 0
-136 -749 0
-136 -843 0
-136 -862 0
-399 -511 0
-399 -548 0
-399 -646 0
-399 -698 0
-399 -749 0
-399 -843 0
-399 -862 0
-511 -548 0
-511 -646 0
-511 -698 0
-511 -749 0
-511 -843 0
-511 -862 0
-548 -646 0
-548 -698 0
-548 -749 0
-548 -843 0
-548 -862 0
-646 -698 0
-646 -749 0
-646 -843 0
-646 -862 0
-698 -749 0
-698 -843 0
-698 -862 0
-749 -843 0
-749 -862 0
-843 -862 0
128 549 639 699 750 856 869 0
-128 -549 0
-128 -639 0
-128 -699 0
-128 -750 0
-128 -856 0
-128 -869 0
-549 -639 0
-549 -699 0
-549 -750 0
-549 -856 0
-549 -869 0
-639 -699 0
-639 -750 0
-639 -856 0
-639 -869 0
-699 -750 0
-699 -856 0
-699 -869 0
-750 -856 0
-750 -869 0
-856 -869 0
458 472 640 655 751 839 884 0
-458 -472 0
-458 -640 0
-458 -655 0
-458 -751 0
-458 -839 0
-458 -884 0
-472 -640 0
-472 -655 0
-472 -751 0
-472 -839 0
-472 -884 0
-640 -655 0
-640 -751 0
-640 -839 0
-640 -884 0
-655 -751 0
-655 -839 0
-655 -884 0
-751 -839 0
-751 -884 0
-839 -884 0
459 473 512 641 656 700 870 877 0
-459 -473 0
-459 -512 0
-459 -641 0
-459 -656 0
-459 -700 0
-459 -870 0
-459 -877 0
-473 -512 0
-473 -641 0
-473 -656 0
-473 -700 0
-473 -870 0
-473 -877 0
-512 -641 0
-512 -656 0
-512 -700 0
-512 -870 0
-512 -877 0
-641 -656 0
-641 -700 0
-641 -870 0
-641 -877 0
-656 -700 0
-656 -870 0
-656 -877 0
-700 -870 0
-700 -877 0
-870 -877 0
44 138 453 794 840 878 0
-44 -138 0
-44 -453 0
-44 -794 0
-44 -840 0
-44 -878 0
-138 -453 0
-138 -794 0
-138 -840 0
-138 -878 0
-453 -794 0
-453 -840 0
-453 -878 0
-794 -840 0
-794 -878 0
-840 -878 0
45 139 513 642 701 795 871 885 0
-45 -139 0
-45 -513 0
-45 -642 0
-45 -701 0
-45 -795 0
-45 -871 0
-45 -885 0
-139 -513 0
-139 -642 0
-139 -701 0
-139 -795 0
-139 -871 0
-139 -885 0
-513 -642 0
-513 -701 0
-513 -795 0
-513 -871 0
-513 -885 0
-642 -701 0
-642 -795 0
-642 -871 0
-642 -885 0
-701 -795 0
-701 -871 0
-701 -885 0
-795 -871 0
-795 -885 0
-871 -885 0
46 140 454 514 702 752 796 872 0
-46 -140 0
-46 -454 0
-46 -514 0
-46 -702 0
-46 -752 0
-46 -796 0
-46 -872 0
-140 -454 0
-140 -514 0
-140 -702 0
-140 -752 0
-140 -796 0
-140 -872 0
-454 -514 0
-454 -702 0
-454 -752 0
-454 -796 0
-454 -872 0
-514 -702 0
-514 -752 0
-514 -796 0
-514 -872 0
-702 -752 0
-702 -796 0
-702 -872 0
-752 -796 0
-752 -872 0
-796 -872 0
47 455 515 657 703 797 841 873 886 0
-47 -455 0
-47 -515 0
-47 -657 0
-47 -703 0
-47 -797 0
-47 -841 0
-47 -873 0
-47 -886 0
-455 -515 0
-455 -657 0
-455 -703 0
-455 -797 0
-455 -841 0
-455 -873 0
-455 -886 0
-515 -657 0
-515 -703 0
-515 -797 0
-515 -841 0
-515 -873 0
-515 -886 0
-657 -703 0
-657 -797 0
-657 -841 0
-657 -873 0
-657 -886 0
-703 -797 0
-703 -841 0
-703 -873 0
-703 -886 0
-797 -841 0
-797 -873 0
-797 -886 0
-841 -873 0
-841 -886 0
-873 -886 0
48 141 456 658 704 798 842 879 887 0
-48 -141 0
-48 -456 0
-48 -658 0
-48 -704 0
-48 -798 0
-48 -842 0
-48 -879 0
-48 -887 0
-141 -456 0
-141 -658 0
-141 -704 0
-141 -798 0
-141 -842 0
-141 -879 0
-141 -887 0
-456 -658 0
-456 -704 0
-456 -798 0
-456 -842 0
-456 -879 0
-456 -887 0
-658 -704 0
-658 -798 0
-658 -842 0
-658 -879 0
-658 -887 0
-704 -798 0
-704 -842 0
-704 -879 0
-704 -887 0
-798 -842 0
-798 -879 0
-798 -887 0
-842 -879 0
-842 -887 0
-879 -887 0
142 516 659 753 799 843 888 0
-142 -516 0
-142 -659 0
-142 -753 0
-142 -799 0
-142 -843 0
-142 -888 0
-516 -659 0
-516 -753 0
-516 -799 0
-516 -843 0
-516 -888 0
-659 -753 0
-659 -799 0
-659 -843 0
-659 -888 0
-753 -799 0
-753 -843 0
-753 -888 0
-799 -843 0
-799 -888 0
-843 -888 0
509 643 705 754 800 837 0
-509 -643 0
-509 -705 0
-509 -754 0
-509 -800 0
-509 -837 0
-643 -705 0
-643 -754 0
-643 -800 0
-643 -837 0
-705 -754 0
-705 -800 0
-705 -837 0
-754 -800 0
-754 -837 0
-800 -837 0
49 467 660 755 801 874 0
-49 -467 0
-49 -660 0
-49 -755 0
-49 -801 0
-49 -874 0
-467 -660 0
-467 -755 0
-467 -801 0
-467 -874 0
-660 -755 0
-660 -801 0
-660 -874 0
-755 -801 0
-755 -874 0
-801 -874 0
50 468 510 644 706 880 0
-50 -468 0
-50 -510 0
-50 -644 0
-50 -706 0
-50 -880 0
-468 -510 0
-468 -644 0
-468 -706 0
-468 -880 0
-510 -644 0
-510 -706 0
-510 -880 0
-644 -706 0
-644 -880 0
-706 -880 0
51 469 645 756 838 875 881 0
-51 -469 0
-51 -645 0
-51 -756 0
-51 -838 0
-51 -875 0
-51 -881 0
-469 -645 0
-469 -756 0
-469 -838 0
-469 -875 0
-469 -881 0
-645 -756 0
-645 -838 0
-645 -875 0
-645 -881 0
-756 -838 0
-756 -875 0
-756 -881 0
-838 -875 0
-838 -881 0
-875 -881 0
143 457 470 511 653 757 882 0
-143 -457 0
-143 -470 0
-143 -511 0
-143 -653 0
-143 -757 0
-143 -882 0
-457 -470 0
-457 -511 0
-457 -653 0
-457 -757 0
-457 -882 0
-470 -511 0
-470 -653 0
-470 -757 0
-470 -882 0
-511 -653 0
-511 -757 0
-511 -882 0
-653 -757 0
-653 -882 0
-757 -882 0
137 471 654 707 758 876 883 0
-137 -471 0
-137 -654 0
-137 -707 0
-137 -758 0
-137 -876 0
-137 -883 0
-471 -654 0
-471 -707 0
-471 -758 0
-471 -876 0
-471 -883 0
-654 -707 0
-654 -758 0
-654 -876 0
-654 -883 0
-707 -758 0
-707 -876 0
-707 -883 0
-758 -876 0
-758 -883 0
-876 -883 0
52 472 646 759 799 0
-52 -472 0
-52 -646 0
-52 -759 0
-52 -799 0
-472 -646 0
-472 -759 0
-472 -799 0
-646 -759 0
-646 -799 0
-759 -799 0
53 145 473 663 708 802 889 0
-53 -145 0
-53 -473 0
-53 -663 0
-53 -708 0
-53 -802 0
-53 -889 0
-145 -473 0
-145 -663 0
-145 -708 0
-145 -802 0
-145 -889 0
-473 -663 0
-473 -708 0
-473 -802 0
-473 -889 0
-663 -708 0
-663 -802 0
-663 -889 0
-708 -802 0
-708 -889 0
-802 -889 0
146 647 709 803 837 890 897 0
-146 -647 0
-146 -709 0
-146 -803 0
-146 -837 0
-146 -890 0
-146 -897 0
-647 -709 0
-647 -803 0
-647 -837 0
-647 -890 0
-647 -897 0
-709 -803 0
-709 -837 0
-709 -890 0
-709 -897 0
-803 -837 0
-803 -890 0
-803 -897 0
-837 -890 0
-837 -897 0
-890 -897 0
54 147 504 760 800 804 0
-54 -147 0
-54 -504 0
-54 -760 0
-54 -800 0
-54 -804 0
-147 -504 0
-147 -760 0
-147 -800 0
-147 -804 0
-504 -760 0
-504 -800 0
-504 -804 0
-760 -800 0
-760 -804 0
-800 -804 0
55 505 664 710 801 838 891 0
-55 -505 0
-55 -664 0
-55 -710 0
-55 -801 0
-55 -838 0
-55 -891 0
-505 -664 0
-505 -710 0
-505 -801 0
-505 -838 0
-505 -891 0
-664 -710 0
-664 -801 0
-664 -838 0
-664 -891 0
-710 -801 0
-710 -838 0
-710 -891 0
-801 -838 0
-801 -891 0
-838 -891 0
56 413 648 805 898 0
-56 -413 0
-56 -648 0
-56 -805 0
-56 -898 0
-413 -648 0
-413 -805 0
-413 -898 0
-648 -805 0
-648 -898 0
-805 -898 0
414 506 649 711 761 892 899 0
-414 -506 0
-414 -649 0
-414 -711 0
-414 -761 0
-414 -892 0
-414 -899 0
-506 -649 0
-506 -711 0
-506 -761 0
-506 -892 0
-506 -899 0
-649 -711 0
-649 -761 0
-649 -892 0
-649 -899 0
-711 -761 0
-711 -892 0
-711 -899 0
-761 -892 0
-761 -899 0
-892 -899 0
57 415 507 762 806 839 893 900 0
-57 -415 0
-57 -507 0
-57 -762 0
-57 -806 0
-57 -839 0
-57 -893 0
-57 -900 0
-415 -507 0
-415 -762 0
-415 -806 0
-415 -839 0
-415 -893 0
-415 -900 0
-507 -762 0
-507 -806 0
-507 -839 0
-507 -893 0
-507 -900 0
-762 -806 0
-762 -839 0
-762 -893 0
-762 -900 0
-806 -839 0
-806 -893 0
-806 -900 0
-839 -893 0
-839 -900 0
-893 -900 0
409 508 650 665 840 901 0
-409 -508 0
-409 -650 0
-409 -665 0
-409 -840 0
-409 -901 0
-508 -650 0
-508 -665 0
-508 -840 0
-508 -901 0
-650 -665 0
-650 -840 0
-650 -901 0
-665 -840 0
-665 -901 0
-840 -901 0
148 410 467 651 666 794 894 0
-148 -410 0
-148 -467 0
-148 -651 0
-148 -666 0
-148 -794 0
-148 -894 0
-410 -467 0
-410 -651 0
-410 -666 0
-410 -794 0
-410 -894 0
-467 -651 0
-467 -666 0
-467 -794 0
-467 -894 0
-651 -666 0
-651 -794 0
-651 -894 0
-666 -794 0
-666 -894 0
-794 -894 0
468 712 795 841 902 0
-468 -712 0
-468 -795 0
-468 -841 0
-468 -902 0
-712 -795 0
-712 -841 0
-712 -902 0
-795 -841 0
-795 -902 0
-841 -902 0
149 411 469 667 763 796 842 895 903 0
-149 -411 0
-149 -469 0
-149 -667 0
-149 -763 0
-149 -796 0
-149 -842 0
-149 -895 0
-149 -903 0
-411 -469 0
-411 -667 0
-411 -763 0
-411 -796 0
-411 -842 0
-411 -895 0
-411 -903 0
-469 -667 0
-469 -763 0
-469 -796 0
-469 -842 0
-469 -895 0
-469 -903 0
-667 -763 0
-667 -796 0
-667 -842 0
-667 -895 0
-667 -903 0
-763 -796 0
-763 -842 0
-763 -895 0
-763 -903 0
-796 -842 0
-796 -895 0
-796 -903 0
-842 -895 0
-842 -903 0
-895 -903 0
412 470 661 713 764 797 807 843 0
-412 -470 0
-412 -661 0
-412 -713 0
-412 -764 0
-412 -797 0
-412 -807 0
-412 -843 0
-470 -661 0
-470 -713 0
-470 -764 0
-470 -797 0
-470 -807 0
-470 -843 0
-661 -713 0
-661 -764 0
-661 -797 0
-661 -807 0
-661 -843 0
-713 -764 0
-713 -797 0
-713 -807 0
-713 -843 0
-764 -797 0
-764 -807 0
-764 -843 0
-797 -807 0
-797 -843 0
-807 -843 0
144 471 652 662 714 798 808 896 0
-144 -471 0
-144 -652 0
-144 -662 0
-144 -714 0
-144 -798 0
-144 -808 0
-144 -896 0
-471 -652 0
-471 -662 0
-471 -714 0
-471 -798 0
-471 -808 0
-471 -896 0
-652 -662 0
-652 -714 0
-652 -798 0
-652 -808 0
-652 -896 0
-662 -714 0
-662 -798 0
-662 -808 0
-662 -896 0
-714 -798 0
-714 -808 0
-714 -896 0
-798 -808 0
-798 -896 0
-808 -896 0
58 345 543 653 669 765 839 844 0
-58 -345 0
-58 -543 0
-58 -653 0
-58 -669 0
-58 -765 0
-58 -839 0
-58 -844 0
-345 -543 0
-345 -653 0
-345 -669 0
-345 -765 0
-345 -839 0
-345 -844 0
-543 -653 0
-543 -669 0
-543 -765 0
-543 -839 0
-543 -844 0
-653 -669 0
-653 -765 0
-653 -839 0
-653 -844 0
-669 -765 0
-669 -839 0
-669 -844 0
-765 -839 0
-765 -844 0
-839 -844 0
59 544 654 715 744 809 845 904 0
-59 -544 0
-59 -654 0
-59 -715 0
-59 -744 0
-59 -809 0
-59 -845 0
-59 -904 0
-544 -654 0
-544 -715 0
-544 -744 0
-544 -809 0
-544 -845 0
-544 -904 0
-654 -715 0
-654 -744 0
-654 -809 0
-654 -845 0
-654 -904 0
-715 -744 0
-715 -809 0
-715 -845 0
-715 -904 0
-744 -809 0
-744 -845 0
-744 -904 0
-809 -845 0
-809 -904 0
-845 -904 0
60 150 536 655 716 745 810 840 0
-60 -150 0
-60 -536 0
-60 -655 0
-60 -716 0
-60 -745 0
-60 -810 0
-60 -840 0
-150 -536 0
-150 -655 0
-150 -716 0
-150 -745 0
-150 -810 0
-150 -840 0
-536 -655 0
-536 -716 0
-536 -745 0
-536 -810 0
-536 -840 0
-655 -716 0
-655 -745 0
-655 -810 0
-655 -840 0
-716 -745 0
-716 -810 0
-716 -840 0
-745 -810 0
-745 -840 0
-810 -840 0
61 346 656 717 766 846 905 0
-61 -346 0
-61 -656 0
-61 -717 0
-61 -766 0
-61 -846 0
-61 -905 0
-346 -656 0
-346 -717 0
-346 -766 0
-346 -846 0
-346 -905 0
-656 -717 0
-656 -766 0
-656 -846 0
-656 -905 0
-717 -766 0
-717 -846 0
-717 -905 0
-766 -846 0
-766 -905 0
-846 -905 0
62 151 347 537 746 767 841 906 0
-62 -151 0
-62 -347 0
-62 -537 0
-62 -746 0
-62 -767 0
-62 -841 0
-62 -906 0
-151 -347 0
-151 -537 0
-151 -746 0
-151 -767 0
-151 -841 0
-151 -906 0
-347 -537 0
-347 -746 0
-347 -767 0
-347 -841 0
-347 -906 0
-537 -746 0
-537 -767 0
-537 -841 0
-537 -906 0
-746 -767 0
-746 -841 0
-746 -906 0
-767 -841 0
-767 -906 0
-841 -906 0
152 413 538 670 811 842 907 0
-152 -413 0
-152 -538 0
-152 -670 0
-152 -811 0
-152 -842 0
-152 -907 0
-413 -538 0
-413 -670 0
-413 -811 0
-413 -842 0
-413 -907 0
-538 -670 0
-538 -811 0
-538 -842 0
-538 -907 0
-670 -811 0
-670 -842 0
-670 -907 0
-811 -842 0
-811 -907 0
-842 -907 0
153 348 414 657 671 718 747 768 812 843 908 0
-153 -348 0
-153 -414 0
-153 -657 0
-153 -671 0
-153 -718 0
-153 -747 0
-153 -768 0
-153 -812 0
-153 -843 0
-153 -908 0
-348 -414 0
-348 -657 0
-348 -671 0
-348 -718 0
-348 -747 0
-348 -768 0
-348 -812 0
-348 -843 0
-348 -908 0
-414 -657 0
-414 -671 0
-414 -718 0
-414 -747 0
-414 -768 0
-414 -812 0
-414 -843 0
-414 -908 0
-657 -671 0
-657 -718 0
-657 -747 0
-657 -768 0
-657 -812 0
-657 -843 0
-657 -908 0
-671 -718 0
-671 -747 0
-671 -768 0
-671 -812 0
-671 -843 0
-671 -908 0
-718 -747 0
-718 -768 0
-718 -812 0
-718 -843 0
-718 -908 0
-747 -768 0
-747 -812 0
-747 -843 0
-747 -908 0
-768 -812 0
-768 -843 0
-768 -908 0
-812 -843 0
-812 -908 0
-843 -908 0
415 539 658 672 748 847 909 0
-415 -539 0
-415 -658 0
-415 -672 0
-415 -748 0
-415 -847 0
-415 -909 0
-539 -658 0
-539 -672 0
-539 -748 0
-539 -847 0
-539 -909 0
-658 -672 0
-658 -748 0
-658 -847 0
-658 -909 0
-672 -748 0
-672 -847 0
-672 -909 0
-748 -847 0
-748 -909 0
-847 -909 0
63 154 540 659 749 813 910 0
-63 -154 0
-63 -540 0
-63 -659 0
-63 -749 0
-63 -813 0
-63 -910 0
-154 -540 0
-154 -659 0
-154 -749 0
-154 -813 0
-154 -910 0
-540 -659 0
-540 -749 0
-540 -813 0
-540 -910 0
-659 -749 0
-659 -813 0
-659 -910 0
-749 -813 0
-749 -910 0
-813 -910 0
64 409 673 719 750 769 848 911 0
-64 -409 0
-64 -673 0
-64 -719 0
-64 -750 0
-64 -769 0
-64 -848 0
-64 -911 0
-409 -673 0
-409 -719 0
-409 -750 0
-409 -769 0
-409 -848 0
-409 -911 0
-673 -719 0
-673 -750 0
-673 -769 0
-673 -848 0
-673 -911 0
-719 -750 0
-719 -769 0
-719 -848 0
-719 -911 0
-750 -769 0
-750 -848 0
-750 -911 0
-769 -848 0
-769 -911 0
-848 -911 0
155 342 674 720 814 837 0
-155 -342 0
-155 -674 0
-155 -720 0
-155 -814 0
-155 -837 0
-342 -674 0
-342 -720 0
-342 -814 0
-342 -837 0
-674 -720 0
-674 -814 0
-674 -837 0
-720 -814 0
-720 -837 0
-814 -837 0
65 343 410 541 675 0
-65 -343 0
-65 -410 0
-65 -541 0
-65 -675 0
-343 -410 0
-343 -541 0
-343 -675 0
-410 -541 0
-410 -675 0
-541 -675 0
156 411 660 742 838 849 912 0
-156 -411 0
-156 -660 0
-156 -742 0
-156 -838 0
-156 -849 0
-156 -912 0
-411 -660 0
-411 -742 0
-411 -838 0
-411 -849 0
-411 -912 0
-660 -742 0
-660 -838 0
-660 -849 0
-660 -912 0
-742 -838 0
-742 -849 0
-742 -912 0
-838 -849 0
-838 -912 0
-849 -912 0
157 344 412 542 668 721 743 770 815 0
-157 -344 0
-157 -412 0
-157 -542 0
-157 -668 0
-157 -721 0
-157 -743 0
-157 -770 0
-157 -815 0
-344 -412 0
-344 -542 0
-344 -668 0
-344 -721 0
-344 -743 0
-344 -770 0
-344 -815 0
-412 -542 0
-412 -668 0
-412 -721 0
-412 -743 0
-412 -770 0
-412 -815 0
-542 -668 0
-542 -721 0
-542 -743 0
-542 -770 0
-542 -815 0
-668 -721 0
-668 -743 0
-668 -770 0
-668 -815 0
-721 -743 0
-721 -770 0
-721 -815 0
-743 -770 0
-743 -815 0
-770 -815 0
66 271 345 661 687 799 850 0
-66 -271 0
-66 -345 0
-66 -661 0
-66 -687 0
-66 -799 0
-66 -850 0
-271 -345 0
-271 -661 0
-271 -687 0
-271 -799 0
-271 -850 0
-345 -661 0
-345 -687 0
-345 -799 0
-345 -850 0
-661 -687 0
-661 -799 0
-661 -850 0
-687 -799 0
-687 -850 0
-799 -850 0
67 575 662 678 688 722 816 870 0
-67 -575 0
-67 -662 0
-67 -678 0
-67 -688 0
-67 -722 0
-67 -816 0
-67 -870 0
-575 -662 0
-575 -678 0
-575 -688 0
-575 -722 0
-575 -816 0
-575 -870 0
-662 -678 0
-662 -688 0
-662 -722 0
-662 -816 0
-662 -870 0
-678 -688 0
-678 -722 0
-678 -816 0
-678 -870 0
-688 -722 0
-688 -816 0
-688 -870 0
-722 -816 0
-722 -870 0
-816 -870 0
68 346 568 663 689 723 817 871 0
-68 -346 0
-68 -568 0
-68 -663 0
-68 -689 0
-68 -723 0
-68 -817 0
-68 -871 0
-346 -568 0
-346 -663 0
-346 -689 0
-346 -723 0
-346 -817 0
-346 -871 0
-568 -663 0
-568 -689 0
-568 -723 0
-568 -817 0
-568 -871 0
-663 -689 0
-663 -723 0
-663 -817 0
-663 -871 0
-689 -723 0
-689 -817 0
-689 -871 0
-723 -817 0
-723 -871 0
-817 -871 0
569 679 690 771 800 818 872 0
-569 -679 0
-569 -690 0
-569 -771 0
-569 -800 0
-569 -818 0
-569 -872 0
-679 -690 0
-679 -771 0
-679 -800 0
-679 -818 0
-679 -872 0
-690 -771 0
-690 -800 0
-690 -818 0
-690 -872 0
-771 -800 0
-771 -818 0
-771 -872 0
-800 -818 0
-800 -872 0
-818 -872 0
159 347 680 724 772 801 819 851 873 0
-159 -347 0
-159 -680 0
-159 -724 0
-159 -772 0
-159 -801 0
-159 -819 0
-159 -851 0
-159 -873 0
-347 -680 0
-347 -724 0
-347 -772 0
-347 -801 0
-347 -819 0
-347 -851 0
-347 -873 0
-680 -724 0
-680 -772 0
-680 -801 0
-680 -819 0
-680 -851 0
-680 -873 0
-724 -772 0
-724 -801 0
-724 -819 0
-724 -851 0
-724 -873 0
-772 -801 0
-772 -819 0
-772 -851 0
-772 -873 0
-801 -819 0
-801 -851 0
-801 -873 0
-819 -851 0
-819 -873 0
-851 -873 0
160 348 570 664 681 773 820 852 0
-160 -348 0
-160 -570 0
-160 -664 0
-160 -681 0
-160 -773 0
-160 -820 0
-160 -852 0
-348 -570 0
-348 -664 0
-348 -681 0
-348 -773 0
-348 -820 0
-348 -852 0
-570 -664 0
-570 -681 0
-570 -773 0
-570 -820 0
-570 -852 0
-664 -681 0
-664 -773 0
-664 -820 0
-664 -852 0
-681 -773 0
-681 -820 0
-681 -852 0
-773 -820 0
-773 -852 0
-820 -852 0
161 272 571 725 774 821 0
-161 -272 0
-161 -571 0
-161 -725 0
-161 -774 0
-161 -821 0
-272 -571 0
-272 -725 0
-272 -774 0
-272 -821 0
-571 -725 0
-571 -774 0
-571 -821 0
-725 -774 0
-725 -821 0
-774 -821 0
69 273 572 691 726 775 853 0
-69 -273 0
-69 -572 0
-69 -691 0
-69 -726 0
-69 -775 0
-69 -853 0
-273 -572 0
-273 -691 0
-273 -726 0
-273 -775 0
-273 -853 0
-572 -691 0
-572 -726 0
-572 -775 0
-572 -853 0
-691 -726 0
-691 -775 0
-691 -853 0
-726 -775 0
-726 -853 0
-775 -853 0
70 162 342 573 682 727 776 854 0
-70 -162 0
-70 -342 0
-70 -573 0
-70 -682 0
-70 -727 0
-70 -776 0
-70 -854 0
-162 -342 0
-162 -573 0
-162 -682 0
-162 -727 0
-162 -776 0
-162 -854 0
-342 -573 0
-342 -682 0
-342 -727 0
-342 -776 0
-342 -854 0
-573 -682 0
-573 -727 0
-573 -776 0
-573 -854 0
-682 -727 0
-682 -776 0
-682 -854 0
-727 -776 0
-727 -854 0
-776 -854 0
343 574 665 777 794 822 874 0
-343 -574 0
-343 -665 0
-343 -777 0
-343 -794 0
-343 -822 0
-343 -874 0
-574 -665 0
-574 -777 0
-574 -794 0
-574 -822 0
-574 -874 0
-665 -777 0
-665 -794 0
-665 -822 0
-665 -874 0
-777 -794 0
-777 -822 0
-777 -874 0
-794 -822 0
-794 -874 0
-822 -874 0
163 268 684 728 778 795 823 855 0
-163 -268 0
-163 -684 0
-163 -728 0
-163 -778 0
-163 -795 0
-163 -823 0
-163 -855 0
-268 -684 0
-268 -728 0
-268 -778 0
-268 -795 0
-268 -823 0
-268 -855 0
-684 -728 0
-684 -778 0
-684 -795 0
-684 -823 0
-684 -855 0
-728 -778 0
-728 -795 0
-728 -823 0
-728 -855 0
-778 -795 0
-778 -823 0
-778 -855 0
-795 -823 0
-795 -855 0
-823 -855 0
71 164 666 683 685 779 796 875 0
-71 -164 0
-71 -666 0
-71 -683 0
-71 -685 0
-71 -779 0
-71 -796 0
-71 -875 0
-164 -666 0
-164 -683 0
-164 -685 0
-164 -779 0
-164 -796 0
-164 -875 0
-666 -683 0
-666 -685 0
-666 -779 0
-666 -796 0
-666 -875 0
-683 -685 0
-683 -779 0
-683 -796 0
-683 -875 0
-685 -779 0
-685 -796 0
-685 -875 0
-779 -796 0
-779 -875 0
-796 -875 0
269 344 676 729 797 824 0
-269 -344 0
-269 -676 0
-269 -729 0
-269 -797 0
-269 -824 0
-344 -676 0
-344 -729 0
-344 -797 0
-344 -824 0
-676 -729 0
-676 -797 0
-676 -824 0
-729 -797 0
-729 -824 0
-797 -824 0
158 270 667 677 686 780 798 856 876 0
-158 -270 0
-158 -667 0
-158 -677 0
-158 -686 0
-158 -780 0
-158 -798 0
-158 -856 0
-158 -876 0
-270 -667 0
-270 -677 0
-270 -686 0
-270 -780 0
-270 -798 0
-270 -856 0
-270 -876 0
-667 -677 0
-667 -686 0
-667 -780 0
-667 -798 0
-667 -856 0
-667 -876 0
-677 -686 0
-677 -780 0
-677 -798 0
-677 -856 0
-677 -876 0
-686 -780 0
-686 -798 0
-686 -856 0
-686 -876 0
-780 -798 0
-780 -856 0
-780 -876 0
-798 -856 0
-798 -876 0
-856 -876 0
72 188 271 597 668 781 857 0
-72 -188 0
-72 -271 0
-72 -597 0
-72 -668 0
-72 -781 0
-72 -857 0
-188 -271 0
-188 -597 0
-188 -668 0
-188 -781 0
-188 -857 0
-271 -597 0
-271 -668 0
-271 -781 0
-271 -857 0
-597 -668 0
-597 -781 0
-597 -857 0
-668 -781 0
-668 -857 0
-781 -857 0
73 165 598 744 825 877 889 0
-73 -165 0
-73 -598 0
-73 -744 0
-73 -825 0
-73 -877 0
-73 -889 0
-165 -598 0
-165 -744 0
-165 -825 0
-165 -877 0
-165 -889 0
-598 -744 0
-598 -825 0
-598 -877 0
-598 -889 0
-744 -825 0
-744 -877 0
-744 -889 0
-825 -877 0
-825 -889 0
-877 -889 0
74 189 669 745 858 878 890 0
-74 -189 0
-74 -669 0
-74 -745 0
-74 -858 0
-74 -878 0
-74 -890 0
-189 -669 0
-189 -745 0
-189 -858 0
-189 -878 0
-189 -890 0
-669 -745 0
-669 -858 0
-669 -878 0
-669 -890 0
-745 -858 0
-745 -878 0
-745 -890 0
-858 -878 0
-858 -890 0
-878 -890 0
166 592 619 730 746 782 826 891 0
-166 -592 0
-166 -619 0
-166 -730 0
-166 -746 0
-166 -782 0
-166 -826 0
-166 -891 0
-592 -619 0
-592 -730 0
-592 -746 0
-592 -782 0
-592 -826 0
-592 -891 0
-619 -730 0
-619 -746 0
-619 -782 0
-619 -826 0
-619 -891 0
-730 -746 0
-730 -782 0
-730 -826 0
-730 -891 0
-746 -782 0
-746 -826 0
-746 -891 0
-782 -826 0
-782 -891 0
-826 -891 0
167 190 593 620 731 879 0
-167 -190 0
-167 -593 0
-167 -620 0
-167 -731 0
-167 -879 0
-190 -593 0
-190 -620 0
-190 -731 0
-190 -879 0
-593 -620 0
-593 -731 0
-593 -879 0
-620 -731 0
-620 -879 0
-731 -879 0
191 621 732 747 783 859 892 0
-191 -621 0
-191 -732 0
-191 -747 0
-191 -783 0
-191 -859 0
-191 -892 0
-621 -732 0
-621 -747 0
-621 -783 0
-621 -859 0
-621 -892 0
-732 -747 0
-732 -783 0
-732 -859 0
-732 -892 0
-747 -783 0
-747 -859 0
-747 -892 0
-783 -859 0
-783 -892 0
-859 -892 0
75 192 622 670 748 860 893 0
-75 -192 0
-75 -622 0
-75 -670 0
-75 -748 0
-75 -860 0
-75 -893 0
-192 -622 0
-192 -670 0
-192 -748 0
-192 -860 0
-192 -893 0
-622 -670 0
-622 -748 0
-622 -860 0
-622 -893 0
-670 -748 0
-670 -860 0
-670 -893 0
-748 -860 0
-748 -893 0
-860 -893 0
76 193 272 594 623 671 749 0
-76 -193 0
-76 -272 0
-76 -594 0
-76 -623 0
-76 -671 0
-76 -749 0
-193 -272 0
-193 -594 0
-193 -623 0
-193 -671 0
-193 -749 0
-272 -594 0
-272 -623 0
-272 -671 0
-272 -749 0
-594 -623 0
-594 -671 0
-594 -749 0
-623 -671 0
-623 -749 0
-671 -749 0
77 194 273 624 672 733 750 784 861 0
-77 -194 0
-77 -273 0
-77 -624 0
-77 -672 0
-77 -733 0
-77 -750 0
-77 -784 0
-77 -861 0
-194 -273 0
-194 -624 0
-194 -672 0
-194 -733 0
-194 -750 0
-194 -784 0
-194 -861 0
-273 -624 0
-273 -672 0
-273 -733 0
-273 -750 0
-273 -784 0
-273 -861 0
-624 -672 0
-624 -733 0
-624 -750 0
-624 -784 0
-624 -861 0
-672 -733 0
-672 -750 0
-672 -784 0
-672 -861 0
-733 -750 0
-733 -784 0
-733 -861 0
-750 -784 0
-750 -861 0
-784 -861 0
78 168 595 625 673 827 894 0
-78 -168 0
-78 -595 0
-78 -625 0
-78 -673 0
-78 -827 0
-78 -894 0
-168 -595 0
-168 -625 0
-168 -673 0
-168 -827 0
-168 -894 0
-595 -625 0
-595 -673 0
-595 -827 0
-595 -894 0
-625 -673 0
-625 -827 0
-625 -894 0
-673 -827 0
-673 -894 0
-827 -894 0
169 268 674 734 785 828 880 0
-169 -268 0
-169 -674 0
-169 -734 0
-169 -785 0
-169 -828 0
-169 -880 0
-268 -674 0
-268 -734 0
-268 -785 0
-268 -828 0
-268 -880 0
-674 -734 0
-674 -785 0
-674 -828 0
-674 -880 0
-734 -785 0
-734 -828 0
-734 -880 0
-785 -828 0
-785 -880 0
-828 -880 0
170 675 742 881 895 0
-170 -675 0
-170 -742 0
-170 -881 0
-170 -895 0
-675 -742 0
-675 -881 0
-675 -895 0
-742 -881 0
-742 -895 0
-881 -895 0
171 269 596 735 743 829 862 882 0
-171 -269 0
-171 -596 0
-171 -735 0
-171 -743 0
-171 -829 0
-171 -862 0
-171 -882 0
-269 -596 0
-269 -735 0
-269 -743 0
-269 -829 0
-269 -862 0
-269 -882 0
-596 -735 0
-596 -743 0
-596 -829 0
-596 -862 0
-596 -882 0
-735 -743 0
-735 -829 0
-735 -862 0
-735 -882 0
-743 -829 0
-743 -862 0
-743 -882 0
-829 -862 0
-829 -882 0
-862 -882 0
270 618 786 830 883 896 0
-270 -618 0
-270 -786 0
-270 -830 0
-270 -883 0
-270 -896 0
-618 -786 0
-618 -830 0
-618 -883 0
-618 -896 0
-786 -830 0
-786 -883 0
-786 -896 0
-830 -883 0
-830 -896 0
-883 -896 0
101 188 610 676 687 863 884 0
-101 -188 0
-101 -610 0
-101 -676 0
-101 -687 0
-101 -863 0
-101 -884 0
-188 -610 0
-188 -676 0
-188 -687 0
-188 -863 0
-188 -884 0
-610 -676 0
-610 -687 0
-610 -863 0
-610 -884 0
-676 -687 0
-676 -863 0
-676 -884 0
-687 -863 0
-687 -884 0
-863 -884 0
79 102 173 677 688 864 904 0
-79 -102 0
-79 -173 0
-79 -677 0
-79 -688 0
-79 -864 0
-79 -904 0
-102 -173 0
-102 -677 0
-102 -688 0
-102 -864 0
-102 -904 0
-173 -677 0
-173 -688 0
-173 -864 0
-173 -904 0
-677 -688 0
-677 -864 0
-677 -904 0
-688 -864 0
-688 -904 0
-864 -904 0
80 174 189 605 831 897 0
-80 -174 0
-80 -189 0
-80 -605 0
-80 -831 0
-80 -897 0
-174 -189 0
-174 -605 0
-174 -831 0
-174 -897 0
-189 -605 0
-189 -831 0
-189 -897 0
-605 -831 0
-605 -897 0
-831 -897 0
81 175 678 689 787 885 905 0
-81 -175 0
-81 -678 0
-81 -689 0
-81 -787 0
-81 -885 0
-81 -905 0
-175 -678 0
-175 -689 0
-175 -787 0
-175 -885 0
-175 -905 0
-678 -689 0
-678 -787 0
-678 -885 0
-678 -905 0
-689 -787 0
-689 -885 0
-689 -905 0
-787 -885 0
-787 -905 0
-885 -905 0
82 103 176 606 690 832 0
-82 -103 0
-82 -176 0
-82 -606 0
-82 -690 0
-82 -832 0
-103 -176 0
-103 -606 0
-103 -690 0
-103 -832 0
-176 -606 0
-176 -690 0
-176 -832 0
-606 -690 0
-606 -832 0
-690 -832 0
83 104 177 788 833 886 906 0
-83 -104 0
-83 -177 0
-83 -788 0
-83 -833 0
-83 -886 0
-83 -906 0
-104 -177 0
-104 -788 0
-104 -833 0
-104 -886 0
-104 -906 0
-177 -788 0
-177 -833 0
-177 -886 0
-177 -906 0
-788 -833 0
-788 -886 0
-788 -906 0
-833 -886 0
-833 -906 0
-886 -906 0
178 190 679 736 887 898 907 0
-178 -190 0
-178 -679 0
-178 -736 0
-178 -887 0
-178 -898 0
-178 -907 0
-190 -679 0
-190 -736 0
-190 -887 0
-190 -898 0
-190 -907 0
-679 -736 0
-679 -887 0
-679 -898 0
-679 -907 0
-736 -887 0
-736 -898 0
-736 -907 0
-887 -898 0
-887 -907 0
-898 -907 0
105 179 191 680 834 865 888 899 908 0
-105 -179 0
-105 -191 0
-105 -680 0
-105 -834 0
-105 -865 0
-105 -888 0
-105 -899 0
-105 -908 0
-179 -191 0
-179 -680 0
-179 -834 0
-179 -865 0
-179 -888 0
-179 -899 0
-179 -908 0
-191 -680 0
-191 -834 0
-191 -865 0
-191 -888 0
-191 -899 0
-191 -908 0
-680 -834 0
-680 -865 0
-680 -888 0
-680 -899 0
-680 -908 0
-834 -865 0
-834 -888 0
-834 -899 0
-834 -908 0
-865 -888 0
-865 -899 0
-865 -908 0
-888 -899 0
-888 -908 0
-899 -908 0
192 607 737 835 866 900 909 0
-192 -607 0
-192 -737 0
-192 -835 0
-192 -866 0
-192 -900 0
-192 -909 0
-607 -737 0
-607 -835 0
-607 -866 0
-607 -900 0
-607 -909 0
-737 -835 0
-737 -866 0
-737 -900 0
-737 -909 0
-835 -866 0
-835 -900 0
-835 -909 0
-866 -900 0
-866 -909 0
-900 -909 0
84 106 193 608 681 738 789 910 0
-84 -106 0
-84 -193 0
-84 -608 0
-84 -681 0
-84 -738 0
-84 -789 0
-84 -910 0
-106 -193 0
-106 -608 0
-106 -681 0
-106 -738 0
-106 -789 0
-106 -910 0
-193 -608 0
-193 -681 0
-193 -738 0
-193 -789 0
-193 -910 0
-608 -681 0
-608 -738 0
-608 -789 0
-608 -910 0
-681 -738 0
-681 -789 0
-681 -910 0
-738 -789 0
-738 -910 0
-789 -910 0
107 194 609 691 739 790 867 901 911 0
-107 -194 0
-107 -609 0
-107 -691 0
-107 -739 0
-107 -790 0
-107 -867 0
-107 -901 0
-107 -911 0
-194 -609 0
-194 -691 0
-194 -739 0
-194 -790 0
-194 -867 0
-194 -901 0
-194 -911 0
-609 -691 0
-609 -739 0
-609 -790 0
-609 -867 0
-609 -901 0
-609 -911 0
-691 -739 0
-691 -790 0
-691 -867 0
-691 -901 0
-691 -911 0
-739 -790 0
-739 -867 0
-739 -901 0
-739 -911 0
-790 -867 0
-790 -901 0
-790 -911 0
-867 -901 0
-867 -911 0
-901 -911 0
85 682 684 740 791 836 902 0
-85 -682 0
-85 -684 0
-85 -740 0
-85 -791 0
-85 -836 0
-85 -902 0
-682 -684 0
-682 -740 0
-682 -791 0
-682 -836 0
-682 -902 0
-684 -740 0
-684 -791 0
-684 -836 0
-684 -902 0
-740 -791 0
-740 -836 0
-740 -902 0
-791 -836 0
-791 -902 0
-836 -902 0
685 792 868 903 912 0
-685 -792 0
-685 -868 0
-685 -903 0
-685 -912 0
-792 -868 0
-792 -903 0
-792 -912 0
-868 -903 0
-868 -912 0
-903 -912 0
172 683 686 741 793 869 0
-172 -683 0
-172 -686 0
-172 -741 0
-172 -793 0
-172 -869 0
-683 -686 0
-683 -741 0
-683 -793 0
-683 -869 0
-686 -741 0
-686 -793 0
-686 -869 0
-741 -793 0
-741 -869 0
-793 -869 0
108 169 260 693 913 921 930 945 0
-108 -169 0
-108 -260 0
-108 -693 0
-108 -913 0
-108 -921 0
-108 -930 0
-108 -945 0
-169 -260 0
-169 -693 0
-169 -913 0
-169 -921 0
-169 -930 0
-169 -945 0
-260 -693 0
-260 -913 0
-260 -921 0
-260 -930 0
-260 -945 0
-693 -913 0
-693 -921 0
-693 -930 0
-693 -945 0
-913 -921 0
-913 -930 0
-913 -945 0
-921 -930 0
-921 -945 0
-930 -945 0
170 195 589 694 914 922 931 0
-170 -195 0
-170 -589 0
-170 -694 0
-170 -914 0
-170 -922 0
-170 -931 0
-195 -589 0
-195 -694 0
-195 -914 0
-195 -922 0
-195 -931 0
-589 -694 0
-589 -914 0
-589 -922 0
-589 -931 0
-694 -914 0
-694 -922 0
-694 -931 0
-914 -922 0
-914 -931 0
-922 -931 0
109 171 196 590 695 915 932 0
-109 -171 0
-109 -196 0
-109 -590 0
-109 -695 0
-109 -915 0
-109 -932 0
-171 -196 0
-171 -590 0
-171 -695 0
-171 -915 0
-171 -932 0
-196 -590 0
-196 -695 0
-196 -915 0
-196 -932 0
-590 -695 0
-590 -915 0
-590 -932 0
-695 -915 0
-695 -932 0
-915 -932 0
197 591 610 912 933 946 0
-197 -591 0
-197 -610 0
-197 -912 0
-197 -933 0
-197 -946 0
-591 -610 0
-591 -912 0
-591 -933 0
-591 -946 0
-610 -912 0
-610 -933 0
-610 -946 0
-912 -933 0
-912 -946 0
-933 -946 0
165 254 605 923 934 0
-165 -254 0
-165 -605 0
-165 -923 0
-165 -934 0
-254 -605 0
-254 -923 0
-254 -934 0
-605 -923 0
-605 -934 0
-923 -934 0
255 584 606 904 916 924 938 0
-255 -584 0
-255 -606 0
-255 -904 0
-255 -916 0
-255 -924 0
-255 -938 0
-584 -606 0
-584 -904 0
-584 -916 0
-584 -924 0
-584 -938 0
-606 -904 0
-606 -916 0
-606 -924 0
-606 -938 0
-904 -916 0
-904 -924 0
-904 -938 0
-916 -924 0
-916 -938 0
-924 -938 0
166 256 585 696 905 917 925 939 0
-166 -256 0
-166 -585 0
-166 -696 0
-166 -905 0
-166 -917 0
-166 -925 0
-166 -939 0
-256 -585 0
-256 -696 0
-256 -905 0
-256 -917 0
-256 -925 0
-256 -939 0
-585 -696 0
-585 -905 0
-585 -917 0
-585 -925 0
-585 -939 0
-696 -905 0
-696 -917 0
-696 -925 0
-696 -939 0
-905 -917 0
-905 -925 0
-905 -939 0
-917 -925 0
-917 -939 0
-925 -939 0
110 167 257 586 916 926 935 947 0
-110 -167 0
-110 -257 0
-110 -586 0
-110 -916 0
-110 -926 0
-110 -935 0
-110 -947 0
-167 -257 0
-167 -586 0
-167 -916 0
-167 -926 0
-167 -935 0
-167 -947 0
-257 -586 0
-257 -916 0
-257 -926 0
-257 -935 0
-257 -947 0
-586 -916 0
-586 -926 0
-586 -935 0
-586 -947 0
-916 -926 0
-916 -935 0
-916 -947 0
-926 -935 0
-926 -947 0
-935 -947 0
587 607 697 906 918 927 940 0
-587 -607 0
-587 -697 0
-587 -906 0
-587 -918 0
-587 -927 0
-587 -940 0
-607 -697 0
-607 -906 0
-607 -918 0
-607 -927 0
-607 -940 0
-697 -906 0
-697 -918 0
-697 -927 0
-697 -940 0
-906 -918 0
-906 -927 0
-906 -940 0
-918 -927 0
-918 -940 0
-927 -940 0
111 198 258 608 907 917 919 941 948 0
-111 -198 0
-111 -258 0
-111 -608 0
-111 -907 0
-111 -917 0
-111 -919 0
-111 -941 0
-111 -948 0
-198 -258 0
-198 -608 0
-198 -907 0
-198 -917 0
-198 -919 0
-198 -941 0
-198 -948 0
-258 -608 0
-258 -907 0
-258 -917 0
-258 -919 0
-258 -941 0
-258 -948 0
-608 -907 0
-608 -917 0
-608 -919 0
-608 -941 0
-608 -948 0
-907 -917 0
-907 -919 0
-907 -941 0
-907 -948 0
-917 -919 0
-917 -941 0
-917 -948 0
-919 -941 0
-919 -948 0
-941 -948 0
199 609 698 908 920 928 936 942 949 0
-199 -609 0
-199 -698 0
-199 -908 0
-199 -920 0
-199 -928 0
-199 -936 0
-199 -942 0
-199 -949 0
-609 -698 0
-609 -908 0
-609 -920 0
-609 -928 0
-609 -936 0
-609 -942 0
-609 -949 0
-698 -908 0
-698 -920 0
-698 -928 0
-698 -936 0
-698 -942 0
-698 -949 0
-908 -920 0
-908 -928 0
-908 -936 0
-908 -942 0
-908 -949 0
-920 -928 0
-920 -936 0
-920 -942 0
-920 -949 0
-928 -936 0
-928 -942 0
-928 -949 0
-936 -942 0
-936 -949 0
-942 -949 0
112 200 699 909 913 918 929 0
-112 -200 0
-112 -699 0
-112 -909 0
-112 -913 0
-112 -918 0
-112 -929 0
-200 -699 0
-200 -909 0
-200 -913 0
-200 -918 0
-200 -929 0
-699 -909 0
-699 -913 0
-699 -918 0
-699 -929 0
-909 -913 0
-909 -918 0
-909 -929 0
-913 -918 0
-913 -929 0
-918 -929 0
201 259 588 910 914 919 937 943 950 0
-201 -259 0
-201 -588 0
-201 -910 0
-201 -914 0
-201 -919 0
-201 -937 0
-201 -943 0
-201 -950 0
-259 -588 0
-259 -910 0
-259 -914 0
-259 -919 0
-259 -937 0
-259 -943 0
-259 -950 0
-588 -910 0
-588 -914 0
-588 -919 0
-588 -937 0
-588 -943 0
-588 -950 0
-910 -914 0
-910 -919 0
-910 -937 0
-910 -943 0
-910 -950 0
-914 -919 0
-914 -937 0
-914 -943 0
-914 -950 0
-919 -937 0
-919 -943 0
-919 -950 0
-937 -943 0
-937 -950 0
-943 -950 0
113 168 692 911 915 920 944 951 0
-113 -168 0
-113 -692 0
-113 -911 0
-113 -915 0
-113 -920 0
-113 -944 0
-113 -951 0
-168 -692 0
-168 -911 0
-168 -915 0
-168 -920 0
-168 -944 0
-168 -951 0
-692 -911 0
-692 -915 0
-692 -920 0
-692 -944 0
-692 -951 0
-911 -915 0
-911 -920 0
-911 -944 0
-911 -951 0
-915 -920 0
-915 -944 0
-915 -951 0
-920 -944 0
-920 -951 0
-944 -951 0
202 252 333 559 589 701 952 960 967 0
-202 -252 0
-202 -333 0
-202 -559 0
-202 -589 0
-202 -701 0
-202 -952 0
-202 -960 0
-202 -967 0
-252 -333 0
-252 -559 0
-252 -589 0
-252 -701 0
-252 -952 0
-252 -960 0
-252 -967 0
-333 -559 0
-333 -589 0
-333 -701 0
-333 -952 0
-333 -960 0
-333 -967 0
-559 -589 0
-559 -701 0
-559 -952 0
-559 -960 0
-559 -967 0
-589 -701 0
-589 -952 0
-589 -960 0
-589 -967 0
-701 -952 0
-701 -960 0
-701 -967 0
-952 -960 0
-952 -967 0
-960 -967 0
253 590 683 702 894 923 961 0
-253 -590 0
-253 -683 0
-253 -702 0
-253 -894 0
-253 -923 0
-253 -961 0
-590 -683 0
-590 -702 0
-590 -894 0
-590 -923 0
-590 -961 0
-683 -702 0
-683 -894 0
-683 -923 0
-683 -961 0
-702 -894 0
-702 -923 0
-702 -961 0
-894 -923 0
-894 -961 0
-923 -961 0
203 326 591 676 703 953 968 975 0
-203 -326 0
-203 -591 0
-203 -676 0
-203 -703 0
-203 -953 0
-203 -968 0
-203 -975 0
-326 -591 0
-326 -676 0
-326 -703 0
-326 -953 0
-326 -968 0
-326 -975 0
-591 -676 0
-591 -703 0
-591 -953 0
-591 -968 0
-591 -975 0
-676 -703 0
-676 -953 0
-676 -968 0
-676 -975 0
-703 -953 0
-703 -968 0
-703 -975 0
-953 -968 0
-953 -975 0
-968 -975 0
114 204 677 704 895 924 954 962 969 0
-114 -204 0
-114 -677 0
-114 -704 0
-114 -895 0
-114 -924 0
-114 -954 0
-114 -962 0
-114 -969 0
-204 -677 0
-204 -704 0
-204 -895 0
-204 -924 0
-204 -954 0
-204 -962 0
-204 -969 0
-677 -704 0
-677 -895 0
-677 -924 0
-677 -954 0
-677 -962 0
-677 -969 0
-704 -895 0
-704 -924 0
-704 -954 0
-704 -962 0
-704 -969 0
-895 -924 0
-895 -954 0
-895 -962 0
-895 -969 0
-924 -954 0
-924 -962 0
-924 -969 0
-954 -962 0
-954 -969 0
-962 -969 0
115 205 327 678 896 925 970 0
-115 -205 0
-115 -327 0
-115 -678 0
-115 -896 0
-115 -925 0
-115 -970 0
-205 -327 0
-205 -678 0
-205 -896 0
-205 -925 0
-205 -970 0
-327 -678 0
-327 -896 0
-327 -925 0
-327 -970 0
-678 -896 0
-678 -925 0
-678 -970 0
-896 -925 0
-896 -970 0
-925 -970 0
246 328 552 584 926 955 971 0
-246 -328 0
-246 -552 0
-246 -584 0
-246 -926 0
-246 -955 0
-246 -971 0
-328 -552 0
-328 -584 0
-328 -926 0
-328 -955 0
-328 -971 0
-552 -584 0
-552 -926 0
-552 -955 0
-552 -971 0
-584 -926 0
-584 -955 0
-584 -971 0
-926 -955 0
-926 -971 0
-955 -971 0
116 889 927 956 972 976 0
-116 -889 0
-116 -927 0
-116 -956 0
-116 -972 0
-116 -976 0
-889 -927 0
-889 -956 0
-889 -972 0
-889 -976 0
-927 -956 0
-927 -972 0
-927 -976 0
-956 -972 0
-956 -976 0
-972 -976 0
247 329 553 585 679 705 890 963 0
-247 -329 0
-247 -553 0
-247 -585 0
-247 -679 0
-247 -705 0
-247 -890 0
-247 -963 0
-329 -553 0
-329 -585 0
-329 -679 0
-329 -705 0
-329 -890 0
-329 -963 0
-553 -585 0
-553 -679 0
-553 -705 0
-553 -890 0
-553 -963 0
-585 -679 0
-585 -705 0
-585 -890 0
-585 -963 0
-679 -705 0
-679 -890 0
-679 -963 0
-705 -890 0
-705 -963 0
-890 -963 0
248 554 586 680 928 957 964 977 0
-248 -554 0
-248 -586 0
-248 -680 0
-248 -928 0
-248 -957 0
-248 -964 0
-248 -977 0
-554 -586 0
-554 -680 0
-554 -928 0
-554 -957 0
-554 -964 0
-554 -977 0
-586 -680 0
-586 -928 0
-586 -957 0
-586 -964 0
-586 -977 0
-680 -928 0
-680 -957 0
-680 -964 0
-680 -977 0
-928 -957 0
-928 -964 0
-928 -977 0
-957 -964 0
-957 -977 0
-964 -977 0
206 330 555 587 706 929 978 0
-206 -330 0
-206 -555 0
-206 -587 0
-206 -706 0
-206 -929 0
-206 -978 0
-330 -555 0
-330 -587 0
-330 -706 0
-330 -929 0
-330 -978 0
-555 -587 0
-555 -706 0
-555 -929 0
-555 -978 0
-587 -706 0
-587 -929 0
-587 -978 0
-706 -929 0
-706 -978 0
-929 -978 0
207 331 681 891 958 965 973 979 0
-207 -331 0
-207 -681 0
-207 -891 0
-207 -958 0
-207 -965 0
-207 -973 0
-207 -979 0
-331 -681 0
-331 -891 0
-331 -958 0
-331 -965 0
-331 -973 0
-331 -979 0
-681 -891 0
-681 -958 0
-681 -965 0
-681 -973 0
-681 -979 0
-891 -958 0
-891 -965 0
-891 -973 0
-891 -979 0
-958 -965 0
-958 -973 0
-958 -979 0
-965 -973 0
-965 -979 0
-973 -979 0
117 249 556 707 892 921 974 980 0
-117 -249 0
-117 -556 0
-117 -707 0
-117 -892 0
-117 -921 0
-117 -974 0
-117 -980 0
-249 -556 0
-249 -707 0
-249 -892 0
-249 -921 0
-249 -974 0
-249 -980 0
-556 -707 0
-556 -892 0
-556 -921 0
-556 -974 0
-556 -980 0
-707 -892 0
-707 -921 0
-707 -974 0
-707 -980 0
-892 -921 0
-892 -974 0
-892 -980 0
-921 -974 0
-921 -980 0
-974 -980 0
118 250 332 557 588 893 922 966 981 0
-118 -250 0
-118 -332 0
-118 -557 0
-118 -588 0
-118 -893 0
-118 -922 0
-118 -966 0
-118 -981 0
-250 -332 0
-250 -557 0
-250 -588 0
-250 -893 0
-250 -922 0
-250 -966 0
-250 -981 0
-332 -557 0
-332 -588 0
-332 -893 0
-332 -922 0
-332 -966 0
-332 -981 0
-557 -588 0
-557 -893 0
-557 -922 0
-557 -966 0
-557 -981 0
-588 -893 0
-588 -922 0
-588 -966 0
-588 -981 0
-893 -922 0
-893 -966 0
-893 -981 0
-922 -966 0
-922 -981 0
-966 -981 0
119 251 558 682 700 959 0
-119 -251 0
-119 -558 0
-119 -682 0
-119 -700 0
-119 -959 0
-251 -558 0
-251 -682 0
-251 -700 0
-251 -959 0
-558 -682 0
-558 -700 0
-558 -959 0
-682 -700 0
-682 -959 0
-700 -959 0
120 323 400 709 933 982 994 0
-120 -323 0
-120 -400 0
-120 -709 0
-120 -933 0
-120 -982 0
-120 -994 0
-323 -400 0
-323 -709 0
-323 -933 0
-323 -982 0
-323 -994 0
-400 -709 0
-400 -933 0
-400 -982 0
-400 -994 0
-709 -933 0
-709 -982 0
-709 -994 0
-933 -982 0
-933 -994 0
-982 -994 0
208 324 401 520 559 983 0
-208 -324 0
-208 -401 0
-208 -520 0
-208 -559 0
-208 -983 0
-324 -401 0
-324 -520 0
-324 -559 0
-324 -983 0
-401 -520 0
-401 -559 0
-401 -983 0
-520 -559 0
-520 -983 0
-559 -983 0
121 209 325 395 521 741 934 0
-121 -209 0
-121 -325 0
-121 -395 0
-121 -521 0
-121 -741 0
-121 -934 0
-209 -325 0
-209 -395 0
-209 -521 0
-209 -741 0
-209 -934 0
-325 -395 0
-325 -521 0
-325 -741 0
-325 -934 0
-395 -521 0
-395 -741 0
-395 -934 0
-521 -741 0
-521 -934 0
-741 -934 0
122 210 396 710 874 912 984 995 0
-122 -210 0
-122 -396 0
-122 -710 0
-122 -874 0
-122 -912 0
-122 -984 0
-122 -995 0
-210 -396 0
-210 -710 0
-210 -874 0
-210 -912 0
-210 -984 0
-210 -995 0
-396 -710 0
-396 -874 0
-396 -912 0
-396 -984 0
-396 -995 0
-710 -874 0
-710 -912 0
-710 -984 0
-710 -995 0
-874 -912 0
-874 -984 0
-874 -995 0
-912 -984 0
-912 -995 0
-984 -995 0
123 522 711 875 985 0
-123 -522 0
-123 -711 0
-123 -875 0
-123 -985 0
-522 -711 0
-522 -875 0
-522 -985 0
-711 -875 0
-711 -985 0
-875 -985 0
124 317 552 876 904 935 988 0
-124 -317 0
-124 -552 0
-124 -876 0
-124 -904 0
-124 -935 0
-124 -988 0
-317 -552 0
-317 -876 0
-317 -904 0
-317 -935 0
-317 -988 0
-552 -876 0
-552 -904 0
-552 -935 0
-552 -988 0
-876 -904 0
-876 -935 0
-876 -988 0
-904 -935 0
-904 -988 0
-935 -988 0
211 553 736 870 905 986 989 996 0
-211 -553 0
-211 -736 0
-211 -870 0
-211 -905 0
-211 -986 0
-211 -989 0
-211 -996 0
-553 -736 0
-553 -870 0
-553 -905 0
-553 -986 0
-553 -989 0
-553 -996 0
-736 -870 0
-736 -905 0
-736 -986 0
-736 -989 0
-736 -996 0
-870 -905 0
-870 -986 0
-870 -989 0
-870 -996 0
-905 -986 0
-905 -989 0
-905 -996 0
-986 -989 0
-986 -996 0
-989 -996 0
212 318 397 517 554 936 990 997 0
-212 -318 0
-212 -397 0
-212 -517 0
-212 -554 0
-212 -936 0
-212 -990 0
-212 -997 0
-318 -397 0
-318 -517 0
-318 -554 0
-318 -936 0
-318 -990 0
-318 -997 0
-397 -517 0
-397 -554 0
-397 -936 0
-397 -990 0
-397 -997 0
-517 -554 0
-517 -936 0
-517 -990 0
-517 -997 0
-554 -936 0
-554 -990 0
-554 -997 0
-936 -990 0
-936 -997 0
-990 -997 0
398 555 712 737 871 906 991 998 0
-398 -555 0
-398 -712 0
-398 -737 0
-398 -871 0
-398 -906 0
-398 -991 0
-398 -998 0
-555 -712 0
-555 -737 0
-555 -871 0
-555 -906 0
-555 -991 0
-555 -998 0
-712 -737 0
-712 -871 0
-712 -906 0
-712 -991 0
-712 -998 0
-737 -871 0
-737 -906 0
-737 -991 0
-737 -998 0
-871 -906 0
-871 -991 0
-871 -998 0
-906 -991 0
-906 -998 0
-991 -998 0
125 213 319 738 872 907 937 987 992 0
-125 -213 0
-125 -319 0
-125 -738 0
-125 -872 0
-125 -907 0
-125 -937 0
-125 -987 0
-125 -992 0
-213 -319 0
-213 -738 0
-213 -872 0
-213 -907 0
-213 -937 0
-213 -987 0
-213 -992 0
-319 -738 0
-319 -872 0
-319 -907 0
-319 -937 0
-319 -987 0
-319 -992 0
-738 -872 0
-738 -907 0
-738 -937 0
-738 -987 0
-738 -992 0
-872 -907 0
-872 -937 0
-872 -987 0
-872 -992 0
-907 -937 0
-907 -987 0
-907 -992 0
-937 -987 0
-937 -992 0
-987 -992 0
126 214 713 739 873 908 999 0
-126 -214 0
-126 -713 0
-126 -739 0
-126 -873 0
-126 -908 0
-126 -999 0
-214 -713 0
-214 -739 0
-214 -873 0
-214 -908 0
-214 -999 0
-713 -739 0
-713 -873 0
-713 -908 0
-713 -999 0
-739 -873 0
-739 -908 0
-739 -999 0
-873 -908 0
-873 -999 0
-908 -999 0
127 215 320 518 556 714 909 930 1000 0
-127 -215 0
-127 -320 0
-127 -518 0
-127 -556 0
-127 -714 0
-127 -909 0
-127 -930 0
-127 -1000 0
-215 -320 0
-215 -518 0
-215 -556 0
-215 -714 0
-215 -909 0
-215 -930 0
-215 -1000 0
-320 -518 0
-320 -556 0
-320 -714 0
-320 -909 0
-320 -930 0
-320 -1000 0
-518 -556 0
-518 -714 0
-518 -909 0
-518 -930 0
-518 -1000 0
-556 -714 0
-556 -909 0
-556 -930 0
-556 -1000 0
-714 -909 0
-714 -930 0
-714 -1000 0
-909 -930 0
-909 -1000 0
-930 -1000 0
216 321 399 519 557 910 931 0
-216 -321 0
-216 -399 0
-216 -519 0
-216 -557 0
-216 -910 0
-216 -931 0
-321 -399 0
-321 -519 0
-321 -557 0
-321 -910 0
-321 -931 0
-399 -519 0
-399 -557 0
-399 -910 0
-399 -931 0
-519 -557 0
-519 -910 0
-519 -931 0
-557 -910 0
-557 -931 0
-910 -931 0
322 558 708 740 911 932 993 1001 0
-322 -558 0
-322 -708 0
-322 -740 0
-322 -911 0
-322 -932 0
-322 -993 0
-322 -1001 0
-558 -708 0
-558 -740 0
-558 -911 0
-558 -932 0
-558 -993 0
-558 -1001 0
-708 -740 0
-708 -911 0
-708 -932 0
-708 -993 0
-708 -1001 0
-740 -911 0
-740 -932 0
-740 -993 0
-740 -1001 0
-911 -932 0
-911 -993 0
-911 -1001 0
-932 -993 0
-932 -1001 0
-993 -1001 0
128 392 458 716 792 847 913 0
-128 -392 0
-128 -458 0
-128 -716 0
-128 -792 0
-128 -847 0
-128 -913 0
-392 -458 0
-392 -716 0
-392 -792 0
-392 -847 0
-392 -913 0
-458 -716 0
-458 -792 0
-458 -847 0
-458 -913 0
-716 -792 0
-716 -847 0
-716 -913 0
-792 -847 0
-792 -913 0
-847 -913 0
217 393 459 480 520 717 914 986 1002 0
-217 -393 0
-217 -459 0
-217 -480 0
-217 -520 0
-217 -717 0
-217 -914 0
-217 -986 0
-217 -1002 0
-393 -459 0
-393 -480 0
-393 -520 0
-393 -717 0
-393 -914 0
-393 -986 0
-393 -1002 0
-459 -480 0
-459 -520 0
-459 -717 0
-459 -914 0
-459 -986 0
-459 -1002 0
-480 -520 0
-480 -717 0
-480 -914 0
-480 -986 0
-480 -1002 0
-520 -717 0
-520 -914 0
-520 -986 0
-520 -1002 0
-717 -914 0
-717 -986 0
-717 -1002 0
-914 -986 0
-914 -1002 0
-986 -1002 0
129 218 394 453 521 793 848 894 915 0
-129 -218 0
-129 -394 0
-129 -453 0
-129 -521 0
-129 -793 0
-129 -848 0
-129 -894 0
-129 -915 0
-218 -394 0
-218 -453 0
-218 -521 0
-218 -793 0
-218 -848 0
-218 -894 0
-218 -915 0
-394 -453 0
-394 -521 0
-394 -793 0
-394 -848 0
-394 -894 0
-394 -915 0
-453 -521 0
-453 -793 0
-453 -848 0
-453 -894 0
-453 -915 0
-521 -793 0
-521 -848 0
-521 -894 0
-521 -915 0
-793 -848 0
-793 -894 0
-793 -915 0
-848 -894 0
-848 -915 0
-894 -915 0
130 219 386 454 481 895 938 987 0
-130 -219 0
-130 -386 0
-130 -454 0
-130 -481 0
-130 -895 0
-130 -938 0
-130 -987 0
-219 -386 0
-219 -454 0
-219 -481 0
-219 -895 0
-219 -938 0
-219 -987 0
-386 -454 0
-386 -481 0
-386 -895 0
-386 -938 0
-386 -987 0
-454 -481 0
-454 -895 0
-454 -938 0
-454 -987 0
-481 -895 0
-481 -938 0
-481 -987 0
-895 -938 0
-895 -987 0
-938 -987 0
131 220 387 455 482 522 718 0
-131 -220 0
-131 -387 0
-131 -455 0
-131 -482 0
-131 -522 0
-131 -718 0
-220 -387 0
-220 -455 0
-220 -482 0
-220 -522 0
-220 -718 0
-387 -455 0
-387 -482 0
-387 -522 0
-387 -718 0
-455 -482 0
-455 -522 0
-455 -718 0
-482 -522 0
-482 -718 0
-522 -718 0
132 221 456 787 849 896 939 1003 0
-132 -221 0
-132 -456 0
-132 -787 0
-132 -849 0
-132 -896 0
-132 -939 0
-132 -1003 0
-221 -456 0
-221 -787 0
-221 -849 0
-221 -896 0
-221 -939 0
-221 -1003 0
-456 -787 0
-456 -849 0
-456 -896 0
-456 -939 0
-456 -1003 0
-787 -849 0
-787 -896 0
-787 -939 0
-787 -1003 0
-849 -896 0
-849 -939 0
-849 -1003 0
-896 -939 0
-896 -1003 0
-939 -1003 0
719 788 889 940 1004 0
-719 -788 0
-719 -889 0
-719 -940 0
-719 -1004 0
-788 -889 0
-788 -940 0
-788 -1004 0
-889 -940 0
-889 -1004 0
-940 -1004 0
222 388 474 720 844 890 941 982 1005 0
-222 -388 0
-222 -474 0
-222 -720 0
-222 -844 0
-222 -890 0
-222 -941 0
-222 -982 0
-222 -1005 0
-388 -474 0
-388 -720 0
-388 -844 0
-388 -890 0
-388 -941 0
-388 -982 0
-388 -1005 0
-474 -720 0
-474 -844 0
-474 -890 0
-474 -941 0
-474 -982 0
-474 -1005 0
-720 -844 0
-720 -890 0
-720 -941 0
-720 -982 0
-720 -1005 0
-844 -890 0
-844 -941 0
-844 -982 0
-844 -1005 0
-890 -941 0
-890 -982 0
-890 -1005 0
-941 -982 0
-941 -1005 0
-982 -1005 0
223 475 517 845 916 942 983 1006 0
-223 -475 0
-223 -517 0
-223 -845 0
-223 -916 0
-223 -942 0
-223 -983 0
-223 -1006 0
-475 -517 0
-475 -845 0
-475 -916 0
-475 -942 0
-475 -983 0
-475 -1006 0
-517 -845 0
-517 -916 0
-517 -942 0
-517 -983 0
-517 -1006 0
-845 -916 0
-845 -942 0
-845 -983 0
-845 -1006 0
-916 -942 0
-916 -983 0
-916 -1006 0
-942 -983 0
-942 -1006 0
-983 -1006 0
133 476 789 846 891 917 943 984 0
-133 -476 0
-133 -789 0
-133 -846 0
-133 -891 0
-133 -917 0
-133 -943 0
-133 -984 0
-476 -789 0
-476 -846 0
-476 -891 0
-476 -917 0
-476 -943 0
-476 -984 0
-789 -846 0
-789 -891 0
-789 -917 0
-789 -943 0
-789 -984 0
-846 -891 0
-846 -917 0
-846 -943 0
-846 -984 0
-891 -917 0
-891 -943 0
-891 -984 0
-917 -943 0
-917 -984 0
-943 -984 0
477 721 790 944 1007 0
-477 -721 0
-477 -790 0
-477 -944 0
-477 -1007 0
-721 -790 0
-721 -944 0
-721 -1007 0
-790 -944 0
-790 -1007 0
-944 -1007 0
134 389 478 518 892 918 985 1008 0
-134 -389 0
-134 -478 0
-134 -518 0
-134 -892 0
-134 -918 0
-134 -985 0
-134 -1008 0
-389 -478 0
-389 -518 0
-389 -892 0
-389 -918 0
-389 -985 0
-389 -1008 0
-478 -518 0
-478 -892 0
-478 -918 0
-478 -985 0
-478 -1008 0
-518 -892 0
-518 -918 0
-518 -985 0
-518 -1008 0
-892 -918 0
-892 -985 0
-892 -1008 0
-918 -985 0
-918 -1008 0
-985 -1008 0
135 224 390 457 519 893 919 0
-135 -224 0
-135 -390 0
-135 -457 0
-135 -519 0
-135 -893 0
-135 -919 0
-224 -390 0
-224 -457 0
-224 -519 0
-224 -893 0
-224 -919 0
-390 -457 0
-390 -519 0
-390 -893 0
-390 -919 0
-457 -519 0
-457 -893 0
-457 -919 0
-519 -893 0
-519 -919 0
-893 -919 0
136 391 479 715 791 920 1009 0
-136 -391 0
-136 -479 0
-136 -715 0
-136 -791 0
-136 -920 0
-136 -1009 0
-391 -479 0
-391 -715 0
-391 -791 0
-391 -920 0
-391 -1009 0
-479 -715 0
-479 -791 0
-479 -920 0
-479 -1009 0
-715 -791 0
-715 -920 0
-715 -1009 0
-791 -920 0
-791 -1009 0
-920 -1009 0
137 452 921 946 955 0
-137 -452 0
-137 -921 0
-137 -946 0
-137 -955 0
-452 -921 0
-452 -946 0
-452 -955 0
-921 -946 0
-921 -955 0
-946 -955 0
225 420 480 723 806 922 952 956 0
-225 -420 0
-225 -480 0
-225 -723 0
-225 -806 0
-225 -922 0
-225 -952 0
-225 -956 0
-420 -480 0
-420 -723 0
-420 -806 0
-420 -922 0
-420 -952 0
-420 -956 0
-480 -723 0
-480 -806 0
-480 -922 0
-480 -952 0
-480 -956 0
-723 -806 0
-723 -922 0
-723 -952 0
-723 -956 0
-806 -922 0
-806 -952 0
-806 -956 0
-922 -952 0
-922 -956 0
-952 -956 0
138 226 724 874 953 957 0
-138 -226 0
-138 -724 0
-138 -874 0
-138 -953 0
-138 -957 0
-226 -724 0
-226 -874 0
-226 -953 0
-226 -957 0
-724 -874 0
-724 -953 0
-724 -957 0
-874 -953 0
-874 -957 0
-953 -957 0
139 227 421 444 481 504 954 0
-139 -227 0
-139 -421 0
-139 -444 0
-139 -481 0
-139 -504 0
-139 -954 0
-227 -421 0
-227 -444 0
-227 -481 0
-227 -504 0
-227 -954 0
-421 -444 0
-421 -481 0
-421 -504 0
-421 -954 0
-444 -481 0
-444 -504 0
-444 -954 0
-481 -504 0
-481 -954 0
-504 -954 0
140 445 482 505 831 875 923 958 0
-140 -445 0
-140 -482 0
-140 -505 0
-140 -831 0
-140 -875 0
-140 -923 0
-140 -958 0
-445 -482 0
-445 -505 0
-445 -831 0
-445 -875 0
-445 -923 0
-445 -958 0
-482 -505 0
-482 -831 0
-482 -875 0
-482 -923 0
-482 -958 0
-505 -831 0
-505 -875 0
-505 -923 0
-505 -958 0
-831 -875 0
-831 -923 0
-831 -958 0
-875 -923 0
-875 -958 0
-923 -958 0
141 446 506 725 832 876 924 947 955 0
-141 -446 0
-141 -506 0
-141 -725 0
-141 -832 0
-141 -876 0
-141 -924 0
-141 -947 0
-141 -955 0
-446 -506 0
-446 -725 0
-446 -832 0
-446 -876 0
-446 -924 0
-446 -947 0
-446 -955 0
-506 -725 0
-506 -832 0
-506 -876 0
-506 -924 0
-506 -947 0
-506 -955 0
-725 -832 0
-725 -876 0
-725 -924 0
-725 -947 0
-725 -955 0
-832 -876 0
-832 -924 0
-832 -947 0
-832 -955 0
-876 -924 0
-876 -947 0
-876 -955 0
-924 -947 0
-924 -955 0
-947 -955 0
142 422 447 507 726 807 833 956 0
-142 -422 0
-142 -447 0
-142 -507 0
-142 -726 0
-142 -807 0
-142 -833 0
-142 -956 0
-422 -447 0
-422 -507 0
-422 -726 0
-422 -807 0
-422 -833 0
-422 -956 0
-447 -507 0
-447 -726 0
-447 -807 0
-447 -833 0
-447 -956 0
-507 -726 0
-507 -807 0
-507 -833 0
-507 -956 0
-726 -807 0
-726 -833 0
-726 -956 0
-807 -833 0
-807 -956 0
-833 -956 0
423 448 474 727 808 870 925 948 959 0
-423 -448 0
-423 -474 0
-423 -727 0
-423 -808 0
-423 -870 0
-423 -925 0
-423 -948 0
-423 -959 0
-448 -474 0
-448 -727 0
-448 -808 0
-448 -870 0
-448 -925 0
-448 -948 0
-448 -959 0
-474 -727 0
-474 -808 0
-474 -870 0
-474 -925 0
-474 -948 0
-474 -959 0
-727 -808 0
-727 -870 0
-727 -925 0
-727 -948 0
-727 -959 0
-808 -870 0
-808 -925 0
-808 -948 0
-808 -959 0
-870 -925 0
-870 -948 0
-870 -959 0
-925 -948 0
-925 -959 0
-948 -959 0
416 475 508 834 926 949 957 0
-416 -475 0
-416 -508 0
-416 -834 0
-416 -926 0
-416 -949 0
-416 -957 0
-475 -508 0
-475 -834 0
-475 -926 0
-475 -949 0
-475 -957 0
-508 -834 0
-508 -926 0
-508 -949 0
-508 -957 0
-834 -926 0
-834 -949 0
-834 -957 0
-926 -949 0
-926 -957 0
-949 -957 0
228 417 728 802 835 871 927 952 0
-228 -417 0
-228 -728 0
-228 -802 0
-228 -835 0
-228 -871 0
-228 -927 0
-228 -952 0
-417 -728 0
-417 -802 0
-417 -835 0
-417 -871 0
-417 -927 0
-417 -952 0
-728 -802 0
-728 -835 0
-728 -871 0
-728 -927 0
-728 -952 0
-802 -835 0
-802 -871 0
-802 -927 0
-802 -952 0
-835 -871 0
-835 -927 0
-835 -952 0
-871 -927 0
-871 -952 0
-927 -952 0
418 449 476 803 872 950 958 0
-418 -449 0
-418 -476 0
-418 -803 0
-418 -872 0
-418 -950 0
-418 -958 0
-449 -476 0
-449 -803 0
-449 -872 0
-449 -950 0
-449 -958 0
-476 -803 0
-476 -872 0
-476 -950 0
-476 -958 0
-803 -872 0
-803 -950 0
-803 -958 0
-872 -950 0
-872 -958 0
-950 -958 0
229 419 477 729 873 928 951 953 0
-229 -419 0
-229 -477 0
-229 -729 0
-229 -873 0
-229 -928 0
-229 -951 0
-229 -953 0
-419 -477 0
-419 -729 0
-419 -873 0
-419 -928 0
-419 -951 0
-419 -953 0
-477 -729 0
-477 -873 0
-477 -928 0
-477 -951 0
-477 -953 0
-729 -873 0
-729 -928 0
-729 -951 0
-729 -953 0
-873 -928 0
-873 -951 0
-873 -953 0
-928 -951 0
-928 -953 0
-951 -953 0
230 450 478 804 929 945 954 0
-230 -450 0
-230 -478 0
-230 -804 0
-230 -929 0
-230 -945 0
-230 -954 0
-450 -478 0
-450 -804 0
-450 -929 0
-450 -945 0
-450 -954 0
-478 -804 0
-478 -929 0
-478 -945 0
-478 -954 0
-804 -929 0
-804 -945 0
-804 -954 0
-929 -945 0
-929 -954 0
-945 -954 0
143 451 479 722 805 836 959 0
-143 -451 0
-143 -479 0
-143 -722 0
-143 -805 0
-143 -836 0
-143 -959 0
-451 -479 0
-451 -722 0
-451 -805 0
-451 -836 0
-451 -959 0
-479 -722 0
-479 -805 0
-479 -836 0
-479 -959 0
-722 -805 0
-722 -836 0
-722 -959 0
-805 -836 0
-805 -959 0
-836 -959 0
144 503 543 847 868 930 982 0
-144 -503 0
-144 -543 0
-144 -847 0
-144 -868 0
-144 -930 0
-144 -982 0
-503 -543 0
-503 -847 0
-503 -868 0
-503 -930 0
-503 -982 0
-543 -847 0
-543 -868 0
-543 -930 0
-543 -982 0
-847 -868 0
-847 -930 0
-847 -982 0
-868 -930 0
-868 -982 0
-930 -982 0
231 420 544 753 931 960 983 0
-231 -420 0
-231 -544 0
-231 -753 0
-231 -931 0
-231 -960 0
-231 -983 0
-420 -544 0
-420 -753 0
-420 -931 0
-420 -960 0
-420 -983 0
-544 -753 0
-544 -931 0
-544 -960 0
-544 -983 0
-753 -931 0
-753 -960 0
-753 -983 0
-931 -960 0
-931 -983 0
-960 -983 0
145 232 536 848 869 932 961 0
-145 -232 0
-145 -536 0
-145 -848 0
-145 -869 0
-145 -932 0
-145 -961 0
-232 -536 0
-232 -848 0
-232 -869 0
-232 -932 0
-232 -961 0
-536 -848 0
-536 -869 0
-536 -932 0
-536 -961 0
-848 -869 0
-848 -932 0
-848 -961 0
-869 -932 0
-869 -961 0
-932 -961 0
146 730 863 933 984 0
-146 -730 0
-146 -863 0
-146 -933 0
-146 -984 0
-730 -863 0
-730 -933 0
-730 -984 0
-863 -933 0
-863 -984 0
-933 -984 0
352 421 497 731 864 916 962 0
-352 -421 0
-352 -497 0
-352 -731 0
-352 -864 0
-352 -916 0
-352 -962 0
-421 -497 0
-421 -731 0
-421 -864 0
-421 -916 0
-421 -962 0
-497 -731 0
-497 -864 0
-497 -916 0
-497 -962 0
-731 -864 0
-731 -916 0
-731 -962 0
-864 -916 0
-864 -962 0
-916 -962 0
147 233 498 537 732 754 934 985 0
-147 -233 0
-147 -498 0
-147 -537 0
-147 -732 0
-147 -754 0
-147 -934 0
-147 -985 0
-233 -498 0
-233 -537 0
-233 -732 0
-233 -754 0
-233 -934 0
-233 -985 0
-498 -537 0
-498 -732 0
-498 -754 0
-498 -934 0
-498 -985 0
-537 -732 0
-537 -754 0
-537 -934 0
-537 -985 0
-732 -754 0
-732 -934 0
-732 -985 0
-754 -934 0
-754 -985 0
-934 -985 0
234 353 538 755 849 917 0
-234 -353 0
-234 -538 0
-234 -755 0
-234 -849 0
-234 -917 0
-353 -538 0
-353 -755 0
-353 -849 0
-353 -917 0
-538 -755 0
-538 -849 0
-538 -917 0
-755 -849 0
-755 -917 0
-849 -917 0
354 422 499 539 733 756 918 0
-354 -422 0
-354 -499 0
-354 -539 0
-354 -733 0
-354 -756 0
-354 -918 0
-422 -499 0
-422 -539 0
-422 -733 0
-422 -756 0
-422 -918 0
-499 -539 0
-499 -733 0
-499 -756 0
-499 -918 0
-539 -733 0
-539 -756 0
-539 -918 0
-733 -756 0
-733 -918 0
-756 -918 0
355 423 500 540 757 844 919 963 986 0
-355 -423 0
-355 -500 0
-355 -540 0
-355 -757 0
-355 -844 0
-355 -919 0
-355 -963 0
-355 -986 0
-423 -500 0
-423 -540 0
-423 -757 0
-423 -844 0
-423 -919 0
-423 -963 0
-423 -986 0
-500 -540 0
-500 -757 0
-500 -844 0
-500 -919 0
-500 -963 0
-500 -986 0
-540 -757 0
-540 -844 0
-540 -919 0
-540 -963 0
-540 -986 0
-757 -844 0
-757 -919 0
-757 -963 0
-757 -986 0
-844 -919 0
-844 -963 0
-844 -986 0
-919 -963 0
-919 -986 0
-963 -986 0
235 356 416 758 845 865 920 935 964 0
-235 -356 0
-235 -416 0
-235 -758 0
-235 -845 0
-235 -865 0
-235 -920 0
-235 -935 0
-235 -964 0
-356 -416 0
-356 -758 0
-356 -845 0
-356 -865 0
-356 -920 0
-356 -935 0
-356 -964 0
-416 -758 0
-416 -845 0
-416 -865 0
-416 -920 0
-416 -935 0
-416 -964 0
-758 -845 0
-758 -865 0
-758 -920 0
-758 -935 0
-758 -964 0
-845 -865 0
-845 -920 0
-845 -935 0
-845 -964 0
-865 -920 0
-865 -935 0
-865 -964 0
-920 -935 0
-920 -964 0
-935 -964 0
236 349 417 734 751 866 913 0
-236 -349 0
-236 -417 0
-236 -734 0
-236 -751 0
-236 -866 0
-236 -913 0
-349 -417 0
-349 -734 0
-349 -751 0
-349 -866 0
-349 -913 0
-417 -734 0
-417 -751 0
-417 -866 0
-417 -913 0
-734 -751 0
-734 -866 0
-734 -913 0
-751 -866 0
-751 -913 0
-866 -913 0
418 501 541 846 914 965 987 0
-418 -501 0
-418 -541 0
-418 -846 0
-418 -914 0
-418 -965 0
-418 -987 0
-501 -541 0
-501 -846 0
-501 -914 0
-501 -965 0
-501 -987 0
-541 -846 0
-541 -914 0
-541 -965 0
-541 -987 0
-846 -914 0
-846 -965 0
-846 -987 0
-914 -965 0
-914 -987 0
-965 -987 0
148 237 350 419 735 867 915 936 0
-148 -237 0
-148 -350 0
-148 -419 0
-148 -735 0
-148 -867 0
-148 -915 0
-148 -936 0
-237 -350 0
-237 -419 0
-237 -735 0
-237 -867 0
-237 -915 0
-237 -936 0
-350 -419 0
-350 -735 0
-350 -867 0
-350 -915 0
-350 -936 0
-419 -735 0
-419 -867 0
-419 -915 0
-419 -936 0
-735 -867 0
-735 -915 0
-735 -936 0
-867 -915 0
-867 -936 0
-915 -936 0
149 238 351 502 542 752 937 966 0
-149 -238 0
-149 -351 0
-149 -502 0
-149 -542 0
-149 -752 0
-149 -937 0
-149 -966 0
-238 -351 0
-238 -502 0
-238 -542 0
-238 -752 0
-238 -937 0
-238 -966 0
-351 -502 0
-351 -542 0
-351 -752 0
-351 -937 0
-351 -966 0
-502 -542 0
-502 -752 0
-502 -937 0
-502 -966 0
-542 -752 0
-542 -937 0
-542 -966 0
-752 -937 0
-752 -966 0
-937 -966 0
239 535 575 806 967 986 0
-239 -535 0
-239 -575 0
-239 -806 0
-239 -967 0
-239 -986 0
-535 -575 0
-535 -806 0
-535 -967 0
-535 -986 0
-575 -806 0
-575 -967 0
-575 -986 0
-806 -967 0
-806 -986 0
-967 -986 0
150 277 568 884 968 0
-150 -277 0
-150 -568 0
-150 -884 0
-150 -968 0
-277 -568 0
-277 -884 0
-277 -968 0
-568 -884 0
-568 -968 0
-884 -968 0
352 569 736 969 987 0
-352 -569 0
-352 -736 0
-352 -969 0
-352 -987 0
-569 -736 0
-569 -969 0
-569 -987 0
-736 -969 0
-736 -987 0
-969 -987 0
151 278 353 529 696 737 885 970 0
-151 -278 0
-151 -353 0
-151 -529 0
-151 -696 0
-151 -737 0
-151 -885 0
-151 -970 0
-278 -353 0
-278 -529 0
-278 -696 0
-278 -737 0
-278 -885 0
-278 -970 0
-353 -529 0
-353 -696 0
-353 -737 0
-353 -885 0
-353 -970 0
-529 -696 0
-529 -737 0
-529 -885 0
-529 -970 0
-696 -737 0
-696 -885 0
-696 -970 0
-737 -885 0
-737 -970 0
-885 -970 0
152 240 530 570 738 938 971 988 0
-152 -240 0
-152 -530 0
-152 -570 0
-152 -738 0
-152 -938 0
-152 -971 0
-152 -988 0
-240 -530 0
-240 -570 0
-240 -738 0
-240 -938 0
-240 -971 0
-240 -988 0
-530 -570 0
-530 -738 0
-530 -938 0
-530 -971 0
-530 -988 0
-570 -738 0
-570 -938 0
-570 -971 0
-570 -988 0
-738 -938 0
-738 -971 0
-738 -988 0
-938 -971 0
-938 -988 0
-971 -988 0
153 279 354 531 697 739 807 886 972 0
-153 -279 0
-153 -354 0
-153 -531 0
-153 -697 0
-153 -739 0
-153 -807 0
-153 -886 0
-153 -972 0
-279 -354 0
-279 -531 0
-279 -697 0
-279 -739 0
-279 -807 0
-279 -886 0
-279 -972 0
-354 -531 0
-354 -697 0
-354 -739 0
-354 -807 0
-354 -886 0
-354 -972 0
-531 -697 0
-531 -739 0
-531 -807 0
-531 -886 0
-531 -972 0
-697 -739 0
-697 -807 0
-697 -886 0
-697 -972 0
-739 -807 0
-739 -886 0
-739 -972 0
-807 -886 0
-807 -972 0
-886 -972 0
241 280 355 571 808 887 939 982 989 0
-241 -280 0
-241 -355 0
-241 -571 0
-241 -808 0
-241 -887 0
-241 -939 0
-241 -982 0
-241 -989 0
-280 -355 0
-280 -571 0
-280 -808 0
-280 -887 0
-280 -939 0
-280 -982 0
-280 -989 0
-355 -571 0
-355 -808 0
-355 -887 0
-355 -939 0
-355 -982 0
-355 -989 0
-571 -808 0
-571 -887 0
-571 -939 0
-571 -982 0
-571 -989 0
-808 -887 0
-808 -939 0
-808 -982 0
-808 -989 0
-887 -939 0
-887 -982 0
-887 -989 0
-939 -982 0
-939 -989 0
-982 -989 0
154 242 356 572 698 888 983 990 0
-154 -242 0
-154 -356 0
-154 -572 0
-154 -698 0
-154 -888 0
-154 -983 0
-154 -990 0
-242 -356 0
-242 -572 0
-242 -698 0
-242 -888 0
-242 -983 0
-242 -990 0
-356 -572 0
-356 -698 0
-356 -888 0
-356 -983 0
-356 -990 0
-572 -698 0
-572 -888 0
-572 -983 0
-572 -990 0
-698 -888 0
-698 -983 0
-698 -990 0
-888 -983 0
-888 -990 0
-983 -990 0
243 349 573 699 740 802 940 991 0
-243 -349 0
-243 -573 0
-243 -699 0
-243 -740 0
-243 -802 0
-243 -940 0
-243 -991 0
-349 -573 0
-349 -699 0
-349 -740 0
-349 -802 0
-349 -940 0
-349 -991 0
-573 -699 0
-573 -740 0
-573 -802 0
-573 -940 0
-573 -991 0
-699 -740 0
-699 -802 0
-699 -940 0
-699 -991 0
-740 -802 0
-740 -940 0
-740 -991 0
-802 -940 0
-802 -991 0
-940 -991 0
155 574 803 941 973 984 992 0
-155 -574 0
-155 -803 0
-155 -941 0
-155 -973 0
-155 -984 0
-155 -992 0
-574 -803 0
-574 -941 0
-574 -973 0
-574 -984 0
-574 -992 0
-803 -941 0
-803 -973 0
-803 -984 0
-803 -992 0
-941 -973 0
-941 -984 0
-941 -992 0
-973 -984 0
-973 -992 0
-984 -992 0
244 274 350 692 942 0
-244 -274 0
-244 -350 0
-244 -692 0
-244 -942 0
-274 -350 0
-274 -692 0
-274 -942 0
-350 -692 0
-350 -942 0
-692 -942 0
245 532 693 741 804 974 985 0
-245 -532 0
-245 -693 0
-245 -741 0
-245 -804 0
-245 -974 0
-245 -985 0
-532 -693 0
-532 -741 0
-532 -804 0
-532 -974 0
-532 -985 0
-693 -741 0
-693 -804 0
-693 -974 0
-693 -985 0
-741 -804 0
-741 -974 0
-741 -985 0
-804 -974 0
-804 -985 0
-974 -985 0
156 275 351 533 694 943 0
-156 -275 0
-156 -351 0
-156 -533 0
-156 -694 0
-156 -943 0
-275 -351 0
-275 -533 0
-275 -694 0
-275 -943 0
-351 -533 0
-351 -694 0
-351 -943 0
-533 -694 0
-533 -943 0
-694 -943 0
157 276 534 695 805 944 993 0
-157 -276 0
-157 -534 0
-157 -695 0
-157 -805 0
-157 -944 0
-157 -993 0
-276 -534 0
-276 -695 0
-276 -805 0
-276 -944 0
-276 -993 0
-534 -695 0
-534 -805 0
-534 -944 0
-534 -993 0
-695 -805 0
-695 -944 0
-695 -993 0
-805 -944 0
-805 -993 0
-944 -993 0
158 197 597 903 945 955 994 0
-158 -197 0
-158 -597 0
-158 -903 0
-158 -945 0
-158 -955 0
-158 -994 0
-197 -597 0
-197 -903 0
-197 -945 0
-197 -955 0
-197 -994 0
-597 -903 0
-597 -945 0
-597 -955 0
-597 -994 0
-903 -945 0
-903 -955 0
-903 -994 0
-945 -955 0
-945 -994 0
-955 -994 0
567 598 753 956 1002 0
-567 -598 0
-567 -753 0
-567 -956 0
-567 -1002 0
-598 -753 0
-598 -956 0
-598 -1002 0
-753 -956 0
-753 -1002 0
-956 -1002 0
246 277 628 946 957 975 995 0
-246 -277 0
-246 -628 0
-246 -946 0
-246 -957 0
-246 -975 0
-246 -995 0
-277 -628 0
-277 -946 0
-277 -957 0
-277 -975 0
-277 -995 0
-628 -946 0
-628 -957 0
-628 -975 0
-628 -995 0
-946 -957 0
-946 -975 0
-946 -995 0
-957 -975 0
-957 -995 0
-975 -995 0
247 560 592 629 754 897 958 0
-247 -560 0
-247 -592 0
-247 -629 0
-247 -754 0
-247 -897 0
-247 -958 0
-560 -592 0
-560 -629 0
-560 -754 0
-560 -897 0
-560 -958 0
-592 -629 0
-592 -754 0
-592 -897 0
-592 -958 0
-629 -754 0
-629 -897 0
-629 -958 0
-754 -897 0
-754 -958 0
-897 -958 0
159 248 278 561 593 755 1003 0
-159 -248 0
-159 -278 0
-159 -561 0
-159 -593 0
-159 -755 0
-159 -1003 0
-248 -278 0
-248 -561 0
-248 -593 0
-248 -755 0
-248 -1003 0
-278 -561 0
-278 -593 0
-278 -755 0
-278 -1003 0
-561 -593 0
-561 -755 0
-561 -1003 0
-593 -755 0
-593 -1003 0
-755 -1003 0
160 279 562 630 756 976 1004 0
-160 -279 0
-160 -562 0
-160 -630 0
-160 -756 0
-160 -976 0
-160 -1004 0
-279 -562 0
-279 -630 0
-279 -756 0
-279 -976 0
-279 -1004 0
-562 -630 0
-562 -756 0
-562 -976 0
-562 -1004 0
-630 -756 0
-630 -976 0
-630 -1004 0
-756 -976 0
-756 -1004 0
-976 -1004 0
198 280 563 594 631 757 898 959 996 1005 0
-198 -280 0
-198 -563 0
-198 -594 0
-198 -631 0
-198 -757 0
-198 -898 0
-198 -959 0
-198 -996 0
-198 -1005 0
-280 -563 0
-280 -594 0
-280 -631 0
-280 -757 0
-280 -898 0
-280 -959 0
-280 -996 0
-280 -1005 0
-563 -594 0
-563 -631 0
-563 -757 0
-563 -898 0
-563 -959 0
-563 -996 0
-563 -1005 0
-594 -631 0
-594 -757 0
-594 -898 0
-594 -959 0
-594 -996 0
-594 -1005 0
-631 -757 0
-631 -898 0
-631 -959 0
-631 -996 0
-631 -1005 0
-757 -898 0
-757 -959 0
-757 -996 0
-757 -1005 0
-898 -959 0
-898 -996 0
-898 -1005 0
-959 -996 0
-959 -1005 0
-996 -1005 0
161 199 249 564 758 899 947 977 997 1006 0
-161 -199 0
-161 -249 0
-161 -564 0
-161 -758 0
-161 -899 0
-161 -947 0
-161 -977 0
-161 -997 0
-161 -1006 0
-199 -249 0
-199 -564 0
-199 -758 0
-199 -899 0
-199 -947 0
-199 -977 0
-199 -997 0
-199 -1006 0
-249 -564 0
-249 -758 0
-249 -899 0
-249 -947 0
-249 -977 0
-249 -997 0
-249 -1006 0
-564 -758 0
-564 -899 0
-564 -947 0
-564 -977 0
-564 -997 0
-564 -1006 0
-758 -899 0
-758 -947 0
-758 -977 0
-758 -997 0
-758 -1006 0
-899 -947 0
-899 -977 0
-899 -997 0
-899 -1006 0
-947 -977 0
-947 -997 0
-947 -1006 0
-977 -997 0
-977 -1006 0
-997 -1006 0
200 250 751 900 952 978 998 0
-200 -250 0
-200 -751 0
-200 -900 0
-200 -952 0
-200 -978 0
-200 -998 0
-250 -751 0
-250 -900 0
-250 -952 0
-250 -978 0
-250 -998 0
-751 -900 0
-751 -952 0
-751 -978 0
-751 -998 0
-900 -952 0
-900 -978 0
-900 -998 0
-952 -978 0
-952 -998 0
-978 -998 0
162 201 251 565 595 948 979 0
-162 -201 0
-162 -251 0
-162 -565 0
-162 -595 0
-162 -948 0
-162 -979 0
-201 -251 0
-201 -565 0
-201 -595 0
-201 -948 0
-201 -979 0
-251 -565 0
-251 -595 0
-251 -948 0
-251 -979 0
-565 -595 0
-565 -948 0
-565 -979 0
-595 -948 0
-595 -979 0
-948 -979 0
274 901 949 953 999 1007 0
-274 -901 0
-274 -949 0
-274 -953 0
-274 -999 0
-274 -1007 0
-901 -949 0
-901 -953 0
-901 -999 0
-901 -1007 0
-949 -953 0
-949 -999 0
-949 -1007 0
-953 -999 0
-953 -1007 0
-999 -1007 0
163 252 566 626 954 980 1000 1008 0
-163 -252 0
-163 -566 0
-163 -626 0
-163 -954 0
-163 -980 0
-163 -1000 0
-163 -1008 0
-252 -566 0
-252 -626 0
-252 -954 0
-252 -980 0
-252 -1000 0
-252 -1008 0
-566 -626 0
-566 -954 0
-566 -980 0
-566 -1000 0
-566 -1008 0
-626 -954 0
-626 -980 0
-626 -1000 0
-626 -1008 0
-954 -980 0
-954 -1000 0
-954 -1008 0
-980 -1000 0
-980 -1008 0
-1000 -1008 0
164 195 253 275 596 752 950 981 0
-164 -195 0
-164 -253 0
-164 -275 0
-164 -596 0
-164 -752 0
-164 -950 0
-164 -981 0
-195 -253 0
-195 -275 0
-195 -596 0
-195 -752 0
-195 -950 0
-195 -981 0
-253 -275 0
-253 -596 0
-253 -752 0
-253 -950 0
-253 -981 0
-275 -596 0
-275 -752 0
-275 -950 0
-275 -981 0
-596 -752 0
-596 -950 0
-596 -981 0
-752 -950 0
-752 -981 0
-950 -981 0
196 276 627 902 951 1001 1009 0
-196 -276 0
-196 -627 0
-196 -902 0
-196 -951 0
-196 -1001 0
-196 -1009 0
-276 -627 0
-276 -902 0
-276 -951 0
-276 -1001 0
-276 -1009 0
-627 -902 0
-627 -951 0
-627 -1001 0
-627 -1009 0
-902 -951 0
-902 -1001 0
-902 -1009 0
-951 -1001 0
-951 -1009 0
-1001 -1009 0
323 632 674 1005 1010 1013 0
-323 -632 0
-323 -674 0
-323 -1005 0
-323 -1010 0
-323 -1013 0
-632 -674 0
-632 -1005 0
-632 -1010 0
-632 -1013 0
-674 -1005 0
-674 -1010 0
-674 -1013 0
-1005 -1010 0
-1005 -1013 0
-1010 -1013 0
244 324 526 566 633 675 962 1006 1011 0
-244 -324 0
-244 -526 0
-244 -566 0
-244 -633 0
-244 -675 0
-244 -962 0
-244 -1006 0
-244 -1011 0
-324 -526 0
-324 -566 0
-324 -633 0
-324 -675 0
-324 -962 0
-324 -1006 0
-324 -1011 0
-526 -566 0
-526 -633 0
-526 -675 0
-526 -962 0
-526 -1006 0
-526 -1011 0
-566 -633 0
-566 -675 0
-566 -962 0
-566 -1006 0
-566 -1011 0
-633 -675 0
-633 -962 0
-633 -1006 0
-633 -1011 0
-675 -962 0
-675 -1006 0
-675 -1011 0
-962 -1006 0
-962 -1011 0
-1006 -1011 0
202 245 281 325 527 634 760 1012 1014 0
-202 -245 0
-202 -281 0
-202 -325 0
-202 -527 0
-202 -634 0
-202 -760 0
-202 -1012 0
-202 -1014 0
-245 -281 0
-245 -325 0
-245 -527 0
-245 -634 0
-245 -760 0
-245 -1012 0
-245 -1014 0
-281 -325 0
-281 -527 0
-281 -634 0
-281 -760 0
-281 -1012 0
-281 -1014 0
-325 -527 0
-325 -634 0
-325 -760 0
-325 -1012 0
-325 -1014 0
-527 -634 0
-527 -760 0
-527 -1012 0
-527 -1014 0
-634 -760 0
-634 -1012 0
-634 -1014 0
-760 -1012 0
-760 -1014 0
-1012 -1014 0
203 282 668 880 1007 1013 0
-203 -282 0
-203 -668 0
-203 -880 0
-203 -1007 0
-203 -1013 0
-282 -668 0
-282 -880 0
-282 -1007 0
-282 -1013 0
-668 -880 0
-668 -1007 0
-668 -1013 0
-880 -1007 0
-880 -1013 0
-1007 -1013 0
204 528 567 761 881 1008 0
-204 -528 0
-204 -567 0
-204 -761 0
-204 -881 0
-204 -1008 0
-528 -567 0
-528 -761 0
-528 -881 0
-528 -1008 0
-567 -761 0
-567 -881 0
-567 -1008 0
-761 -881 0
-761 -1008 0
-881 -1008 0
239 283 669 762 882 963 1014 0
-239 -283 0
-239 -669 0
-239 -762 0
-239 -882 0
-239 -963 0
-239 -1014 0
-283 -669 0
-283 -762 0
-283 -882 0
-283 -963 0
-283 -1014 0
-669 -762 0
-669 -882 0
-669 -963 0
-669 -1014 0
-762 -882 0
-762 -963 0
-762 -1014 0
-882 -963 0
-882 -1014 0
-963 -1014 0
205 317 635 883 964 1009 0
-205 -317 0
-205 -635 0
-205 -883 0
-205 -964 0
-205 -1009 0
-317 -635 0
-317 -883 0
-317 -964 0
-317 -1009 0
-635 -883 0
-635 -964 0
-635 -1009 0
-883 -964 0
-883 -1009 0
-964 -1009 0
560 877 965 1002 1015 0
-560 -877 0
-560 -965 0
-560 -1002 0
-560 -1015 0
-877 -965 0
-877 -1002 0
-877 -1015 0
-965 -1002 0
-965 -1015 0
-1002 -1015 0
284 318 523 561 636 878 0
-284 -318 0
-284 -523 0
-284 -561 0
-284 -636 0
-284 -878 0
-318 -523 0
-318 -561 0
-318 -636 0
-318 -878 0
-523 -561 0
-523 -636 0
-523 -878 0
-561 -636 0
-561 -878 0
-636 -878 0
206 240 285 319 562 670 763 966 1016 0
-206 -240 0
-206 -285 0
-206 -319 0
-206 -562 0
-206 -670 0
-206 -763 0
-206 -966 0
-206 -1016 0
-240 -285 0
-240 -319 0
-240 -562 0
-240 -670 0
-240 -763 0
-240 -966 0
-240 -1016 0
-285 -319 0
-285 -562 0
-285 -670 0
-285 -763 0
-285 -966 0
-285 -1016 0
-319 -562 0
-319 -670 0
-319 -763 0
-319 -966 0
-319 -1016 0
-562 -670 0
-562 -763 0
-562 -966 0
-562 -1016 0
-670 -763 0
-670 -966 0
-670 -1016 0
-763 -966 0
-763 -1016 0
-966 -1016 0
207 563 637 671 764 1010 1015 0
-207 -563 0
-207 -637 0
-207 -671 0
-207 -764 0
-207 -1010 0
-207 -1015 0
-563 -637 0
-563 -671 0
-563 -764 0
-563 -1010 0
-563 -1015 0
-637 -671 0
-637 -764 0
-637 -1010 0
-637 -1015 0
-671 -764 0
-671 -1010 0
-671 -1015 0
-764 -1010 0
-764 -1015 0
-1010 -1015 0
241 320 524 564 638 672 879 1003 1011 0
-241 -320 0
-241 -524 0
-241 -564 0
-241 -638 0
-241 -672 0
-241 -879 0
-241 -1003 0
-241 -1011 0
-320 -524 0
-320 -564 0
-320 -638 0
-320 -672 0
-320 -879 0
-320 -1003 0
-320 -1011 0
-524 -564 0
-524 -638 0
-524 -672 0
-524 -879 0
-524 -1003 0
-524 -1011 0
-564 -638 0
-564 -672 0
-564 -879 0
-564 -1003 0
-564 -1011 0
-638 -672 0
-638 -879 0
-638 -1003 0
-638 -1011 0
-672 -879 0
-672 -1003 0
-672 -1011 0
-879 -1003 0
-879 -1011 0
-1003 -1011 0
242 286 321 525 759 960 1012 0
-242 -286 0
-242 -321 0
-242 -525 0
-242 -759 0
-242 -960 0
-242 -1012 0
-286 -321 0
-286 -525 0
-286 -759 0
-286 -960 0
-286 -1012 0
-321 -525 0
-321 -759 0
-321 -960 0
-321 -1012 0
-525 -759 0
-525 -960 0
-525 -1012 0
-759 -960 0
-759 -1012 0
-960 -1012 0
243 322 565 639 673 961 1004 1016 0
-243 -322 0
-243 -565 0
-243 -639 0
-243 -673 0
-243 -961 0
-243 -1004 0
-243 -1016 0
-322 -565 0
-322 -639 0
-322 -673 0
-322 -961 0
-322 -1004 0
-322 -1016 0
-565 -639 0
-565 -673 0
-565 -961 0
-565 -1004 0
-565 -1016 0
-639 -673 0
-639 -961 0
-639 -1004 0
-639 -1016 0
-673 -961 0
-673 -1004 0
-673 -1016 0
-961 -1004 0
-961 -1016 0
-1004 -1016 0
287 392 487 640 734 901 968 0
-287 -392 0
-287 -487 0
-287 -640 0
-287 -734 0
-287 -901 0
-287 -968 0
-392 -487 0
-392 -640 0
-392 -734 0
-392 -901 0
-392 -968 0
-487 -640 0
-487 -734 0
-487 -901 0
-487 -968 0
-640 -734 0
-640 -901 0
-640 -968 0
-734 -901 0
-734 -968 0
-901 -968 0
315 393 526 641 766 969 989 0
-315 -393 0
-315 -526 0
-315 -641 0
-315 -766 0
-315 -969 0
-315 -989 0
-393 -526 0
-393 -641 0
-393 -766 0
-393 -969 0
-393 -989 0
-526 -641 0
-526 -766 0
-526 -969 0
-526 -989 0
-641 -766 0
-641 -969 0
-641 -989 0
-766 -969 0
-766 -989 0
-969 -989 0
208 288 316 394 527 735 853 990 0
-208 -288 0
-208 -316 0
-208 -394 0
-208 -527 0
-208 -735 0
-208 -853 0
-208 -990 0
-288 -316 0
-288 -394 0
-288 -527 0
-288 -735 0
-288 -853 0
-288 -990 0
-316 -394 0
-316 -527 0
-316 -735 0
-316 -853 0
-316 -990 0
-394 -527 0
-394 -735 0
-394 -853 0
-394 -990 0
-527 -735 0
-527 -853 0
-527 -990 0
-735 -853 0
-735 -990 0
-853 -990 0
209 488 642 767 854 902 970 991 0
-209 -488 0
-209 -642 0
-209 -767 0
-209 -854 0
-209 -902 0
-209 -970 0
-209 -991 0
-488 -642 0
-488 -767 0
-488 -854 0
-488 -902 0
-488 -970 0
-488 -991 0
-642 -767 0
-642 -854 0
-642 -902 0
-642 -970 0
-642 -991 0
-767 -854 0
-767 -902 0
-767 -970 0
-767 -991 0
-854 -902 0
-854 -970 0
-854 -991 0
-902 -970 0
-902 -991 0
-970 -991 0
210 289 386 489 903 971 992 0
-210 -289 0
-210 -386 0
-210 -489 0
-210 -903 0
-210 -971 0
-210 -992 0
-289 -386 0
-289 -489 0
-289 -903 0
-289 -971 0
-289 -992 0
-386 -489 0
-386 -903 0
-386 -971 0
-386 -992 0
-489 -903 0
-489 -971 0
-489 -992 0
-903 -971 0
-903 -992 0
-971 -992 0
310 387 528 768 855 972 1015 0
-310 -387 0
-310 -528 0
-310 -768 0
-310 -855 0
-310 -972 0
-310 -1015 0
-387 -528 0
-387 -768 0
-387 -855 0
-387 -972 0
-387 -1015 0
-528 -768 0
-528 -855 0
-528 -972 0
-528 -1015 0
-768 -855 0
-768 -972 0
-768 -1015 0
-855 -972 0
-855 -1015 0
-972 -1015 0
311 769 856 993 1016 0
-311 -769 0
-311 -856 0
-311 -993 0
-311 -1016 0
-769 -856 0
-769 -993 0
-769 -1016 0
-856 -993 0
-856 -1016 0
-993 -1016 0
290 388 483 730 850 897 973 1010 0
-290 -388 0
-290 -483 0
-290 -730 0
-290 -850 0
-290 -897 0
-290 -973 0
-290 -1010 0
-388 -483 0
-388 -730 0
-388 -850 0
-388 -897 0
-388 -973 0
-388 -1010 0
-483 -730 0
-483 -850 0
-483 -897 0
-483 -973 0
-483 -1010 0
-730 -850 0
-730 -897 0
-730 -973 0
-730 -1010 0
-850 -897 0
-850 -973 0
-850 -1010 0
-897 -973 0
-897 -1010 0
-973 -1010 0
211 291 484 523 731 1011 0
-211 -291 0
-211 -484 0
-211 -523 0
-211 -731 0
-211 -1011 0
-291 -484 0
-291 -523 0
-291 -731 0
-291 -1011 0
-484 -523 0
-484 -731 0
-484 -1011 0
-523 -731 0
-523 -1011 0
-731 -1011 0
212 312 485 643 732 974 1012 0
-212 -312 0
-212 -485 0
-212 -643 0
-212 -732 0
-212 -974 0
-212 -1012 0
-312 -485 0
-312 -643 0
-312 -732 0
-312 -974 0
-312 -1012 0
-485 -643 0
-485 -732 0
-485 -974 0
-485 -1012 0
-643 -732 0
-643 -974 0
-643 -1012 0
-732 -974 0
-732 -1012 0
-974 -1012 0
213 313 644 770 898 1013 0
-213 -313 0
-213 -644 0
-213 -770 0
-213 -898 0
-213 -1013 0
-313 -644 0
-313 -770 0
-313 -898 0
-313 -1013 0
-644 -770 0
-644 -898 0
-644 -1013 0
-770 -898 0
-770 -1013 0
-898 -1013 0
214 292 389 524 645 733 851 899 0
-214 -292 0
-214 -389 0
-214 -524 0
-214 -645 0
-214 -733 0
-214 -851 0
-214 -899 0
-292 -389 0
-292 -524 0
-292 -645 0
-292 -733 0
-292 -851 0
-292 -899 0
-389 -524 0
-389 -645 0
-389 -733 0
-389 -851 0
-389 -899 0
-524 -645 0
-524 -733 0
-524 -851 0
-524 -899 0
-645 -733 0
-645 -851 0
-645 -899 0
-733 -851 0
-733 -899 0
-851 -899 0
215 293 390 525 765 900 967 1014 0
-215 -293 0
-215 -390 0
-215 -525 0
-215 -765 0
-215 -900 0
-215 -967 0
-215 -1014 0
-293 -390 0
-293 -525 0
-293 -765 0
-293 -900 0
-293 -967 0
-293 -1014 0
-390 -525 0
-390 -765 0
-390 -900 0
-390 -967 0
-390 -1014 0
-525 -765 0
-525 -900 0
-525 -967 0
-525 -1014 0
-765 -900 0
-765 -967 0
-765 -1014 0
-900 -967 0
-900 -1014 0
-967 -1014 0
216 314 391 486 852 988 0
-216 -314 0
-216 -391 0
-216 -486 0
-216 -852 0
-216 -988 0
-314 -391 0
-314 -486 0
-314 -852 0
-314 -988 0
-391 -486 0
-391 -852 0
-391 -988 0
-486 -852 0
-486 -988 0
-852 -988 0
294 452 487 646 785 812 949 975 0
-294 -452 0
-294 -487 0
-294 -646 0
-294 -785 0
-294 -812 0
-294 -949 0
-294 -975 0
-452 -487 0
-452 -646 0
-452 -785 0
-452 -812 0
-452 -949 0
-452 -975 0
-487 -646 0
-487 -785 0
-487 -812 0
-487 -949 0
-487 -975 0
-646 -785 0
-646 -812 0
-646 -949 0
-646 -975 0
-785 -812 0
-785 -949 0
-785 -975 0
-812 -949 0
-812 -975 0
-949 -975 0
217 295 385 427 647 771 813 950 963 0
-217 -295 0
-217 -385 0
-217 -427 0
-217 -647 0
-217 -771 0
-217 -813 0
-217 -950 0
-217 -963 0
-295 -385 0
-295 -427 0
-295 -647 0
-295 -771 0
-295 -813 0
-295 -950 0
-295 -963 0
-385 -427 0
-385 -647 0
-385 -771 0
-385 -813 0
-385 -950 0
-385 -963 0
-427 -647 0
-427 -771 0
-427 -813 0
-427 -950 0
-427 -963 0
-647 -771 0
-647 -813 0
-647 -950 0
-647 -963 0
-771 -813 0
-771 -950 0
-771 -963 0
-813 -950 0
-813 -963 0
-950 -963 0
218 296 488 772 786 951 964 0
-218 -296 0
-218 -488 0
-218 -772 0
-218 -786 0
-218 -951 0
-218 -964 0
-296 -488 0
-296 -772 0
-296 -786 0
-296 -951 0
-296 -964 0
-488 -772 0
-488 -786 0
-488 -951 0
-488 -964 0
-772 -786 0
-772 -951 0
-772 -964 0
-786 -951 0
-786 -964 0
-951 -964 0
444 489 781 814 880 945 0
-444 -489 0
-444 -781 0
-444 -814 0
-444 -880 0
-444 -945 0
-489 -781 0
-489 -814 0
-489 -880 0
-489 -945 0
-781 -814 0
-781 -880 0
-781 -945 0
-814 -880 0
-814 -945 0
-880 -945 0
219 379 445 773 881 965 976 0
-219 -379 0
-219 -445 0
-219 -773 0
-219 -881 0
-219 -965 0
-219 -976 0
-379 -445 0
-379 -773 0
-379 -881 0
-379 -965 0
-379 -976 0
-445 -773 0
-445 -881 0
-445 -965 0
-445 -976 0
-773 -881 0
-773 -965 0
-773 -976 0
-881 -965 0
-881 -976 0
-965 -976 0
220 297 380 648 882 0
-220 -297 0
-220 -380 0
-220 -648 0
-220 -882 0
-297 -380 0
-297 -648 0
-297 -882 0
-380 -648 0
-380 -882 0
-648 -882 0
221 428 446 649 774 883 946 977 0
-221 -428 0
-221 -446 0
-221 -649 0
-221 -774 0
-221 -883 0
-221 -946 0
-221 -977 0
-428 -446 0
-428 -649 0
-428 -774 0
-428 -883 0
-428 -946 0
-428 -977 0
-446 -649 0
-446 -774 0
-446 -883 0
-446 -946 0
-446 -977 0
-649 -774 0
-649 -883 0
-649 -946 0
-649 -977 0
-774 -883 0
-774 -946 0
-774 -977 0
-883 -946 0
-883 -977 0
-946 -977 0
298 381 429 447 775 815 966 978 0
-298 -381 0
-298 -429 0
-298 -447 0
-298 -775 0
-298 -815 0
-298 -966 0
-298 -978 0
-381 -429 0
-381 -447 0
-381 -775 0
-381 -815 0
-381 -966 0
-381 -978 0
-429 -447 0
-429 -775 0
-429 -815 0
-429 -966 0
-429 -978 0
-447 -775 0
-447 -815 0
-447 -966 0
-447 -978 0
-775 -815 0
-775 -966 0
-775 -978 0
-815 -966 0
-815 -978 0
-966 -978 0
299 430 448 483 776 782 877 979 0
-299 -430 0
-299 -448 0
-299 -483 0
-299 -776 0
-299 -782 0
-299 -877 0
-299 -979 0
-430 -448 0
-430 -483 0
-430 -776 0
-430 -782 0
-430 -877 0
-430 -979 0
-448 -483 0
-448 -776 0
-448 -782 0
-448 -877 0
-448 -979 0
-483 -776 0
-483 -782 0
-483 -877 0
-483 -979 0
-776 -782 0
-776 -877 0
-776 -979 0
-782 -877 0
-782 -979 0
-877 -979 0
222 382 484 650 777 878 0
-222 -382 0
-222 -484 0
-222 -650 0
-222 -777 0
-222 -878 0
-382 -484 0
-382 -650 0
-382 -777 0
-382 -878 0
-484 -650 0
-484 -777 0
-484 -878 0
-650 -777 0
-650 -878 0
-777 -878 0
223 300 424 485 778 783 809 960 980 0
-223 -300 0
-223 -424 0
-223 -485 0
-223 -778 0
-223 -783 0
-223 -809 0
-223 -960 0
-223 -980 0
-300 -424 0
-300 -485 0
-300 -778 0
-300 -783 0
-300 -809 0
-300 -960 0
-300 -980 0
-424 -485 0
-424 -778 0
-424 -783 0
-424 -809 0
-424 -960 0
-424 -980 0
-485 -778 0
-485 -783 0
-485 -809 0
-485 -960 0
-485 -980 0
-778 -783 0
-778 -809 0
-778 -960 0
-778 -980 0
-783 -809 0
-783 -960 0
-783 -980 0
-809 -960 0
-809 -980 0
-960 -980 0
301 425 449 651 779 810 961 981 0
-301 -425 0
-301 -449 0
-301 -651 0
-301 -779 0
-301 -810 0
-301 -961 0
-301 -981 0
-425 -449 0
-425 -651 0
-425 -779 0
-425 -810 0
-425 -961 0
-425 -981 0
-449 -651 0
-449 -779 0
-449 -810 0
-449 -961 0
-449 -981 0
-651 -779 0
-651 -810 0
-651 -961 0
-651 -981 0
-779 -810 0
-779 -961 0
-779 -981 0
-810 -961 0
-810 -981 0
-961 -981 0
302 383 426 450 780 784 879 947 962 0
-302 -383 0
-302 -426 0
-302 -450 0
-302 -780 0
-302 -784 0
-302 -879 0
-302 -947 0
-302 -962 0
-383 -426 0
-383 -450 0
-383 -780 0
-383 -784 0
-383 -879 0
-383 -947 0
-383 -962 0
-426 -450 0
-426 -780 0
-426 -784 0
-426 -879 0
-426 -947 0
-426 -962 0
-450 -780 0
-450 -784 0
-450 -879 0
-450 -947 0
-450 -962 0
-780 -784 0
-780 -879 0
-780 -947 0
-780 -962 0
-784 -879 0
-784 -947 0
-784 -962 0
-879 -947 0
-879 -962 0
-947 -962 0
224 384 451 486 652 811 948 0
-224 -384 0
-224 -451 0
-224 -486 0
-224 -652 0
-224 -811 0
-224 -948 0
-384 -451 0
-384 -486 0
-384 -652 0
-384 -811 0
-384 -948 0
-451 -486 0
-451 -652 0
-451 -811 0
-451 -948 0
-486 -652 0
-486 -811 0
-486 -948 0
-652 -811 0
-652 -948 0
-811 -948 0
303 360 503 653 828 1005 0
-303 -360 0
-303 -503 0
-303 -653 0
-303 -828 0
-303 -1005 0
-360 -503 0
-360 -653 0
-360 -828 0
-360 -1005 0
-503 -653 0
-503 -828 0
-503 -1005 0
-653 -828 0
-653 -1005 0
-828 -1005 0
442 654 761 924 980 1006 0
-442 -654 0
-442 -761 0
-442 -924 0
-442 -980 0
-442 -1006 0
-654 -761 0
-654 -924 0
-654 -980 0
-654 -1006 0
-761 -924 0
-761 -980 0
-761 -1006 0
-924 -980 0
-924 -1006 0
-980 -1006 0
225 304 361 427 443 655 762 829 853 981 0
-225 -304 0
-225 -361 0
-225 -427 0
-225 -443 0
-225 -655 0
-225 -762 0
-225 -829 0
-225 -853 0
-225 -981 0
-304 -361 0
-304 -427 0
-304 -443 0
-304 -655 0
-304 -762 0
-304 -829 0
-304 -853 0
-304 -981 0
-361 -427 0
-361 -443 0
-361 -655 0
-361 -762 0
-361 -829 0
-361 -853 0
-361 -981 0
-427 -443 0
-427 -655 0
-427 -762 0
-427 -829 0
-427 -853 0
-427 -981 0
-443 -655 0
-443 -762 0
-443 -829 0
-443 -853 0
-443 -981 0
-655 -762 0
-655 -829 0
-655 -853 0
-655 -981 0
-762 -829 0
-762 -853 0
-762 -981 0
-829 -853 0
-829 -981 0
-853 -981 0
362 656 782 830 854 925 0
-362 -656 0
-362 -782 0
-362 -830 0
-362 -854 0
-362 -925 0
-656 -782 0
-656 -830 0
-656 -854 0
-656 -925 0
-782 -830 0
-782 -854 0
-782 -925 0
-830 -854 0
-830 -925 0
-854 -925 0
226 363 438 497 926 1007 0
-226 -363 0
-226 -438 0
-226 -497 0
-226 -926 0
-226 -1007 0
-363 -438 0
-363 -497 0
-363 -926 0
-363 -1007 0
-438 -497 0
-438 -926 0
-438 -1007 0
-497 -926 0
-497 -1007 0
-926 -1007 0
227 498 783 825 855 927 1008 0
-227 -498 0
-227 -783 0
-227 -825 0
-227 -855 0
-227 -927 0
-227 -1008 0
-498 -783 0
-498 -825 0
-498 -855 0
-498 -927 0
-498 -1008 0
-783 -825 0
-783 -855 0
-783 -927 0
-783 -1008 0
-825 -855 0
-825 -927 0
-825 -1008 0
-855 -927 0
-855 -1008 0
-927 -1008 0
305 428 439 657 928 975 1009 0
-305 -428 0
-305 -439 0
-305 -657 0
-305 -928 0
-305 -975 0
-305 -1009 0
-428 -439 0
-428 -657 0
-428 -928 0
-428 -975 0
-428 -1009 0
-439 -657 0
-439 -928 0
-439 -975 0
-439 -1009 0
-657 -928 0
-657 -975 0
-657 -1009 0
-928 -975 0
-928 -1009 0
-975 -1009 0
306 429 499 658 763 784 856 929 0
-306 -429 0
-306 -499 0
-306 -658 0
-306 -763 0
-306 -784 0
-306 -856 0
-306 -929 0
-429 -499 0
-429 -658 0
-429 -763 0
-429 -784 0
-429 -856 0
-429 -929 0
-499 -658 0
-499 -763 0
-499 -784 0
-499 -856 0
-499 -929 0
-658 -763 0
-658 -784 0
-658 -856 0
-658 -929 0
-763 -784 0
-763 -856 0
-763 -929 0
-784 -856 0
-784 -929 0
-856 -929 0
307 430 500 659 764 826 850 1002 0
-307 -430 0
-307 -500 0
-307 -659 0
-307 -764 0
-307 -826 0
-307 -850 0
-307 -1002 0
-430 -500 0
-430 -659 0
-430 -764 0
-430 -826 0
-430 -850 0
-430 -1002 0
-500 -659 0
-500 -764 0
-500 -826 0
-500 -850 0
-500 -1002 0
-659 -764 0
-659 -826 0
-659 -850 0
-659 -1002 0
-764 -826 0
-764 -850 0
-764 -1002 0
-826 -850 0
-826 -1002 0
-850 -1002 0
308 357 424 759 785 921 0
-308 -357 0
-308 -424 0
-308 -759 0
-308 -785 0
-308 -921 0
-357 -424 0
-357 -759 0
-357 -785 0
-357 -921 0
-424 -759 0
-424 -785 0
-424 -921 0
-759 -785 0
-759 -921 0
-785 -921 0
228 358 425 440 501 922 976 0
-228 -358 0
-228 -425 0
-228 -440 0
-228 -501 0
-228 -922 0
-228 -976 0
-358 -425 0
-358 -440 0
-358 -501 0
-358 -922 0
-358 -976 0
-425 -440 0
-425 -501 0
-425 -922 0
-425 -976 0
-440 -501 0
-440 -922 0
-440 -976 0
-501 -922 0
-501 -976 0
-922 -976 0
229 309 426 660 786 851 977 1003 0
-229 -309 0
-229 -426 0
-229 -660 0
-229 -786 0
-229 -851 0
-229 -977 0
-229 -1003 0
-309 -426 0
-309 -660 0
-309 -786 0
-309 -851 0
-309 -977 0
-309 -1003 0
-426 -660 0
-426 -786 0
-426 -851 0
-426 -977 0
-426 -1003 0
-660 -786 0
-660 -851 0
-660 -977 0
-660 -1003 0
-786 -851 0
-786 -977 0
-786 -1003 0
-851 -977 0
-851 -1003 0
-977 -1003 0
230 359 441 502 760 781 978 0
-230 -359 0
-230 -441 0
-230 -502 0
-230 -760 0
-230 -781 0
-230 -978 0
-359 -441 0
-359 -502 0
-359 -760 0
-359 -781 0
-359 -978 0
-441 -502 0
-441 -760 0
-441 -781 0
-441 -978 0
-502 -760 0
-502 -781 0
-502 -978 0
-760 -781 0
-760 -978 0
-781 -978 0
827 852 923 979 1004 0
-827 -852 0
-827 -923 0
-827 -979 0
-827 -1004 0
-852 -923 0
-852 -979 0
-852 -1004 0
-923 -979 0
-923 -1004 0
-979 -1004 0
282 310 360 661 703 812 999 1010 0
-282 -310 0
-282 -360 0
-282 -661 0
-282 -703 0
-282 -812 0
-282 -999 0
-282 -1010 0
-310 -360 0
-310 -661 0
-310 -703 0
-310 -812 0
-310 -999 0
-310 -1010 0
-360 -661 0
-360 -703 0
-360 -812 0
-360 -999 0
-360 -1010 0
-661 -703 0
-661 -812 0
-661 -999 0
-661 -1010 0
-703 -812 0
-703 -999 0
-703 -1010 0
-812 -999 0
-812 -1010 0
-999 -1010 0
496 535 662 704 787 989 1000 1011 0
-496 -535 0
-496 -662 0
-496 -704 0
-496 -787 0
-496 -989 0
-496 -1000 0
-496 -1011 0
-535 -662 0
-535 -704 0
-535 -787 0
-535 -989 0
-535 -1000 0
-535 -1011 0
-662 -704 0
-662 -787 0
-662 -989 0
-662 -1000 0
-662 -1011 0
-704 -787 0
-704 -989 0
-704 -1000 0
-704 -1011 0
-787 -989 0
-787 -1000 0
-787 -1011 0
-989 -1000 0
-989 -1011 0
-1000 -1011 0
231 283 361 813 862 990 1012 0
-231 -283 0
-231 -361 0
-231 -813 0
-231 -862 0
-231 -990 0
-231 -1012 0
-283 -361 0
-283 -813 0
-283 -862 0
-283 -990 0
-283 -1012 0
-361 -813 0
-361 -862 0
-361 -990 0
-361 -1012 0
-813 -862 0
-813 -990 0
-813 -1012 0
-862 -990 0
-862 -1012 0
-990 -1012 0
232 311 362 663 788 991 1001 0
-232 -311 0
-232 -362 0
-232 -663 0
-232 -788 0
-232 -991 0
-232 -1001 0
-311 -362 0
-311 -663 0
-311 -788 0
-311 -991 0
-311 -1001 0
-362 -663 0
-362 -788 0
-362 -991 0
-362 -1001 0
-663 -788 0
-663 -991 0
-663 -1001 0
-788 -991 0
-788 -1001 0
-991 -1001 0
363 814 857 992 994 1013 0
-363 -814 0
-363 -857 0
-363 -992 0
-363 -994 0
-363 -1013 0
-814 -857 0
-814 -992 0
-814 -994 0
-814 -1013 0
-857 -992 0
-857 -994 0
-857 -1013 0
-992 -994 0
-992 -1013 0
-994 -1013 0
233 284 312 490 529 705 858 1014 0
-233 -284 0
-233 -312 0
-233 -490 0
-233 -529 0
-233 -705 0
-233 -858 0
-233 -1014 0
-284 -312 0
-284 -490 0
-284 -529 0
-284 -705 0
-284 -858 0
-284 -1014 0
-312 -490 0
-312 -529 0
-312 -705 0
-312 -858 0
-312 -1014 0
-490 -529 0
-490 -705 0
-490 -858 0
-490 -1014 0
-529 -705 0
-529 -858 0
-529 -1014 0
-705 -858 0
-705 -1014 0
-858 -1014 0
234 530 664 789 995 0
-234 -530 0
-234 -664 0
-234 -789 0
-234 -995 0
-530 -664 0
-530 -789 0
-530 -995 0
-664 -789 0
-664 -995 0
-789 -995 0
285 313 491 531 706 790 815 993 0
-285 -313 0
-285 -491 0
-285 -531 0
-285 -706 0
-285 -790 0
-285 -815 0
-285 -993 0
-313 -491 0
-313 -531 0
-313 -706 0
-313 -790 0
-313 -815 0
-313 -993 0
-491 -531 0
-491 -706 0
-491 -790 0
-491 -815 0
-491 -993 0
-531 -706 0
-531 -790 0
-531 -815 0
-531 -993 0
-706 -790 0
-706 -815 0
-706 -993 0
-790 -815 0
-790 -993 0
-815 -993 0
235 286 314 357 492 707 791 809 859 0
-235 -286 0
-235 -314 0
-235 -357 0
-235 -492 0
-235 -707 0
-235 -791 0
-235 -809 0
-235 -859 0
-286 -314 0
-286 -357 0
-286 -492 0
-286 -707 0
-286 -791 0
-286 -809 0
-286 -859 0
-314 -357 0
-314 -492 0
-314 -707 0
-314 -791 0
-314 -809 0
-314 -859 0
-357 -492 0
-357 -707 0
-357 -791 0
-357 -809 0
-357 -859 0
-492 -707 0
-492 -791 0
-492 -809 0
-492 -859 0
-707 -791 0
-707 -809 0
-707 -859 0
-791 -809 0
-791 -859 0
-809 -859 0
236 358 493 665 792 810 860 0
-236 -358 0
-236 -493 0
-236 -665 0
-236 -792 0
-236 -810 0
-236 -860 0
-358 -493 0
-358 -665 0
-358 -792 0
-358 -810 0
-358 -860 0
-493 -665 0
-493 -792 0
-493 -810 0
-493 -860 0
-665 -792 0
-665 -810 0
-665 -860 0
-792 -810 0
-792 -860 0
-810 -860 0
315 494 700 996 1015 0
-315 -494 0
-315 -700 0
-315 -996 0
-315 -1015 0
-494 -700 0
-494 -996 0
-494 -1015 0
-700 -996 0
-700 -1015 0
-996 -1015 0
237 316 532 666 793 861 997 0
-237 -316 0
-237 -532 0
-237 -666 0
-237 -793 0
-237 -861 0
-237 -997 0
-316 -532 0
-316 -666 0
-316 -793 0
-316 -861 0
-316 -997 0
-532 -666 0
-532 -793 0
-532 -861 0
-532 -997 0
-666 -793 0
-666 -861 0
-666 -997 0
-793 -861 0
-793 -997 0
-861 -997 0
281 359 495 533 701 998 0
-281 -359 0
-281 -495 0
-281 -533 0
-281 -701 0
-281 -998 0
-359 -495 0
-359 -533 0
-359 -701 0
-359 -998 0
-495 -533 0
-495 -701 0
-495 -998 0
-533 -701 0
-533 -998 0
-701 -998 0
238 534 667 702 811 988 1016 0
-238 -534 0
-238 -667 0
-238 -702 0
-238 -811 0
-238 -988 0
-238 -1016 0
-534 -667 0
-534 -702 0
-534 -811 0
-534 -988 0
-534 -1016 0
-667 -702 0
-667 -811 0
-667 -988 0
-667 -1016 0
-702 -811 0
-702 -988 0
-702 -1016 0
-811 -988 0
-811 -1016 0
-988 -1016 0
308 365 493 820 971 995 0
-308 -365 0
-308 -493 0
-308 -820 0
-308 -971 0
-308 -995 0
-365 -493 0
-365 -820 0
-365 -971 0
-365 -995 0
-493 -820 0
-493 -971 0
-493 -995 0
-820 -971 0
-820 -995 0
-971 -995 0
287 366 435 494 708 728 817 972 0
-287 -366 0
-287 -435 0
-287 -494 0
-287 -708 0
-287 -728 0
-287 -817 0
-287 -972 0
-366 -435 0
-366 -494 0
-366 -708 0
-366 -728 0
-366 -817 0
-366 -972 0
-435 -494 0
-435 -708 0
-435 -728 0
-435 -817 0
-435 -972 0
-494 -708 0
-494 -728 0
-494 -817 0
-494 -972 0
-708 -728 0
-708 -817 0
-708 -972 0
-728 -817 0
-728 -972 0
-817 -972 0
385 436 709 818 821 0
-385 -436 0
-385 -709 0
-385 -818 0
-385 -821 0
-436 -709 0
-436 -818 0
-436 -821 0
-709 -818 0
-709 -821 0
-818 -821 0
288 309 367 495 729 819 0
-288 -309 0
-288 -367 0
-288 -495 0
-288 -729 0
-288 -819 0
-309 -367 0
-309 -495 0
-309 -729 0
-309 -819 0
-367 -495 0
-367 -729 0
-367 -819 0
-495 -729 0
-495 -819 0
-729 -819 0
289 379 710 820 822 831 973 0
-289 -379 0
-289 -710 0
-289 -820 0
-289 -822 0
-289 -831 0
-289 -973 0
-379 -710 0
-379 -820 0
-379 -822 0
-379 -831 0
-379 -973 0
-710 -820 0
-710 -822 0
-710 -831 0
-710 -973 0
-820 -822 0
-820 -831 0
-820 -973 0
-822 -831 0
-822 -973 0
-831 -973 0
303 380 496 722 823 996 0
-303 -380 0
-303 -496 0
-303 -722 0
-303 -823 0
-303 -996 0
-380 -496 0
-380 -722 0
-380 -823 0
-380 -996 0
-496 -722 0
-496 -823 0
-496 -996 0
-722 -823 0
-722 -996 0
-823 -996 0
437 711 821 832 974 997 0
-437 -711 0
-437 -821 0
-437 -832 0
-437 -974 0
-437 -997 0
-711 -821 0
-711 -832 0
-711 -974 0
-711 -997 0
-821 -832 0
-821 -974 0
-821 -997 0
-832 -974 0
-832 -997 0
-974 -997 0
304 368 381 723 824 833 884 998 0
-304 -368 0
-304 -381 0
-304 -723 0
-304 -824 0
-304 -833 0
-304 -884 0
-304 -998 0
-368 -381 0
-368 -723 0
-368 -824 0
-368 -833 0
-368 -884 0
-368 -998 0
-381 -723 0
-381 -824 0
-381 -833 0
-381 -884 0
-381 -998 0
-723 -824 0
-723 -833 0
-723 -884 0
-723 -998 0
-824 -833 0
-824 -884 0
-824 -998 0
-833 -884 0
-833 -998 0
-884 -998 0
290 382 431 724 822 834 999 0
-290 -382 0
-290 -431 0
-290 -724 0
-290 -822 0
-290 -834 0
-290 -999 0
-382 -431 0
-382 -724 0
-382 -822 0
-382 -834 0
-382 -999 0
-431 -724 0
-431 -822 0
-431 -834 0
-431 -999 0
-724 -822 0
-724 -834 0
-724 -999 0
-822 -834 0
-822 -999 0
-834 -999 0
291 432 490 816 823 835 885 967 1000 0
-291 -432 0
-291 -490 0
-291 -816 0
-291 -823 0
-291 -835 0
-291 -885 0
-291 -967 0
-291 -1000 0
-432 -490 0
-432 -816 0
-432 -823 0
-432 -835 0
-432 -885 0
-432 -967 0
-432 -1000 0
-490 -816 0
-490 -823 0
-490 -835 0
-490 -885 0
-490 -967 0
-490 -1000 0
-816 -823 0
-816 -835 0
-816 -885 0
-816 -967 0
-816 -1000 0
-823 -835 0
-823 -885 0
-823 -967 0
-823 -1000 0
-835 -885 0
-835 -967 0
-835 -1000 0
-885 -967 0
-885 -1000 0
-967 -1000 0
305 433 491 712 817 824 886 968 1001 0
-305 -433 0
-305 -491 0
-305 -712 0
-305 -817 0
-305 -824 0
-305 -886 0
-305 -968 0
-305 -1001 0
-433 -491 0
-433 -712 0
-433 -817 0
-433 -824 0
-433 -886 0
-433 -968 0
-433 -1001 0
-491 -712 0
-491 -817 0
-491 -824 0
-491 -886 0
-491 -968 0
-491 -1001 0
-712 -817 0
-712 -824 0
-712 -886 0
-712 -968 0
-712 -1001 0
-817 -824 0
-817 -886 0
-817 -968 0
-817 -1001 0
-824 -886 0
-824 -968 0
-824 -1001 0
-886 -968 0
-886 -1001 0
-968 -1001 0
306 369 383 725 818 887 969 994 0
-306 -369 0
-306 -383 0
-306 -725 0
-306 -818 0
-306 -887 0
-306 -969 0
-306 -994 0
-369 -383 0
-369 -725 0
-369 -818 0
-369 -887 0
-369 -969 0
-369 -994 0
-383 -725 0
-383 -818 0
-383 -887 0
-383 -969 0
-383 -994 0
-725 -818 0
-725 -887 0
-725 -969 0
-725 -994 0
-818 -887 0
-818 -969 0
-818 -994 0
-887 -969 0
-887 -994 0
-969 -994 0
292 307 370 713 726 819 888 0
-292 -307 0
-292 -370 0
-292 -713 0
-292 -726 0
-292 -819 0
-292 -888 0
-307 -370 0
-307 -713 0
-307 -726 0
-307 -819 0
-307 -888 0
-370 -713 0
-370 -726 0
-370 -819 0
-370 -888 0
-713 -726 0
-713 -819 0
-713 -888 0
-726 -819 0
-726 -888 0
-819 -888 0
293 364 384 434 492 714 727 816 836 970 0
-293 -364 0
-293 -384 0
-293 -434 0
-293 -492 0
-293 -714 0
-293 -727 0
-293 -816 0
-293 -836 0
-293 -970 0
-364 -384 0
-364 -434 0
-364 -492 0
-364 -714 0
-364 -727 0
-364 -816 0
-364 -836 0
-364 -970 0
-384 -434 0
-384 -492 0
-384 -714 0
-384 -727 0
-384 -816 0
-384 -836 0
-384 -970 0
-434 -492 0
-434 -714 0
-434 -727 0
-434 -816 0
-434 -836 0
-434 -970 0
-492 -714 0
-492 -727 0
-492 -816 0
-492 -836 0
-492 -970 0
-714 -727 0
-714 -816 0
-714 -836 0
-714 -970 0
-727 -816 0
-727 -836 0
-727 -970 0
-816 -836 0
-816 -970 0
-836 -970 0
375 777 860 868 941 0
-375 -777 0
-375 -860 0
-375 -868 0
-375 -941 0
-777 -860 0
-777 -868 0
-777 -941 0
-860 -868 0
-860 -941 0
-868 -941 0
294 371 435 442 715 768 778 942 0
-294 -371 0
-294 -435 0
-294 -442 0
-294 -715 0
-294 -768 0
-294 -778 0
-294 -942 0
-371 -435 0
-371 -442 0
-371 -715 0
-371 -768 0
-371 -778 0
-371 -942 0
-435 -442 0
-435 -715 0
-435 -768 0
-435 -778 0
-435 -942 0
-442 -715 0
-442 -768 0
-442 -778 0
-442 -942 0
-715 -768 0
-715 -778 0
-715 -942 0
-768 -778 0
-768 -942 0
-778 -942 0
376 436 443 716 779 861 869 0
-376 -436 0
-376 -443 0
-376 -716 0
-376 -779 0
-376 -861 0
-376 -869 0
-436 -443 0
-436 -716 0
-436 -779 0
-436 -861 0
-436 -869 0
-443 -716 0
-443 -779 0
-443 -861 0
-443 -869 0
-716 -779 0
-716 -861 0
-716 -869 0
-779 -861 0
-779 -869 0
-861 -869 0
295 368 377 717 826 863 943 0
-295 -368 0
-295 -377 0
-295 -717 0
-295 -826 0
-295 -863 0
-295 -943 0
-368 -377 0
-368 -717 0
-368 -826 0
-368 -863 0
-368 -943 0
-377 -717 0
-377 -826 0
-377 -863 0
-377 -943 0
-717 -826 0
-717 -863 0
-717 -943 0
-826 -863 0
-826 -943 0
-863 -943 0
296 378 438 769 780 864 935 944 0
-296 -378 0
-296 -438 0
-296 -769 0
-296 -780 0
-296 -864 0
-296 -935 0
-296 -944 0
-378 -438 0
-378 -769 0
-378 -780 0
-378 -864 0
-378 -935 0
-378 -944 0
-438 -769 0
-438 -780 0
-438 -864 0
-438 -935 0
-438 -944 0
-769 -780 0
-769 -864 0
-769 -935 0
-769 -944 0
-780 -864 0
-780 -935 0
-780 -944 0
-864 -935 0
-864 -944 0
-935 -944 0
297 371 372 437 439 718 862 936 0
-297 -371 0
-297 -372 0
-297 -437 0
-297 -439 0
-297 -718 0
-297 -862 0
-297 -936 0
-371 -372 0
-371 -437 0
-371 -439 0
-371 -718 0
-371 -862 0
-371 -936 0
-372 -437 0
-372 -439 0
-372 -718 0
-372 -862 0
-372 -936 0
-437 -439 0
-437 -718 0
-437 -862 0
-437 -936 0
-439 -718 0
-439 -862 0
-439 -936 0
-718 -862 0
-718 -936 0
-862 -936 0
298 369 373 770 771 857 937 0
-298 -369 0
-298 -373 0
-298 -770 0
-298 -771 0
-298 -857 0
-298 -937 0
-369 -373 0
-369 -770 0
-369 -771 0
-369 -857 0
-369 -937 0
-373 -770 0
-373 -771 0
-373 -857 0
-373 -937 0
-770 -771 0
-770 -857 0
-770 -937 0
-771 -857 0
-771 -937 0
-857 -937 0
299 370 374 431 719 772 827 865 0
-299 -370 0
-299 -374 0
-299 -431 0
-299 -719 0
-299 -772 0
-299 -827 0
-299 -865 0
-370 -374 0
-370 -431 0
-370 -719 0
-370 -772 0
-370 -827 0
-370 -865 0
-374 -431 0
-374 -719 0
-374 -772 0
-374 -827 0
-374 -865 0
-431 -719 0
-431 -772 0
-431 -827 0
-431 -865 0
-719 -772 0
-719 -827 0
-719 -865 0
-772 -827 0
-772 -865 0
-827 -865 0
364 375 432 720 765 828 858 866 930 0
-364 -375 0
-364 -432 0
-364 -720 0
-364 -765 0
-364 -828 0
-364 -858 0
-364 -866 0
-364 -930 0
-375 -432 0
-375 -720 0
-375 -765 0
-375 -828 0
-375 -858 0
-375 -866 0
-375 -930 0
-432 -720 0
-432 -765 0
-432 -828 0
-432 -858 0
-432 -866 0
-432 -930 0
-720 -765 0
-720 -828 0
-720 -858 0
-720 -866 0
-720 -930 0
-765 -828 0
-765 -858 0
-765 -866 0
-765 -930 0
-828 -858 0
-828 -866 0
-828 -930 0
-858 -866 0
-858 -930 0
-866 -930 0
300 365 440 773 931 938 0
-300 -365 0
-300 -440 0
-300 -773 0
-300 -931 0
-300 -938 0
-365 -440 0
-365 -773 0
-365 -931 0
-365 -938 0
-440 -773 0
-440 -931 0
-440 -938 0
-773 -931 0
-773 -938 0
-931 -938 0
301 366 372 376 433 829 867 932 0
-301 -366 0
-301 -372 0
-301 -376 0
-301 -433 0
-301 -829 0
-301 -867 0
-301 -932 0
-366 -372 0
-366 -376 0
-366 -433 0
-366 -829 0
-366 -867 0
-366 -932 0
-372 -376 0
-372 -433 0
-372 -829 0
-372 -867 0
-372 -932 0
-376 -433 0
-376 -829 0
-376 -867 0
-376 -932 0
-433 -829 0
-433 -867 0
-433 -932 0
-829 -867 0
-829 -932 0
-867 -932 0
377 766 774 830 933 939 0
-377 -766 0
-377 -774 0
-377 -830 0
-377 -933 0
-377 -939 0
-766 -774 0
-766 -830 0
-766 -933 0
-766 -939 0
-774 -830 0
-774 -933 0
-774 -939 0
-830 -933 0
-830 -939 0
-933 -939 0
302 367 373 378 441 721 775 0
-302 -367 0
-302 -373 0
-302 -378 0
-302 -441 0
-302 -721 0
-302 -775 0
-367 -373 0
-367 -378 0
-367 -441 0
-367 -721 0
-367 -775 0
-373 -378 0
-373 -441 0
-373 -721 0
-373 -775 0
-378 -441 0
-378 -721 0
-378 -775 0
-441 -721 0
-441 -775 0
-721 -775 0
374 434 767 776 825 859 934 940 0
-374 -434 0
-374 -767 0
-374 -776 0
-374 -825 0
-374 -859 0
-374 -934 0
-374 -940 0
-434 -767 0
-434 -776 0
-434 -825 0
-434 -859 0
-434 -934 0
-434 -940 0
-767 -776 0
-767 -825 0
-767 -859 0
-767 -934 0
-767 -940 0
-776 -825 0
-776 -859 0
-776 -934 0
-776 -940 0
-825 -859 0
-825 -934 0
-825 -940 0
-859 -934 0
-859 -940 0
-934 -940 0
