p cnf 456 10170
1 2 3 4 5 6 7 8 9 10 11 12 0
-1 -2 0
-1 -3 0
-1 -4 0
-1 -5 0
-1 -6 0
-1 -7 0
-1 -8 0
-1 -9 0
-1 -10 0
-1 -11 0
-1 -12 0
-2 -3 0
-2 -4 0
-2 -5 0
-2 -6 0
-2 -7 0
-2 -8 0
-2 -9 0
-2 -10 0
-2 -11 0
-2 -12 0
-3 -4 0
-3 -5 0
-3 -6 0
-3 -7 0
-3 -8 0
-3 -9 0
-3 -10 0
-3 -11 0
-3 -12 0
-4 -5 0
-4 -6 0
-4 -7 0
-4 -8 0
-4 -9 0
-4 -10 0
-4 -11 0
-4 -12 0
-5 -6 0
-5 -7 0
-5 -8 0
-5 -9 0
-5 -10 0
-5 -11 0
-5 -12 0
-6 -7 0
-6 -8 0
-6 -9 0
-6 -10 0
-6 -11 0
-6 -12 0
-7 -8 0
-7 -9 0
-7 -10 0
-7 -11 0
-7 -12 0
-8 -9 0
-8 -10 0
-8 -11 0
-8 -12 0
-9 -10 0
-9 -11 0
-9 -12 0
-10 -11 0
-10 -12 0
-11 -12 0
13 14 15 16 17 18 19 20 21 22 23 0
-13 -14 0
-13 -15 0
-13 -16 0
-13 -17 0
-13 -18 0
-13 -19 0
-13 -20 0
-13 -21 0
-13 -22 0
-13 -23 0
-14 -15 0
-14 -16 0
-14 -17 0
-14 -18 0
-14 -19 0
-14 -20 0
-14 -21 0
-14 -22 0
-14 -23 0
-15 -16 0
-15 -17 0
-15 -18 0
-15 -19 0
-15 -20 0
-15 -21 0
-15 -22 0
-15 -23 0
-16 -17 0
-16 -18 0
-16 -19 0
-16 -20 0
-16 -21 0
-16 -22 0
-16 -23 0
-17 -18 0
-17 -19 0
-17 -20 0
-17 -21 0
-17 -22 0
-17 -23 0
-18 -19 0
-18 -20 0
-18 -21 0
-18 -22 0
-18 -23 0
-19 -20 0
-19 -21 0
-19 -22 0
-19 -23 0
-20 -21 0
-20 -22 0
-20 -23 0
-21 -22 0
-21 -23 0
-22 -23 0
24 25 26 27 28 29 30 31 32 33 34 35 0
-24 -25 0
-24 -26 0
-24 -27 0
-24 -28 0
-24 -29 0
-24 -30 0
-24 -31 0
-24 -32 0
-24 -33 0
-24 -34 0
-24 -35 0
-25 -26 0
-25 -27 0
-25 -28 0
-25 -29 0
-25 -30 0
-25 -31 0
-25 -32 0
-25 -33 0
-25 -34 0
-25 -35 0
-26 -27 0
-26 -28 0
-26 -29 0
-26 -30 0
-26 -31 0
-26 -32 0
-26 -33 0
-26 -34 0
-26 -35 0
-27 -28 0
-27 -29 0
-27 -30 0
-27 -31 0
-27 -32 0
-27 -33 0
-27 -34 0
-27 -35 0
-28 -29 0
-28 -30 0
-28 -31 0
-28 -32 0
-28 -33 0
-28 -34 0
-28 -35 0
-29 -30 0
-29 -31 0
-29 -32 0
-29 -33 0
-29 -34 0
-29 -35 0
-30 -31 0
-30 -32 0
-30 -33 0
-30 -34 0
-30 -35 0
-31 -32 0
-31 -33 0
-31 -34 0
-31 -35 0
-32 -33 0
-32 -34 0
-32 -35 0
-33 -34 0
-33 -35 0
-34 -35 0
36 37 38 39 40 41 42 43 44 45 46 0
-36 -37 0
-36 -38 0
-36 -39 0
-36 -40 0
-36 -41 0
-36 -42 0
-36 -43 0
-36 -44 0
-36 -45 0
-36 -46 0
-37 -38 0
-37 -39 0
-37 -40 0
-37 -41 0
-37 -42 0
-37 -43 0
-37 -44 0
-37 -45 0
-37 -46 0
-38 -39 0
-38 -40 0
-38 -41 0
-38 -42 0
-38 -43 0
-38 -44 0
-38 -45 0
-38 -46 0
-39 -40 0
-39 -41 0
-39 -42 0
-39 -43 0
-39 -44 0
-39 -45 0
-39 -46 0
-40 -41 0
-40 -42 0
-40 -43 0
-40 -44 0
-40 -45 0
-40 -46 0
-41 -42 0
-41 -43 0
-41 -44 0
-41 -45 0
-41 -46 0
-42 -43 0
-42 -44 0
-42 -45 0
-42 -46 0
-43 -44 0
-43 -45 0
-43 -46 0
-44 -45 0
-44 -46 0
-45 -46 0
47 48 49 50 51 52 53 54 55 56 57 0
-47 -48 0
-47 -49 0
-47 -50 0
-47 -51 0
-47 -52 0
-47 -53 0
-47 -54 0
-47 -55 0
-47 -56 0
-47 -57 0
-48 -49 0
-48 -50 0
-48 -51 0
-48 -52 0
-48 -53 0
-48 -54 0
-48 -55 0
-48 -56 0
-48 -57 0
-49 -50 0
-49 -51 0
-49 -52 0
-49 -53 0
-49 -54 0
-49 -55 0
-49 -56 0
-49 -57 0
-50 -51 0
-50 -52 0
-50 -53 0
-50 -54 0
-50 -55 0
-50 -56 0
-50 -57 0
-51 -52 0
-51 -53 0
-51 -54 0
-51 -55 0
-51 -56 0
-51 -57 0
-52 -53 0
-52 -54 0
-52 -55 0
-52 -56 0
-52 -57 0
-53 -54 0
-53 -55 0
-53 -56 0
-53 -57 0
-54 -55 0
-54 -56 0
-54 -57 0
-55 -56 0
-55 -57 0
-56 -57 0
58 59 60 61 62 63 64 65 66 67 68 0
-58 -59 0
-58 -60 0
-58 -61 0
-58 -62 0
-58 -63 0
-58 -64 0
-58 -65 0
-58 -66 0
-58 -67 0
-58 -68 0
-59 -60 0
-59 -61 0
-59 -62 0
-59 -63 0
-59 -64 0
-59 -65 0
-59 -66 0
-59 -67 0
-59 -68 0
-60 -61 0
-60 -62 0
-60 -63 0
-60 -64 0
-60 -65 0
-60 -66 0
-60 -67 0
-60 -68 0
-61 -62 0
-61 -63 0
-61 -64 0
-61 -65 0
-61 -66 0
-61 -67 0
-61 -68 0
-62 -63 0
-62 -64 0
-62 -65 0
-62 -66 0
-62 -67 0
-62 -68 0
-63 -64 0
-63 -65 0
-63 -66 0
-63 -67 0
-63 -68 0
-64 -65 0
-64 -66 0
-64 -67 0
-64 -68 0
-65 -66 0
-65 -67 0
-65 -68 0
-66 -67 0
-66 -68 0
-67 -68 0
69 70 71 72 73 74 75 76 77 78 79 80 0
-69 -70 0
-69 -71 0
-69 -72 0
-69 -73 0
-69 -74 0
-69 -75 0
-69 -76 0
-69 -77 0
-69 -78 0
-69 -79 0
-69 -80 0
-70 -71 0
-70 -72 0
-70 -73 0
-70 -74 0
-70 -75 0
-70 -76 0
-70 -77 0
-70 -78 0
-70 -79 0
-70 -80 0
-71 -72 0
-71 -73 0
-71 -74 0
-71 -75 0
-71 -76 0
-71 -77 0
-71 -78 0
-71 -79 0
-71 -80 0
-72 -73 0
-72 -74 0
-72 -75 0
-72 -76 0
-72 -77 0
-72 -78 0
-72 -79 0
-72 -80 0
-73 -74 0
-73 -75 0
-73 -76 0
-73 -77 0
-73 -78 0
-73 -79 0
-73 -80 0
-74 -75 0
-74 -76 0
-74 -77 0
-74 -78 0
-74 -79 0
-74 -80 0
-75 -76 0
-75 -77 0
-75 -78 0
-75 -79 0
-75 -80 0
-76 -77 0
-76 -78 0
-76 -79 0
-76 -80 0
-77 -78 0
-77 -79 0
-77 -80 0
-78 -79 0
-78 -80 0
-79 -80 0
81 82 83 84 85 86 87 88 89 90 91 92 0
-81 -82 0
-81 -83 0
-81 -84 0
-81 -85 0
-81 -86 0
-81 -87 0
-81 -88 0
-81 -89 0
-81 -90 0
-81 -91 0
-81 -92 0
-82 -83 0
-82 -84 0
-82 -85 0
-82 -86 0
-82 -87 0
-82 -88 0
-82 -89 0
-82 -90 0
-82 -91 0
-82 -92 0
-83 -84 0
-83 -85 0
-83 -86 0
-83 -87 0
-83 -88 0
-83 -89 0
-83 -90 0
-83 -91 0
-83 -92 0
-84 -85 0
-84 -86 0
-84 -87 0
-84 -88 0
-84 -89 0
-84 -90 0
-84 -91 0
-84 -92 0
-85 -86 0
-85 -87 0
-85 -88 0
-85 -89 0
-85 -90 0
-85 -91 0
-85 -92 0
-86 -87 0
-86 -88 0
-86 -89 0
-86 -90 0
-86 -91 0
-86 -92 0
-87 -88 0
-87 -89 0
-87 -90 0
-87 -91 0
-87 -92 0
-88 -89 0
-88 -90 0
-88 -91 0
-88 -92 0
-89 -90 0
-89 -91 0
-89 -92 0
-90 -91 0
-90 -92 0
-91 -92 0
93 94 95 96 97 98 99 100 101 102 103 0
-93 -94 0
-93 -95 0
-93 -96 0
-93 -97 0
-93 -98 0
-93 -99 0
-93 -100 0
-93 -101 0
-93 -102 0
-93 -103 0
-94 -95 0
-94 -96 0
-94 -97 0
-94 -98 0
-94 -99 0
-94 -100 0
-94 -101 0
-94 -102 0
-94 -103 0
-95 -96 0
-95 -97 0
-95 -98 0
-95 -99 0
-95 -100 0
-95 -101 0
-95 -102 0
-95 -103 0
-96 -97 0
-96 -98 0
-96 -99 0
-96 -100 0
-96 -101 0
-96 -102 0
-96 -103 0
-97 -98 0
-97 -99 0
-97 -100 0
-97 -101 0
-97 -102 0
-97 -103 0
-98 -99 0
-98 -100 0
-98 -101 0
-98 -102 0
-98 -103 0
-99 -100 0
-99 -101 0
-99 -102 0
-99 -103 0
-100 -101 0
-100 -102 0
-100 -103 0
-101 -102 0
-101 -103 0
-102 -103 0
104 105 106 107 108 109 110 111 112 113 114 0
-104 -105 0
-104 -106 0
-104 -107 0
-104 -108 0
-104 -109 0
-104 -110 0
-104 -111 0
-104 -112 0
-104 -113 0
-104 -114 0
-105 -106 0
-105 -107 0
-105 -108 0
-105 -109 0
-105 -110 0
-105 -111 0
-105 -112 0
-105 -113 0
-105 -114 0
-106 -107 0
-106 -108 0
-106 -109 0
-106 -110 0
-106 -111 0
-106 -112 0
-106 -113 0
-106 -114 0
-107 -108 0
-107 -109 0
-107 -110 0
-107 -111 0
-107 -112 0
-107 -113 0
-107 -114 0
-108 -109 0
-108 -110 0
-108 -111 0
-108 -112 0
-108 -113 0
-108 -114 0
-109 -110 0
-109 -111 0
-109 -112 0
-109 -113 0
-109 -114 0
-110 -111 0
-110 -112 0
-110 -113 0
-110 -114 0
-111 -112 0
-111 -113 0
-111 -114 0
-112 -113 0
-112 -114 0
-113 -114 0
115 116 117 118 119 120 121 122 123 124 125 126 127 0
-115 -116 0
-115 -117 0
-115 -118 0
-115 -119 0
-115 -120 0
-115 -121 0
-115 -122 0
-115 -123 0
-115 -124 0
-115 -125 0
-115 -126 0
-115 -127 0
-116 -117 0
-116 -118 0
-116 -119 0
-116 -120 0
-116 -121 0
-116 -122 0
-116 -123 0
-116 -124 0
-116 -125 0
-116 -126 0
-116 -127 0
-117 -118 0
-117 -119 0
-117 -120 0
-117 -121 0
-117 -122 0
-117 -123 0
-117 -124 0
-117 -125 0
-117 -126 0
-117 -127 0
-118 -119 0
-118 -120 0
-118 -121 0
-118 -122 0
-118 -123 0
-118 -124 0
-118 -125 0
-118 -126 0
-118 -127 0
-119 -120 0
-119 -121 0
-119 -122 0
-119 -123 0
-119 -124 0
-119 -125 0
-119 -126 0
-119 -127 0
-120 -121 0
-120 -122 0
-120 -123 0
-120 -124 0
-120 -125 0
-120 -126 0
-120 -127 0
-121 -122 0
-121 -123 0
-121 -124 0
-121 -125 0
-121 -126 0
-121 -127 0
-122 -123 0
-122 -124 0
-122 -125 0
-122 -126 0
-122 -127 0
-123 -124 0
-123 -125 0
-123 -126 0
-123 -127 0
-124 -125 0
-124 -126 0
-124 -127 0
-125 -126 0
-125 -127 0
-126 -127 0
128 129 130 131 132 133 134 135 136 137 138 0
-128 -129 0
-128 -130 0
-128 -131 0
-128 -132 0
-128 -133 0
-128 -134 0
-128 -135 0
-128 -136 0
-128 -137 0
-128 -138 0
-129 -130 0
-129 -131 0
-129 -132 0
-129 -133 0
-129 -134 0
-129 -135 0
-129 -136 0
-129 -137 0
-129 -138 0
-130 -131 0
-130 -132 0
-130 -133 0
-130 -134 0
-130 -135 0
-130 -136 0
-130 -137 0
-130 -138 0
-131 -132 0
-131 -133 0
-131 -134 0
-131 -135 0
-131 -136 0
-131 -137 0
-131 -138 0
-132 -133 0
-132 -134 0
-132 -135 0
-132 -136 0
-132 -137 0
-132 -138 0
-133 -134 0
-133 -135 0
-133 -136 0
-133 -137 0
-133 -138 0
-134 -135 0
-134 -136 0
-134 -137 0
-134 -138 0
-135 -136 0
-135 -137 0
-135 -138 0
-136 -137 0
-136 -138 0
-137 -138 0
139 140 141 142 143 144 145 146 147 148 149 0
-139 -140 0
-139 -141 0
-139 -142 0
-139 -143 0
-139 -144 0
-139 -145 0
-139 -146 0
-139 -147 0
-139 -148 0
-139 -149 0
-140 -141 0
-140 -142 0
-140 -143 0
-140 -144 0
-140 -145 0
-140 -146 0
-140 -147 0
-140 -148 0
-140 -149 0
-141 -142 0
-141 -143 0
-141 -144 0
-141 -145 0
-141 -146 0
-141 -147 0
-141 -148 0
-141 -149 0
-142 -143 0
-142 -144 0
-142 -145 0
-142 -146 0
-142 -147 0
-142 -148 0
-142 -149 0
-143 -144 0
-143 -145 0
-143 -146 0
-143 -147 0
-143 -148 0
-143 -149 0
-144 -145 0
-144 -146 0
-144 -147 0
-144 -148 0
-144 -149 0
-145 -146 0
-145 -147 0
-145 -148 0
-145 -149 0
-146 -147 0
-146 -148 0
-146 -149 0
-147 -148 0
-147 -149 0
-148 -149 0
150 151 152 153 154 155 156 157 158 159 160 0
-150 -151 0
-150 -152 0
-150 -153 0
-150 -154 0
-150 -155 0
-150 -156 0
-150 -157 0
-150 -158 0
-150 -159 0
-150 -160 0
-151 -152 0
-151 -153 0
-151 -154 0
-151 -155 0
-151 -156 0
-151 -157 0
-151 -158 0
-151 -159 0
-151 -160 0
-152 -153 0
-152 -154 0
-152 -155 0
-152 -156 0
-152 -157 0
-152 -158 0
-152 -159 0
-152 -160 0
-153 -154 0
-153 -155 0
-153 -156 0
-153 -157 0
-153 -158 0
-153 -159 0
-153 -160 0
-154 -155 0
-154 -156 0
-154 -157 0
-154 -158 0
-154 -159 0
-154 -160 0
-155 -156 0
-155 -157 0
-155 -158 0
-155 -159 0
-155 -160 0
-156 -157 0
-156 -158 0
-156 -159 0
-156 -160 0
-157 -158 0
-157 -159 0
-157 -160 0
-158 -159 0
-158 -160 0
-159 -160 0
161 162 163 164 165 166 167 168 169 170 171 172 0
-161 -162 0
-161 -163 0
-161 -164 0
-161 -165 0
-161 -166 0
-161 -167 0
-161 -168 0
-161 -169 0
-161 -170 0
-161 -171 0
-161 -172 0
-162 -163 0
-162 -164 0
-162 -165 0
-162 -166 0
-162 -167 0
-162 -168 0
-162 -169 0
-162 -170 0
-162 -171 0
-162 -172 0
-163 -164 0
-163 -165 0
-163 -166 0
-163 -167 0
-163 -168 0
-163 -169 0
-163 -170 0
-163 -171 0
-163 -172 0
-164 -165 0
-164 -166 0
-164 -167 0
-164 -168 0
-164 -169 0
-164 -170 0
-164 -171 0
-164 -172 0
-165 -166 0
-165 -167 0
-165 -168 0
-165 -169 0
-165 -170 0
-165 -171 0
-165 -172 0
-166 -167 0
-166 -168 0
-166 -169 0
-166 -170 0
-166 -171 0
-166 -172 0
-167 -168 0
-167 -169 0
-167 -170 0
-167 -171 0
-167 -172 0
-168 -169 0
-168 -170 0
-168 -171 0
-168 -172 0
-169 -170 0
-169 -171 0
-169 -172 0
-170 -171 0
-170 -172 0
-171 -172 0
173 174 175 176 177 178 179 180 181 182 183 0
-173 -174 0
-173 -175 0
-173 -176 0
-173 -177 0
-173 -178 0
-173 -179 0
-173 -180 0
-173 -181 0
-173 -182 0
-173 -183 0
-174 -175 0
-174 -176 0
-174 -177 0
-174 -178 0
-174 -179 0
-174 -180 0
-174 -181 0
-174 -182 0
-174 -183 0
-175 -176 0
-175 -177 0
-175 -178 0
-175 -179 0
-175 -180 0
-175 -181 0
-175 -182 0
-175 -183 0
-176 -177 0
-176 -178 0
-176 -179 0
-176 -180 0
-176 -181 0
-176 -182 0
-176 -183 0
-177 -178 0
-177 -179 0
-177 -180 0
-177 -181 0
-177 -182 0
-177 -183 0
-178 -179 0
-178 -180 0
-178 -181 0
-178 -182 0
-178 -183 0
-179 -180 0
-179 -181 0
-179 -182 0
-179 -183 0
-180 -181 0
-180 -182 0
-180 -183 0
-181 -182 0
-181 -183 0
-182 -183 0
184 185 186 187 188 189 190 191 192 193 194 195 0
-184 -185 0
-184 -186 0
-184 -187 0
-184 -188 0
-184 -189 0
-184 -190 0
-184 -191 0
-184 -192 0
-184 -193 0
-184 -194 0
-184 -195 0
-185 -186 0
-185 -187 0
-185 -188 0
-185 -189 0
-185 -190 0
-185 -191 0
-185 -192 0
-185 -193 0
-185 -194 0
-185 -195 0
-186 -187 0
-186 -188 0
-186 -189 0
-186 -190 0
-186 -191 0
-186 -192 0
-186 -193 0
-186 -194 0
-186 -195 0
-187 -188 0
-187 -189 0
-187 -190 0
-187 -191 0
-187 -192 0
-187 -193 0
-187 -194 0
-187 -195 0
-188 -189 0
-188 -190 0
-188 -191 0
-188 -192 0
-188 -193 0
-188 -194 0
-188 -195 0
-189 -190 0
-189 -191 0
-189 -192 0
-189 -193 0
-189 -194 0
-189 -195 0
-190 -191 0
-190 -192 0
-190 -193 0
-190 -194 0
-190 -195 0
-191 -192 0
-191 -193 0
-191 -194 0
-191 -195 0
-192 -193 0
-192 -194 0
-192 -195 0
-193 -194 0
-193 -195 0
-194 -195 0
196 197 198 199 200 201 202 203 204 205 206 207 208 0
-196 -197 0
-196 -198 0
-196 -199 0
-196 -200 0
-196 -201 0
-196 -202 0
-196 -203 0
-196 -204 0
-196 -205 0
-196 -206 0
-196 -207 0
-196 -208 0
-197 -198 0
-197 -199 0
-197 -200 0
-197 -201 0
-197 -202 0
-197 -203 0
-197 -204 0
-197 -205 0
-197 -206 0
-197 -207 0
-197 -208 0
-198 -199 0
-198 -200 0
-198 -201 0
-198 -202 0
-198 -203 0
-198 -204 0
-198 -205 0
-198 -206 0
-198 -207 0
-198 -208 0
-199 -200 0
-199 -201 0
-199 -202 0
-199 -203 0
-199 -204 0
-199 -205 0
-199 -206 0
-199 -207 0
-199 -208 0
-200 -201 0
-200 -202 0
-200 -203 0
-200 -204 0
-200 -205 0
-200 -206 0
-200 -207 0
-200 -208 0
-201 -202 0
-201 -203 0
-201 -204 0
-201 -205 0
-201 -206 0
-201 -207 0
-201 -208 0
-202 -203 0
-202 -204 0
-202 -205 0
-202 -206 0
-202 -207 0
-202 -208 0
-203 -204 0
-203 -205 0
-203 -206 0
-203 -207 0
-203 -208 0
-204 -205 0
-204 -206 0
-204 -207 0
-204 -208 0
-205 -206 0
-205 -207 0
-205 -208 0
-206 -207 0
-206 -208 0
-207 -208 0
209 210 211 212 213 214 215 216 217 218 219 0
-209 -210 0
-209 -211 0
-209 -212 0
-209 -213 0
-209 -214 0
-209 -215 0
-209 -216 0
-209 -217 0
-209 -218 0
-209 -219 0
-210 -211 0
-210 -212 0
-210 -213 0
-210 -214 0
-210 -215 0
-210 -216 0
-210 -217 0
-210 -218 0
-210 -219 0
-211 -212 0
-211 -213 0
-211 -214 0
-211 -215 0
-211 -216 0
-211 -217 0
-211 -218 0
-211 -219 0
-212 -213 0
-212 -214 0
-212 -215 0
-212 -216 0
-212 -217 0
-212 -218 0
-212 -219 0
-213 -214 0
-213 -215 0
-213 -216 0
-213 -217 0
-213 -218 0
-213 -219 0
-214 -215 0
-214 -216 0
-214 -217 0
-214 -218 0
-214 -219 0
-215 -216 0
-215 -217 0
-215 -218 0
-215 -219 0
-216 -217 0
-216 -218 0
-216 -219 0
-217 -218 0
-217 -219 0
-218 -219 0
220 221 222 223 224 225 226 227 228 229 230 0
-220 -221 0
-220 -222 0
-220 -223 0
-220 -224 0
-220 -225 0
-220 -226 0
-220 -227 0
-220 -228 0
-220 -229 0
-220 -230 0
-221 -222 0
-221 -223 0
-221 -224 0
-221 -225 0
-221 -226 0
-221 -227 0
-221 -228 0
-221 -229 0
-221 -230 0
-222 -223 0
-222 -224 0
-222 -225 0
-222 -226 0
-222 -227 0
-222 -228 0
-222 -229 0
-222 -230 0
-223 -224 0
-223 -225 0
-223 -226 0
-223 -227 0
-223 -228 0
-223 -229 0
-223 -230 0
-224 -225 0
-224 -226 0
-224 -227 0
-224 -228 0
-224 -229 0
-224 -230 0
-225 -226 0
-225 -227 0
-225 -228 0
-225 -229 0
-225 -230 0
-226 -227 0
-226 -228 0
-226 -229 0
-226 -230 0
-227 -228 0
-227 -229 0
-227 -230 0
-228 -229 0
-228 -230 0
-229 -230 0
231 232 233 234 235 236 237 238 239 240 241 0
-231 -232 0
-231 -233 0
-231 -234 0
-231 -235 0
-231 -236 0
-231 -237 0
-231 -238 0
-231 -239 0
-231 -240 0
-231 -241 0
-232 -233 0
-232 -234 0
-232 -235 0
-232 -236 0
-232 -237 0
-232 -238 0
-232 -239 0
-232 -240 0
-232 -241 0
-233 -234 0
-233 -235 0
-233 -236 0
-233 -237 0
-233 -238 0
-233 -239 0
-233 -240 0
-233 -241 0
-234 -235 0
-234 -236 0
-234 -237 0
-234 -238 0
-234 -239 0
-234 -240 0
-234 -241 0
-235 -236 0
-235 -237 0
-235 -238 0
-235 -239 0
-235 -240 0
-235 -241 0
-236 -237 0
-236 -238 0
-236 -239 0
-236 -240 0
-236 -241 0
-237 -238 0
-237 -239 0
-237 -240 0
-237 -241 0
-238 -239 0
-238 -240 0
-238 -241 0
-239 -240 0
-239 -241 0
-240 -241 0
242 243 244 245 246 247 248 249 250 251 252 253 0
-242 -243 0
-242 -244 0
-242 -245 0
-242 -246 0
-242 -247 0
-242 -248 0
-242 -249 0
-242 -250 0
-242 -251 0
-242 -252 0
-242 -253 0
-243 -244 0
-243 -245 0
-243 -246 0
-243 -247 0
-243 -248 0
-243 -249 0
-243 -250 0
-243 -251 0
-243 -252 0
-243 -253 0
-244 -245 0
-244 -246 0
-244 -247 0
-244 -248 0
-244 -249 0
-244 -250 0
-244 -251 0
-244 -252 0
-244 -253 0
-245 -246 0
-245 -247 0
-245 -248 0
-245 -249 0
-245 -250 0
-245 -251 0
-245 -252 0
-245 -253 0
-246 -247 0
-246 -248 0
-246 -249 0
-246 -250 0
-246 -251 0
-246 -252 0
-246 -253 0
-247 -248 0
-247 -249 0
-247 -250 0
-247 -251 0
-247 -252 0
-247 -253 0
-248 -249 0
-248 -250 0
-248 -251 0
-248 -252 0
-248 -253 0
-249 -250 0
-249 -251 0
-249 -252 0
-249 -253 0
-250 -251 0
-250 -252 0
-250 -253 0
-251 -252 0
-251 -253 0
-252 -253 0
254 255 256 257 258 259 260 261 262 263 264 0
-254 -255 0
-254 -256 0
-254 -257 0
-254 -258 0
-254 -259 0
-254 -260 0
-254 -261 0
-254 -262 0
-254 -263 0
-254 -264 0
-255 -256 0
-255 -257 0
-255 -258 0
-255 -259 0
-255 -260 0
-255 -261 0
-255 -262 0
-255 -263 0
-255 -264 0
-256 -257 0
-256 -258 0
-256 -259 0
-256 -260 0
-256 -261 0
-256 -262 0
-256 -263 0
-256 -264 0
-257 -258 0
-257 -259 0
-257 -260 0
-257 -261 0
-257 -262 0
-257 -263 0
-257 -264 0
-258 -259 0
-258 -260 0
-258 -261 0
-258 -262 0
-258 -263 0
-258 -264 0
-259 -260 0
-259 -261 0
-259 -262 0
-259 -263 0
-259 -264 0
-260 -261 0
-260 -262 0
-260 -263 0
-260 -264 0
-261 -262 0
-261 -263 0
-261 -264 0
-262 -263 0
-262 -264 0
-263 -264 0
265 266 267 268 269 270 271 272 273 274 275 0
-265 -266 0
-265 -267 0
-265 -268 0
-265 -269 0
-265 -270 0
-265 -271 0
-265 -272 0
-265 -273 0
-265 -274 0
-265 -275 0
-266 -267 0
-266 -268 0
-266 -269 0
-266 -270 0
-266 -271 0
-266 -272 0
-266 -273 0
-266 -274 0
-266 -275 0
-267 -268 0
-267 -269 0
-267 -270 0
-267 -271 0
-267 -272 0
-267 -273 0
-267 -274 0
-267 -275 0
-268 -269 0
-268 -270 0
-268 -271 0
-268 -272 0
-268 -273 0
-268 -274 0
-268 -275 0
-269 -270 0
-269 -271 0
-269 -272 0
-269 -273 0
-269 -274 0
-269 -275 0
-270 -271 0
-270 -272 0
-270 -273 0
-270 -274 0
-270 -275 0
-271 -272 0
-271 -273 0
-271 -274 0
-271 -275 0
-272 -273 0
-272 -274 0
-272 -275 0
-273 -274 0
-273 -275 0
-274 -275 0
276 277 278 279 280 281 282 283 284 285 286 0
-276 -277 0
-276 -278 0
-276 -279 0
-276 -280 0
-276 -281 0
-276 -282 0
-276 -283 0
-276 -284 0
-276 -285 0
-276 -286 0
-277 -278 0
-277 -279 0
-277 -280 0
-277 -281 0
-277 -282 0
-277 -283 0
-277 -284 0
-277 -285 0
-277 -286 0
-278 -279 0
-278 -280 0
-278 -281 0
-278 -282 0
-278 -283 0
-278 -284 0
-278 -285 0
-278 -286 0
-279 -280 0
-279 -281 0
-279 -282 0
-279 -283 0
-279 -284 0
-279 -285 0
-279 -286 0
-280 -281 0
-280 -282 0
-280 -283 0
-280 -284 0
-280 -285 0
-280 -286 0
-281 -282 0
-281 -283 0
-281 -284 0
-281 -285 0
-281 -286 0
-282 -283 0
-282 -284 0
-282 -285 0
-282 -286 0
-283 -284 0
-283 -285 0
-283 -286 0
-284 -285 0
-284 -286 0
-285 -286 0
287 288 289 290 291 292 293 294 295 296 297 298 0
-287 -288 0
-287 -289 0
-287 -290 0
-287 -291 0
-287 -292 0
-287 -293 0
-287 -294 0
-287 -295 0
-287 -296 0
-287 -297 0
-287 -298 0
-288 -289 0
-288 -290 0
-288 -291 0
-288 -292 0
-288 -293 0
-288 -294 0
-288 -295 0
-288 -296 0
-288 -297 0
-288 -298 0
-289 -290 0
-289 -291 0
-289 -292 0
-289 -293 0
-289 -294 0
-289 -295 0
-289 -296 0
-289 -297 0
-289 -298 0
-290 -291 0
-290 -292 0
-290 -293 0
-290 -294 0
-290 -295 0
-290 -296 0
-290 -297 0
-290 -298 0
-291 -292 0
-291 -293 0
-291 -294 0
-291 -295 0
-291 -296 0
-291 -297 0
-291 -298 0
-292 -293 0
-292 -294 0
-292 -295 0
-292 -296 0
-292 -297 0
-292 -298 0
-293 -294 0
-293 -295 0
-293 -296 0
-293 -297 0
-293 -298 0
-294 -295 0
-294 -296 0
-294 -297 0
-294 -298 0
-295 -296 0
-295 -297 0
-295 -298 0
-296 -297 0
-296 -298 0
-297 -298 0
299 300 301 302 303 304 305 306 307 308 309 0
-299 -300 0
-299 -301 0
-299 -302 0
-299 -303 0
-299 -304 0
-299 -305 0
-299 -306 0
-299 -307 0
-299 -308 0
-299 -309 0
-300 -301 0
-300 -302 0
-300 -303 0
-300 -304 0
-300 -305 0
-300 -306 0
-300 -307 0
-300 -308 0
-300 -309 0
-301 -302 0
-301 -303 0
-301 -304 0
-301 -305 0
-301 -306 0
-301 -307 0
-301 -308 0
-301 -309 0
-302 -303 0
-302 -304 0
-302 -305 0
-302 -306 0
-302 -307 0
-302 -308 0
-302 -309 0
-303 -304 0
-303 -305 0
-303 -306 0
-303 -307 0
-303 -308 0
-303 -309 0
-304 -305 0
-304 -306 0
-304 -307 0
-304 -308 0
-304 -309 0
-305 -306 0
-305 -307 0
-305 -308 0
-305 -309 0
-306 -307 0
-306 -308 0
-306 -309 0
-307 -308 0
-307 -309 0
-308 -309 0
310 311 312 313 314 315 316 317 318 319 320 321 0
-310 -311 0
-310 -312 0
-310 -313 0
-310 -314 0
-310 -315 0
-310 -316 0
-310 -317 0
-310 -318 0
-310 -319 0
-310 -320 0
-310 -321 0
-311 -312 0
-311 -313 0
-311 -314 0
-311 -315 0
-311 -316 0
-311 -317 0
-311 -318 0
-311 -319 0
-311 -320 0
-311 -321 0
-312 -313 0
-312 -314 0
-312 -315 0
-312 -316 0
-312 -317 0
-312 -318 0
-312 -319 0
-312 -320 0
-312 -321 0
-313 -314 0
-313 -315 0
-313 -316 0
-313 -317 0
-313 -318 0
-313 -319 0
-313 -320 0
-313 -321 0
-314 -315 0
-314 -316 0
-314 -317 0
-314 -318 0
-314 -319 0
-314 -320 0
-314 -321 0
-315 -316 0
-315 -317 0
-315 -318 0
-315 -319 0
-315 -320 0
-315 -321 0
-316 -317 0
-316 -318 0
-316 -319 0
-316 -320 0
-316 -321 0
-317 -318 0
-317 -319 0
-317 -320 0
-317 -321 0
-318 -319 0
-318 -320 0
-318 -321 0
-319 -320 0
-319 -321 0
-320 -321 0
322 323 324 325 326 327 328 329 330 331 332 0
-322 -323 0
-322 -324 0
-322 -325 0
-322 -326 0
-322 -327 0
-322 -328 0
-322 -329 0
-322 -330 0
-322 -331 0
-322 -332 0
-323 -324 0
-323 -325 0
-323 -326 0
-323 -327 0
-323 -328 0
-323 -329 0
-323 -330 0
-323 -331 0
-323 -332 0
-324 -325 0
-324 -326 0
-324 -327 0
-324 -328 0
-324 -329 0
-324 -330 0
-324 -331 0
-324 -332 0
-325 -326 0
-325 -327 0
-325 -328 0
-325 -329 0
-325 -330 0
-325 -331 0
-325 -332 0
-326 -327 0
-326 -328 0
-326 -329 0
-326 -330 0
-326 -331 0
-326 -332 0
-327 -328 0
-327 -329 0
-327 -330 0
-327 -331 0
-327 -332 0
-328 -329 0
-328 -330 0
-328 -331 0
-328 -332 0
-329 -330 0
-329 -331 0
-329 -332 0
-330 -331 0
-330 -332 0
-331 -332 0
333 334 335 336 337 338 339 340 341 342 343 0
-333 -334 0
-333 -335 0
-333 -336 0
-333 -337 0
-333 -338 0
-333 -339 0
-333 -340 0
-333 -341 0
-333 -342 0
-333 -343 0
-334 -335 0
-334 -336 0
-334 -337 0
-334 -338 0
-334 -339 0
-334 -340 0
-334 -341 0
-334 -342 0
-334 -343 0
-335 -336 0
-335 -337 0
-335 -338 0
-335 -339 0
-335 -340 0
-335 -341 0
-335 -342 0
-335 -343 0
-336 -337 0
-336 -338 0
-336 -339 0
-336 -340 0
-336 -341 0
-336 -342 0
-336 -343 0
-337 -338 0
-337 -339 0
-337 -340 0
-337 -341 0
-337 -342 0
-337 -343 0
-338 -339 0
-338 -340 0
-338 -341 0
-338 -342 0
-338 -343 0
-339 -340 0
-339 -341 0
-339 -342 0
-339 -343 0
-340 -341 0
-340 -342 0
-340 -343 0
-341 -342 0
-341 -343 0
-342 -343 0
344 345 346 347 348 349 350 351 352 353 354 0
-344 -345 0
-344 -346 0
-344 -347 0
-344 -348 0
-344 -349 0
-344 -350 0
-344 -351 0
-344 -352 0
-344 -353 0
-344 -354 0
-345 -346 0
-345 -347 0
-345 -348 0
-345 -349 0
-345 -350 0
-345 -351 0
-345 -352 0
-345 -353 0
-345 -354 0
-346 -347 0
-346 -348 0
-346 -349 0
-346 -350 0
-346 -351 0
-346 -352 0
-346 -353 0
-346 -354 0
-347 -348 0
-347 -349 0
-347 -350 0
-347 -351 0
-347 -352 0
-347 -353 0
-347 -354 0
-348 -349 0
-348 -350 0
-348 -351 0
-348 -352 0
-348 -353 0
-348 -354 0
-349 -350 0
-349 -351 0
-349 -352 0
-349 -353 0
-349 -354 0
-350 -351 0
-350 -352 0
-350 -353 0
-350 -354 0
-351 -352 0
-351 -353 0
-351 -354 0
-352 -353 0
-352 -354 0
-353 -354 0
355 356 357 358 359 360 361 362 363 364 365 366 0
-355 -356 0
-355 -357 0
-355 -358 0
-355 -359 0
-355 -360 0
-355 -361 0
-355 -362 0
-355 -363 0
-355 -364 0
-355 -365 0
-355 -366 0
-356 -357 0
-356 -358 0
-356 -359 0
-356 -360 0
-356 -361 0
-356 -362 0
-356 -363 0
-356 -364 0
-356 -365 0
-356 -366 0
-357 -358 0
-357 -359 0
-357 -360 0
-357 -361 0
-357 -362 0
-357 -363 0
-357 -364 0
-357 -365 0
-357 -366 0
-358 -359 0
-358 -360 0
-358 -361 0
-358 -362 0
-358 -363 0
-358 -364 0
-358 -365 0
-358 -366 0
-359 -360 0
-359 -361 0
-359 -362 0
-359 -363 0
-359 -364 0
-359 -365 0
-359 -366 0
-360 -361 0
-360 -362 0
-360 -363 0
-360 -364 0
-360 -365 0
-360 -366 0
-361 -362 0
-361 -363 0
-361 -364 0
-361 -365 0
-361 -366 0
-362 -363 0
-362 -364 0
-362 -365 0
-362 -366 0
-363 -364 0
-363 -365 0
-363 -366 0
-364 -365 0
-364 -366 0
-365 -366 0
367 368 369 370 371 372 373 374 375 376 377 0
-367 -368 0
-367 -369 0
-367 -370 0
-367 -371 0
-367 -372 0
-367 -373 0
-367 -374 0
-367 -375 0
-367 -376 0
-367 -377 0
-368 -369 0
-368 -370 0
-368 -371 0
-368 -372 0
-368 -373 0
-368 -374 0
-368 -375 0
-368 -376 0
-368 -377 0
-369 -370 0
-369 -371 0
-369 -372 0
-369 -373 0
-369 -374 0
-369 -375 0
-369 -376 0
-369 -377 0
-370 -371 0
-370 -372 0
-370 -373 0
-370 -374 0
-370 -375 0
-370 -376 0
-370 -377 0
-371 -372 0
-371 -373 0
-371 -374 0
-371 -375 0
-371 -376 0
-371 -377 0
-372 -373 0
-372 -374 0
-372 -375 0
-372 -376 0
-372 -377 0
-373 -374 0
-373 -375 0
-373 -376 0
-373 -377 0
-374 -375 0
-374 -376 0
-374 -377 0
-375 -376 0
-375 -377 0
-376 -377 0
378 379 380 381 382 383 384 385 386 387 388 389 0
-378 -379 0
-378 -380 0
-378 -381 0
-378 -382 0
-378 -383 0
-378 -384 0
-378 -385 0
-378 -386 0
-378 -387 0
-378 -388 0
-378 -389 0
-379 -380 0
-379 -381 0
-379 -382 0
-379 -383 0
-379 -384 0
-379 -385 0
-379 -386 0
-379 -387 0
-379 -388 0
-379 -389 0
-380 -381 0
-380 -382 0
-380 -383 0
-380 -384 0
-380 -385 0
-380 -386 0
-380 -387 0
-380 -388 0
-380 -389 0
-381 -382 0
-381 -383 0
-381 -384 0
-381 -385 0
-381 -386 0
-381 -387 0
-381 -388 0
-381 -389 0
-382 -383 0
-382 -384 0
-382 -385 0
-382 -386 0
-382 -387 0
-382 -388 0
-382 -389 0
-383 -384 0
-383 -385 0
-383 -386 0
-383 -387 0
-383 -388 0
-383 -389 0
-384 -385 0
-384 -386 0
-384 -387 0
-384 -388 0
-384 -389 0
-385 -386 0
-385 -387 0
-385 -388 0
-385 -389 0
-386 -387 0
-386 -388 0
-386 -389 0
-387 -388 0
-387 -389 0
-388 -389 0
390 391 392 393 394 395 396 397 398 399 400 0
-390 -391 0
-390 -392 0
-390 -393 0
-390 -394 0
-390 -395 0
-390 -396 0
-390 -397 0
-390 -398 0
-390 -399 0
-390 -400 0
-391 -392 0
-391 -393 0
-391 -394 0
-391 -395 0
-391 -396 0
-391 -397 0
-391 -398 0
-391 -399 0
-391 -400 0
-392 -393 0
-392 -394 0
-392 -395 0
-392 -396 0
-392 -397 0
-392 -398 0
-392 -399 0
-392 -400 0
-393 -394 0
-393 -395 0
-393 -396 0
-393 -397 0
-393 -398 0
-393 -399 0
-393 -400 0
-394 -395 0
-394 -396 0
-394 -397 0
-394 -398 0
-394 -399 0
-394 -400 0
-395 -396 0
-395 -397 0
-395 -398 0
-395 -399 0
-395 -400 0
-396 -397 0
-396 -398 0
-396 -399 0
-396 -400 0
-397 -398 0
-397 -399 0
-397 -400 0
-398 -399 0
-398 -400 0
-399 -400 0
401 402 403 404 405 406 407 408 409 410 411 0
-401 -402 0
-401 -403 0
-401 -404 0
-401 -405 0
-401 -406 0
-401 -407 0
-401 -408 0
-401 -409 0
-401 -410 0
-401 -411 0
-402 -403 0
-402 -404 0
-402 -405 0
-402 -406 0
-402 -407 0
-402 -408 0
-402 -409 0
-402 -410 0
-402 -411 0
-403 -404 0
-403 -405 0
-403 -406 0
-403 -407 0
-403 -408 0
-403 -409 0
-403 -410 0
-403 -411 0
-404 -405 0
-404 -406 0
-404 -407 0
-404 -408 0
-404 -409 0
-404 -410 0
-404 -411 0
-405 -406 0
-405 -407 0
-405 -408 0
-405 -409 0
-405 -410 0
-405 -411 0
-406 -407 0
-406 -408 0
-406 -409 0
-406 -410 0
-406 -411 0
-407 -408 0
-407 -409 0
-407 -410 0
-407 -411 0
-408 -409 0
-408 -410 0
-408 -411 0
-409 -410 0
-409 -411 0
-410 -411 0
412 413 414 415 416 417 418 419 420 421 422 423 0
-412 -413 0
-412 -414 0
-412 -415 0
-412 -416 0
-412 -417 0
-412 -418 0
-412 -419 0
-412 -420 0
-412 -421 0
-412 -422 0
-412 -423 0
-413 -414 0
-413 -415 0
-413 -416 0
-413 -417 0
-413 -418 0
-413 -419 0
-413 -420 0
-413 -421 0
-413 -422 0
-413 -423 0
-414 -415 0
-414 -416 0
-414 -417 0
-414 -418 0
-414 -419 0
-414 -420 0
-414 -421 0
-414 -422 0
-414 -423 0
-415 -416 0
-415 -417 0
-415 -418 0
-415 -419 0
-415 -420 0
-415 -421 0
-415 -422 0
-415 -423 0
-416 -417 0
-416 -418 0
-416 -419 0
-416 -420 0
-416 -421 0
-416 -422 0
-416 -423 0
-417 -418 0
-417 -419 0
-417 -420 0
-417 -421 0
-417 -422 0
-417 -423 0
-418 -419 0
-418 -420 0
-418 -421 0
-418 -422 0
-418 -423 0
-419 -420 0
-419 -421 0
-419 -422 0
-419 -423 0
-420 -421 0
-420 -422 0
-420 -423 0
-421 -422 0
-421 -423 0
-422 -423 0
424 425 426 427 428 429 430 431 432 433 434 0
-424 -425 0
-424 -426 0
-424 -427 0
-424 -428 0
-424 -429 0
-424 -430 0
-424 -431 0
-424 -432 0
-424 -433 0
-424 -434 0
-425 -426 0
-425 -427 0
-425 -428 0
-425 -429 0
-425 -430 0
-425 -431 0
-425 -432 0
-425 -433 0
-425 -434 0
-426 -427 0
-426 -428 0
-426 -429 0
-426 -430 0
-426 -431 0
-426 -432 0
-426 -433 0
-426 -434 0
-427 -428 0
-427 -429 0
-427 -430 0
-427 -431 0
-427 -432 0
-427 -433 0
-427 -434 0
-428 -429 0
-428 -430 0
-428 -431 0
-428 -432 0
-428 -433 0
-428 -434 0
-429 -430 0
-429 -431 0
-429 -432 0
-429 -433 0
-429 -434 0
-430 -431 0
-430 -432 0
-430 -433 0
-430 -434 0
-431 -432 0
-431 -433 0
-431 -434 0
-432 -433 0
-432 -434 0
-433 -434 0
435 436 437 438 439 440 441 442 443 444 445 0
-435 -436 0
-435 -437 0
-435 -438 0
-435 -439 0
-435 -440 0
-435 -441 0
-435 -442 0
-435 -443 0
-435 -444 0
-435 -445 0
-436 -437 0
-436 -438 0
-436 -439 0
-436 -440 0
-436 -441 0
-436 -442 0
-436 -443 0
-436 -444 0
-436 -445 0
-437 -438 0
-437 -439 0
-437 -440 0
-437 -441 0
-437 -442 0
-437 -443 0
-437 -444 0
-437 -445 0
-438 -439 0
-438 -440 0
-438 -441 0
-438 -442 0
-438 -443 0
-438 -444 0
-438 -445 0
-439 -440 0
-439 -441 0
-439 -442 0
-439 -443 0
-439 -444 0
-439 -445 0
-440 -441 0
-440 -442 0
-440 -443 0
-440 -444 0
-440 -445 0
-441 -442 0
-441 -443 0
-441 -444 0
-441 -445 0
-442 -443 0
-442 -444 0
-442 -445 0
-443 -444 0
-443 -445 0
-444 -445 0
446 447 448 449 450 451 452 453 454 455 456 0
-446 -447 0
-446 -448 0
-446 -449 0
-446 -450 0
-446 -451 0
-446 -452 0
-446 -453 0
-446 -454 0
-446 -455 0
-446 -456 0
-447 -448 0
-447 -449 0
-447 -450 0
-447 -451 0
-447 -452 0
-447 -453 0
-447 -454 0
-447 -455 0
-447 -456 0
-448 -449 0
-448 -450 0
-448 -451 0
-448 -452 0
-448 -453 0
-448 -454 0
-448 -455 0
-448 -456 0
-449 -450 0
-449 -451 0
-449 -452 0
-449 -453 0
-449 -454 0
-449 -455 0
-449 -456 0
-450 -451 0
-450 -452 0
-450 -453 0
-450 -454 0
-450 -455 0
-450 -456 0
-451 -452 0
-451 -453 0
-451 -454 0
-451 -455 0
-451 -456 0
-452 -453 0
-452 -454 0
-452 -455 0
-452 -456 0
-453 -454 0
-453 -455 0
-453 -456 0
-454 -455 0
-454 -456 0
-455 -456 0
1 12 13 24 36 69 81 93 104 115 128 139 150 0
-1 -12 0
-1 -13 0
-1 -24 0
-1 -36 0
-1 -69 0
-1 -81 0
-1 -93 0
-1 -104 0
-1 -115 0
-1 -128 0
-1 -139 0
-1 -150 0
-12 -13 0
-12 -24 0
-12 -36 0
-12 -69 0
-12 -81 0
-12 -93 0
-12 -104 0
-12 -115 0
-12 -128 0
-12 -139 0
-12 -150 0
-13 -24 0
-13 -36 0
-13 -69 0
-13 -81 0
-13 -93 0
-13 -104 0
-13 -115 0
-13 -128 0
-13 -139 0
-13 -150 0
-24 -36 0
-24 -69 0
-24 -81 0
-24 -93 0
-24 -104 0
-24 -115 0
-24 -128 0
-24 -139 0
-24 -150 0
-36 -69 0
-36 -81 0
-36 -93 0
-36 -104 0
-36 -115 0
-36 -128 0
-36 -139 0
-36 -150 0
-69 -81 0
-69 -93 0
-69 -104 0
-69 -115 0
-69 -128 0
-69 -139 0
-69 -150 0
-81 -93 0
-81 -104 0
-81 -115 0
-81 -128 0
-81 -139 0
-81 -150 0
-93 -104 0
-93 -115 0
-93 -128 0
-93 -139 0
-93 -150 0
-104 -115 0
-104 -128 0
-104 -139 0
-104 -150 0
-115 -128 0
-115 -139 0
-115 -150 0
-128 -139 0
-128 -150 0
-139 -150 0
1 23 152 161 173 184 196 209 231 242 254 265 276 0
-1 -23 0
-1 -152 0
-1 -161 0
-1 -173 0
-1 -184 0
-1 -196 0
-1 -209 0
-1 -231 0
-1 -242 0
-1 -254 0
-1 -265 0
-1 -276 0
-23 -152 0
-23 -161 0
-23 -173 0
-23 -184 0
-23 -196 0
-23 -209 0
-23 -231 0
-23 -242 0
-23 -254 0
-23 -265 0
-23 -276 0
-152 -161 0
-152 -173 0
-152 -184 0
-152 -196 0
-152 -209 0
-152 -231 0
-152 -242 0
-152 -254 0
-152 -265 0
-152 -276 0
-161 -173 0
-161 -184 0
-161 -196 0
-161 -209 0
-161 -231 0
-161 -242 0
-161 -254 0
-161 -265 0
-161 -276 0
-173 -184 0
-173 -196 0
-173 -209 0
-173 -231 0
-173 -242 0
-173 -254 0
-173 -265 0
-173 -276 0
-184 -196 0
-184 -209 0
-184 -231 0
-184 -242 0
-184 -254 0
-184 -265 0
-184 -276 0
-196 -209 0
-196 -231 0
-196 -242 0
-196 -254 0
-196 -265 0
-196 -276 0
-209 -231 0
-209 -242 0
-209 -254 0
-209 -265 0
-209 -276 0
-231 -242 0
-231 -254 0
-231 -265 0
-231 -276 0
-242 -254 0
-242 -265 0
-242 -276 0
-254 -265 0
-254 -276 0
-265 -276 0
13 35 141 152 182 279 287 296 310 322 333 355 367 0
-13 -35 0
-13 -141 0
-13 -152 0
-13 -182 0
-13 -279 0
-13 -287 0
-13 -296 0
-13 -310 0
-13 -322 0
-13 -333 0
-13 -355 0
-13 -367 0
-35 -141 0
-35 -152 0
-35 -182 0
-35 -279 0
-35 -287 0
-35 -296 0
-35 -310 0
-35 -322 0
-35 -333 0
-35 -355 0
-35 -367 0
-141 -152 0
-141 -182 0
-141 -279 0
-141 -287 0
-141 -296 0
-141 -310 0
-141 -322 0
-141 -333 0
-141 -355 0
-141 -367 0
-152 -182 0
-152 -279 0
-152 -287 0
-152 -296 0
-152 -310 0
-152 -322 0
-152 -333 0
-152 -355 0
-152 -367 0
-182 -279 0
-182 -287 0
-182 -296 0
-182 -310 0
-182 -322 0
-182 -333 0
-182 -355 0
-182 -367 0
-279 -287 0
-279 -296 0
-279 -310 0
-279 -322 0
-279 -333 0
-279 -355 0
-279 -367 0
-287 -296 0
-287 -310 0
-287 -322 0
-287 -333 0
-287 -355 0
-287 -367 0
-296 -310 0
-296 -322 0
-296 -333 0
-296 -355 0
-296 -367 0
-310 -322 0
-310 -333 0
-310 -355 0
-310 -367 0
-322 -333 0
-322 -355 0
-322 -367 0
-333 -355 0
-333 -367 0
-355 -367 0
24 46 131 141 161 194 268 308 369 378 388 412 424 0
-24 -46 0
-24 -131 0
-24 -141 0
-24 -161 0
-24 -194 0
-24 -268 0
-24 -308 0
-24 -369 0
-24 -378 0
-24 -388 0
-24 -412 0
-24 -424 0
-46 -131 0
-46 -141 0
-46 -161 0
-46 -194 0
-46 -268 0
-46 -308 0
-46 -369 0
-46 -378 0
-46 -388 0
-46 -412 0
-46 -424 0
-131 -141 0
-131 -161 0
-131 -194 0
-131 -268 0
-131 -308 0
-131 -369 0
-131 -378 0
-131 -388 0
-131 -412 0
-131 -424 0
-141 -161 0
-141 -194 0
-141 -268 0
-141 -308 0
-141 -369 0
-141 -378 0
-141 -388 0
-141 -412 0
-141 -424 0
-161 -194 0
-161 -268 0
-161 -308 0
-161 -369 0
-161 -378 0
-161 -388 0
-161 -412 0
-161 -424 0
-194 -268 0
-194 -308 0
-194 -369 0
-194 -378 0
-194 -388 0
-194 -412 0
-194 -424 0
-268 -308 0
-268 -369 0
-268 -378 0
-268 -388 0
-268 -412 0
-268 -424 0
-308 -369 0
-308 -378 0
-308 -388 0
-308 -412 0
-308 -424 0
-369 -378 0
-369 -388 0
-369 -412 0
-369 -424 0
-378 -388 0
-378 -412 0
-378 -424 0
-388 -412 0
-388 -424 0
-412 -424 0
36 57 120 131 173 208 258 279 320 427 435 443 446 0
-36 -57 0
-36 -120 0
-36 -131 0
-36 -173 0
-36 -208 0
-36 -258 0
-36 -279 0
-36 -320 0
-36 -427 0
-36 -435 0
-36 -443 0
-36 -446 0
-57 -120 0
-57 -131 0
-57 -173 0
-57 -208 0
-57 -258 0
-57 -279 0
-57 -320 0
-57 -427 0
-57 -435 0
-57 -443 0
-57 -446 0
-120 -131 0
-120 -173 0
-120 -208 0
-120 -258 0
-120 -279 0
-120 -320 0
-120 -427 0
-120 -435 0
-120 -443 0
-120 -446 0
-131 -173 0
-131 -208 0
-131 -258 0
-131 -279 0
-131 -320 0
-131 -427 0
-131 -435 0
-131 -443 0
-131 -446 0
-173 -208 0
-173 -258 0
-173 -279 0
-173 -320 0
-173 -427 0
-173 -435 0
-173 -443 0
-173 -446 0
-208 -258 0
-208 -279 0
-208 -320 0
-208 -427 0
-208 -435 0
-208 -443 0
-208 -446 0
-258 -279 0
-258 -320 0
-258 -427 0
-258 -435 0
-258 -443 0
-258 -446 0
-279 -320 0
-279 -427 0
-279 -435 0
-279 -443 0
-279 -446 0
-320 -427 0
-320 -435 0
-320 -443 0
-320 -446 0
-427 -435 0
-427 -443 0
-427 -446 0
-435 -443 0
-435 -446 0
-443 -446 0
109 120 184 219 248 268 287 331 347 410 417 450 454 0
-109 -120 0
-109 -184 0
-109 -219 0
-109 -248 0
-109 -268 0
-109 -287 0
-109 -331 0
-109 -347 0
-109 -410 0
-109 -417 0
-109 -450 0
-109 -454 0
-120 -184 0
-120 -219 0
-120 -248 0
-120 -268 0
-120 -287 0
-120 -331 0
-120 -347 0
-120 -410 0
-120 -417 0
-120 -450 0
-120 -454 0
-184 -219 0
-184 -248 0
-184 -268 0
-184 -287 0
-184 -331 0
-184 -347 0
-184 -410 0
-184 -417 0
-184 -450 0
-184 -454 0
-219 -248 0
-219 -268 0
-219 -287 0
-219 -331 0
-219 -347 0
-219 -410 0
-219 -417 0
-219 -450 0
-219 -454 0
-248 -268 0
-248 -287 0
-248 -331 0
-248 -347 0
-248 -410 0
-248 -417 0
-248 -450 0
-248 -454 0
-268 -287 0
-268 -331 0
-268 -347 0
-268 -410 0
-268 -417 0
-268 -450 0
-268 -454 0
-287 -331 0
-287 -347 0
-287 -410 0
-287 -417 0
-287 -450 0
-287 -454 0
-331 -347 0
-331 -410 0
-331 -417 0
-331 -450 0
-331 -454 0
-347 -410 0
-347 -417 0
-347 -450 0
-347 -454 0
-410 -417 0
-410 -450 0
-410 -454 0
-417 -450 0
-417 -454 0
-450 -454 0
80 99 109 196 229 235 258 338 342 369 405 421 439 0
-80 -99 0
-80 -109 0
-80 -196 0
-80 -229 0
-80 -235 0
-80 -258 0
-80 -338 0
-80 -342 0
-80 -369 0
-80 -405 0
-80 -421 0
-80 -439 0
-99 -109 0
-99 -196 0
-99 -229 0
-99 -235 0
-99 -258 0
-99 -338 0
-99 -342 0
-99 -369 0
-99 -405 0
-99 -421 0
-99 -439 0
-109 -196 0
-109 -229 0
-109 -235 0
-109 -258 0
-109 -338 0
-109 -342 0
-109 -369 0
-109 -405 0
-109 -421 0
-109 -439 0
-196 -229 0
-196 -235 0
-196 -258 0
-196 -338 0
-196 -342 0
-196 -369 0
-196 -405 0
-196 -421 0
-196 -439 0
-229 -235 0
-229 -258 0
-229 -338 0
-229 -342 0
-229 -369 0
-229 -405 0
-229 -421 0
-229 -439 0
-235 -258 0
-235 -338 0
-235 -342 0
-235 -369 0
-235 -405 0
-235 -421 0
-235 -439 0
-258 -338 0
-258 -342 0
-258 -369 0
-258 -405 0
-258 -421 0
-258 -439 0
-338 -342 0
-338 -369 0
-338 -405 0
-338 -421 0
-338 -439 0
-342 -369 0
-342 -405 0
-342 -421 0
-342 -439 0
-369 -405 0
-369 -421 0
-369 -439 0
-405 -421 0
-405 -439 0
-421 -439 0
69 87 92 99 209 227 240 248 310 352 378 396 433 0
-69 -87 0
-69 -92 0
-69 -99 0
-69 -209 0
-69 -227 0
-69 -240 0
-69 -248 0
-69 -310 0
-69 -352 0
-69 -378 0
-69 -396 0
-69 -433 0
-87 -92 0
-87 -99 0
-87 -209 0
-87 -227 0
-87 -240 0
-87 -248 0
-87 -310 0
-87 -352 0
-87 -378 0
-87 -396 0
-87 -433 0
-92 -99 0
-92 -209 0
-92 -227 0
-92 -240 0
-92 -248 0
-92 -310 0
-92 -352 0
-92 -378 0
-92 -396 0
-92 -433 0
-99 -209 0
-99 -227 0
-99 -240 0
-99 -248 0
-99 -310 0
-99 -352 0
-99 -378 0
-99 -396 0
-99 -433 0
-209 -227 0
-209 -240 0
-209 -248 0
-209 -310 0
-209 -352 0
-209 -378 0
-209 -396 0
-209 -433 0
-227 -240 0
-227 -248 0
-227 -310 0
-227 -352 0
-227 -378 0
-227 -396 0
-227 -433 0
-240 -248 0
-240 -310 0
-240 -352 0
-240 -378 0
-240 -396 0
-240 -433 0
-248 -310 0
-248 -352 0
-248 -378 0
-248 -396 0
-248 -433 0
-310 -352 0
-310 -378 0
-310 -396 0
-310 -433 0
-352 -378 0
-352 -396 0
-352 -433 0
-378 -396 0
-378 -433 0
-396 -433 0
75 81 87 103 215 235 252 315 322 347 364 385 427 0
-75 -81 0
-75 -87 0
-75 -103 0
-75 -215 0
-75 -235 0
-75 -252 0
-75 -315 0
-75 -322 0
-75 -347 0
-75 -364 0
-75 -385 0
-75 -427 0
-81 -87 0
-81 -103 0
-81 -215 0
-81 -235 0
-81 -252 0
-81 -315 0
-81 -322 0
-81 -347 0
-81 -364 0
-81 -385 0
-81 -427 0
-87 -103 0
-87 -215 0
-87 -235 0
-87 -252 0
-87 -315 0
-87 -322 0
-87 -347 0
-87 -364 0
-87 -385 0
-87 -427 0
-103 -215 0
-103 -235 0
-103 -252 0
-103 -315 0
-103 -322 0
-103 -347 0
-103 -364 0
-103 -385 0
-103 -427 0
-215 -235 0
-215 -252 0
-215 -315 0
-215 -322 0
-215 -347 0
-215 -364 0
-215 -385 0
-215 -427 0
-235 -252 0
-235 -315 0
-235 -322 0
-235 -347 0
-235 -364 0
-235 -385 0
-235 -427 0
-252 -315 0
-252 -322 0
-252 -347 0
-252 -364 0
-252 -385 0
-252 -427 0
-315 -322 0
-315 -347 0
-315 -364 0
-315 -385 0
-315 -427 0
-322 -347 0
-322 -364 0
-322 -385 0
-322 -427 0
-347 -364 0
-347 -385 0
-347 -427 0
-364 -385 0
-364 -427 0
-385 -427 0
65 75 93 114 227 231 263 305 333 338 375 417 435 0
-65 -75 0
-65 -93 0
-65 -114 0
-65 -227 0
-65 -231 0
-65 -263 0
-65 -305 0
-65 -333 0
-65 -338 0
-65 -375 0
-65 -417 0
-65 -435 0
-75 -93 0
-75 -114 0
-75 -227 0
-75 -231 0
-75 -263 0
-75 -305 0
-75 -333 0
-75 -338 0
-75 -375 0
-75 -417 0
-75 -435 0
-93 -114 0
-93 -227 0
-93 -231 0
-93 -263 0
-93 -305 0
-93 -333 0
-93 -338 0
-93 -375 0
-93 -417 0
-93 -435 0
-114 -227 0
-114 -231 0
-114 -263 0
-114 -305 0
-114 -333 0
-114 -338 0
-114 -375 0
-114 -417 0
-114 -435 0
-227 -231 0
-227 -263 0
-227 -305 0
-227 -333 0
-227 -338 0
-227 -375 0
-227 -417 0
-227 -435 0
-231 -263 0
-231 -305 0
-231 -333 0
-231 -338 0
-231 -375 0
-231 -417 0
-231 -435 0
-263 -305 0
-263 -333 0
-263 -338 0
-263 -375 0
-263 -417 0
-263 -435 0
-305 -333 0
-305 -338 0
-305 -375 0
-305 -417 0
-305 -435 0
-333 -338 0
-333 -375 0
-333 -417 0
-333 -435 0
-338 -375 0
-338 -417 0
-338 -435 0
-375 -417 0
-375 -435 0
-417 -435 0
54 65 104 127 192 215 242 274 293 405 412 446 450 0
-54 -65 0
-54 -104 0
-54 -127 0
-54 -192 0
-54 -215 0
-54 -242 0
-54 -274 0
-54 -293 0
-54 -405 0
-54 -412 0
-54 -446 0
-54 -450 0
-65 -104 0
-65 -127 0
-65 -192 0
-65 -215 0
-65 -242 0
-65 -274 0
-65 -293 0
-65 -405 0
-65 -412 0
-65 -446 0
-65 -450 0
-104 -127 0
-104 -192 0
-104 -215 0
-104 -242 0
-104 -274 0
-104 -293 0
-104 -405 0
-104 -412 0
-104 -446 0
-104 -450 0
-127 -192 0
-127 -215 0
-127 -242 0
-127 -274 0
-127 -293 0
-127 -405 0
-127 -412 0
-127 -446 0
-127 -450 0
-192 -215 0
-192 -242 0
-192 -274 0
-192 -293 0
-192 -405 0
-192 -412 0
-192 -446 0
-192 -450 0
-215 -242 0
-215 -274 0
-215 -293 0
-215 -405 0
-215 -412 0
-215 -446 0
-215 -450 0
-242 -274 0
-242 -293 0
-242 -405 0
-242 -412 0
-242 -446 0
-242 -450 0
-274 -293 0
-274 -405 0
-274 -412 0
-274 -446 0
-274 -450 0
-293 -405 0
-293 -412 0
-293 -446 0
-293 -450 0
-405 -412 0
-405 -446 0
-405 -450 0
-412 -446 0
-412 -450 0
-446 -450 0
45 54 115 138 254 285 315 355 396 424 439 443 454 0
-45 -54 0
-45 -115 0
-45 -138 0
-45 -254 0
-45 -285 0
-45 -315 0
-45 -355 0
-45 -396 0
-45 -424 0
-45 -439 0
-45 -443 0
-45 -454 0
-54 -115 0
-54 -138 0
-54 -254 0
-54 -285 0
-54 -315 0
-54 -355 0
-54 -396 0
-54 -424 0
-54 -439 0
-54 -443 0
-54 -454 0
-115 -138 0
-115 -254 0
-115 -285 0
-115 -315 0
-115 -355 0
-115 -396 0
-115 -424 0
-115 -439 0
-115 -443 0
-115 -454 0
-138 -254 0
-138 -285 0
-138 -315 0
-138 -355 0
-138 -396 0
-138 -424 0
-138 -439 0
-138 -443 0
-138 -454 0
-254 -285 0
-254 -315 0
-254 -355 0
-254 -396 0
-254 -424 0
-254 -439 0
-254 -443 0
-254 -454 0
-285 -315 0
-285 -355 0
-285 -396 0
-285 -424 0
-285 -439 0
-285 -443 0
-285 -454 0
-315 -355 0
-315 -396 0
-315 -424 0
-315 -439 0
-315 -443 0
-315 -454 0
-355 -396 0
-355 -424 0
-355 -439 0
-355 -443 0
-355 -454 0
-396 -424 0
-396 -439 0
-396 -443 0
-396 -454 0
-424 -439 0
-424 -443 0
-424 -454 0
-439 -443 0
-439 -454 0
-443 -454 0
45 128 149 170 192 265 305 367 385 388 410 421 433 0
-45 -128 0
-45 -149 0
-45 -170 0
-45 -192 0
-45 -265 0
-45 -305 0
-45 -367 0
-45 -385 0
-45 -388 0
-45 -410 0
-45 -421 0
-45 -433 0
-128 -149 0
-128 -170 0
-128 -192 0
-128 -265 0
-128 -305 0
-128 -367 0
-128 -385 0
-128 -388 0
-128 -410 0
-128 -421 0
-128 -433 0
-149 -170 0
-149 -192 0
-149 -265 0
-149 -305 0
-149 -367 0
-149 -385 0
-149 -388 0
-149 -410 0
-149 -421 0
-149 -433 0
-170 -192 0
-170 -265 0
-170 -305 0
-170 -367 0
-170 -385 0
-170 -388 0
-170 -410 0
-170 -421 0
-170 -433 0
-192 -265 0
-192 -305 0
-192 -367 0
-192 -385 0
-192 -388 0
-192 -410 0
-192 -421 0
-192 -433 0
-265 -305 0
-265 -367 0
-265 -385 0
-265 -388 0
-265 -410 0
-265 -421 0
-265 -433 0
-305 -367 0
-305 -385 0
-305 -388 0
-305 -410 0
-305 -421 0
-305 -433 0
-367 -385 0
-367 -388 0
-367 -410 0
-367 -421 0
-367 -433 0
-385 -388 0
-385 -410 0
-385 -421 0
-385 -433 0
-388 -410 0
-388 -421 0
-388 -433 0
-410 -421 0
-410 -433 0
-421 -433 0
22 139 160 276 293 296 308 320 331 342 352 364 375 0
-22 -139 0
-22 -160 0
-22 -276 0
-22 -293 0
-22 -296 0
-22 -308 0
-22 -320 0
-22 -331 0
-22 -342 0
-22 -352 0
-22 -364 0
-22 -375 0
-139 -160 0
-139 -276 0
-139 -293 0
-139 -296 0
-139 -308 0
-139 -320 0
-139 -331 0
-139 -342 0
-139 -352 0
-139 -364 0
-139 -375 0
-160 -276 0
-160 -293 0
-160 -296 0
-160 -308 0
-160 -320 0
-160 -331 0
-160 -342 0
-160 -352 0
-160 -364 0
-160 -375 0
-276 -293 0
-276 -296 0
-276 -308 0
-276 -320 0
-276 -331 0
-276 -342 0
-276 -352 0
-276 -364 0
-276 -375 0
-293 -296 0
-293 -308 0
-293 -320 0
-293 -331 0
-293 -342 0
-293 -352 0
-293 -364 0
-293 -375 0
-296 -308 0
-296 -320 0
-296 -331 0
-296 -342 0
-296 -352 0
-296 -364 0
-296 -375 0
-308 -320 0
-308 -331 0
-308 -342 0
-308 -352 0
-308 -364 0
-308 -375 0
-320 -331 0
-320 -342 0
-320 -352 0
-320 -364 0
-320 -375 0
-331 -342 0
-331 -352 0
-331 -364 0
-331 -375 0
-342 -352 0
-342 -364 0
-342 -375 0
-352 -364 0
-352 -375 0
-364 -375 0
22 150 170 182 194 208 219 229 240 252 263 274 285 0
-22 -150 0
-22 -170 0
-22 -182 0
-22 -194 0
-22 -208 0
-22 -219 0
-22 -229 0
-22 -240 0
-22 -252 0
-22 -263 0
-22 -274 0
-22 -285 0
-150 -170 0
-150 -182 0
-150 -194 0
-150 -208 0
-150 -219 0
-150 -229 0
-150 -240 0
-150 -252 0
-150 -263 0
-150 -274 0
-150 -285 0
-170 -182 0
-170 -194 0
-170 -208 0
-170 -219 0
-170 -229 0
-170 -240 0
-170 -252 0
-170 -263 0
-170 -274 0
-170 -285 0
-182 -194 0
-182 -208 0
-182 -219 0
-182 -229 0
-182 -240 0
-182 -252 0
-182 -263 0
-182 -274 0
-182 -285 0
-194 -208 0
-194 -219 0
-194 -229 0
-194 -240 0
-194 -252 0
-194 -263 0
-194 -274 0
-194 -285 0
-208 -219 0
-208 -229 0
-208 -240 0
-208 -252 0
-208 -263 0
-208 -274 0
-208 -285 0
-219 -229 0
-219 -240 0
-219 -252 0
-219 -263 0
-219 -274 0
-219 -285 0
-229 -240 0
-229 -252 0
-229 -263 0
-229 -274 0
-229 -285 0
-240 -252 0
-240 -263 0
-240 -274 0
-240 -285 0
-252 -263 0
-252 -274 0
-252 -285 0
-263 -274 0
-263 -285 0
-274 -285 0
12 23 35 46 57 80 92 103 114 127 138 149 160 0
-12 -23 0
-12 -35 0
-12 -46 0
-12 -57 0
-12 -80 0
-12 -92 0
-12 -103 0
-12 -114 0
-12 -127 0
-12 -138 0
-12 -149 0
-12 -160 0
-23 -35 0
-23 -46 0
-23 -57 0
-23 -80 0
-23 -92 0
-23 -103 0
-23 -114 0
-23 -127 0
-23 -138 0
-23 -149 0
-23 -160 0
-35 -46 0
-35 -57 0
-35 -80 0
-35 -92 0
-35 -103 0
-35 -114 0
-35 -127 0
-35 -138 0
-35 -149 0
-35 -160 0
-46 -57 0
-46 -80 0
-46 -92 0
-46 -103 0
-46 -114 0
-46 -127 0
-46 -138 0
-46 -149 0
-46 -160 0
-57 -80 0
-57 -92 0
-57 -103 0
-57 -114 0
-57 -127 0
-57 -138 0
-57 -149 0
-57 -160 0
-80 -92 0
-80 -103 0
-80 -114 0
-80 -127 0
-80 -138 0
-80 -149 0
-80 -160 0
-92 -103 0
-92 -114 0
-92 -127 0
-92 -138 0
-92 -149 0
-92 -160 0
-103 -114 0
-103 -127 0
-103 -138 0
-103 -149 0
-103 -160 0
-114 -127 0
-114 -138 0
-114 -149 0
-114 -160 0
-127 -138 0
-127 -149 0
-127 -160 0
-138 -149 0
-138 -160 0
-149 -160 0
1 2 14 25 58 82 94 105 116 129 151 0
-1 -2 0
-1 -14 0
-1 -25 0
-1 -58 0
-1 -82 0
-1 -94 0
-1 -105 0
-1 -116 0
-1 -129 0
-1 -151 0
-2 -14 0
-2 -25 0
-2 -58 0
-2 -82 0
-2 -94 0
-2 -105 0
-2 -116 0
-2 -129 0
-2 -151 0
-14 -25 0
-14 -58 0
-14 -82 0
-14 -94 0
-14 -105 0
-14 -116 0
-14 -129 0
-14 -151 0
-25 -58 0
-25 -82 0
-25 -94 0
-25 -105 0
-25 -116 0
-25 -129 0
-25 -151 0
-58 -82 0
-58 -94 0
-58 -105 0
-58 -116 0
-58 -129 0
-58 -151 0
-82 -94 0
-82 -105 0
-82 -116 0
-82 -129 0
-82 -151 0
-94 -105 0
-94 -116 0
-94 -129 0
-94 -151 0
-105 -116 0
-105 -129 0
-105 -151 0
-116 -129 0
-116 -151 0
-129 -151 0
2 13 153 162 172 197 210 220 243 255 266 277 0
-2 -13 0
-2 -153 0
-2 -162 0
-2 -172 0
-2 -197 0
-2 -210 0
-2 -220 0
-2 -243 0
-2 -255 0
-2 -266 0
-2 -277 0
-13 -153 0
-13 -162 0
-13 -172 0
-13 -197 0
-13 -210 0
-13 -220 0
-13 -243 0
-13 -255 0
-13 -266 0
-13 -277 0
-153 -162 0
-153 -172 0
-153 -197 0
-153 -210 0
-153 -220 0
-153 -243 0
-153 -255 0
-153 -266 0
-153 -277 0
-162 -172 0
-162 -197 0
-162 -210 0
-162 -220 0
-162 -243 0
-162 -255 0
-162 -266 0
-162 -277 0
-172 -197 0
-172 -210 0
-172 -220 0
-172 -243 0
-172 -255 0
-172 -266 0
-172 -277 0
-197 -210 0
-197 -220 0
-197 -243 0
-197 -255 0
-197 -266 0
-197 -277 0
-210 -220 0
-210 -243 0
-210 -255 0
-210 -266 0
-210 -277 0
-220 -243 0
-220 -255 0
-220 -266 0
-220 -277 0
-243 -255 0
-243 -266 0
-243 -277 0
-255 -266 0
-255 -277 0
-266 -277 0
14 24 142 153 183 297 299 334 344 356 368 0
-14 -24 0
-14 -142 0
-14 -153 0
-14 -183 0
-14 -297 0
-14 -299 0
-14 -334 0
-14 -344 0
-14 -356 0
-14 -368 0
-24 -142 0
-24 -153 0
-24 -183 0
-24 -297 0
-24 -299 0
-24 -334 0
-24 -344 0
-24 -356 0
-24 -368 0
-142 -153 0
-142 -183 0
-142 -297 0
-142 -299 0
-142 -334 0
-142 -344 0
-142 -356 0
-142 -368 0
-153 -183 0
-153 -297 0
-153 -299 0
-153 -334 0
-153 -344 0
-153 -356 0
-153 -368 0
-183 -297 0
-183 -299 0
-183 -334 0
-183 -344 0
-183 -356 0
-183 -368 0
-297 -299 0
-297 -334 0
-297 -344 0
-297 -356 0
-297 -368 0
-299 -334 0
-299 -344 0
-299 -356 0
-299 -368 0
-334 -344 0
-334 -356 0
-334 -368 0
-344 -356 0
-344 -368 0
-356 -368 0
25 36 142 162 195 309 379 389 390 401 413 0
-25 -36 0
-25 -142 0
-25 -162 0
-25 -195 0
-25 -309 0
-25 -379 0
-25 -389 0
-25 -390 0
-25 -401 0
-25 -413 0
-36 -142 0
-36 -162 0
-36 -195 0
-36 -309 0
-36 -379 0
-36 -389 0
-36 -390 0
-36 -401 0
-36 -413 0
-142 -162 0
-142 -195 0
-142 -309 0
-142 -379 0
-142 -389 0
-142 -390 0
-142 -401 0
-142 -413 0
-162 -195 0
-162 -309 0
-162 -379 0
-162 -389 0
-162 -390 0
-162 -401 0
-162 -413 0
-195 -309 0
-195 -379 0
-195 -389 0
-195 -390 0
-195 -401 0
-195 -413 0
-309 -379 0
-309 -389 0
-309 -390 0
-309 -401 0
-309 -413 0
-379 -389 0
-379 -390 0
-379 -401 0
-379 -413 0
-389 -390 0
-389 -401 0
-389 -413 0
-390 -401 0
-390 -413 0
-401 -413 0
58 69 100 197 230 236 299 343 406 422 440 0
-58 -69 0
-58 -100 0
-58 -197 0
-58 -230 0
-58 -236 0
-58 -299 0
-58 -343 0
-58 -406 0
-58 -422 0
-58 -440 0
-69 -100 0
-69 -197 0
-69 -230 0
-69 -236 0
-69 -299 0
-69 -343 0
-69 -406 0
-69 -422 0
-69 -440 0
-100 -197 0
-100 -230 0
-100 -236 0
-100 -299 0
-100 -343 0
-100 -406 0
-100 -422 0
-100 -440 0
-197 -230 0
-197 -236 0
-197 -299 0
-197 -343 0
-197 -406 0
-197 -422 0
-197 -440 0
-230 -236 0
-230 -299 0
-230 -343 0
-230 -406 0
-230 -422 0
-230 -440 0
-236 -299 0
-236 -343 0
-236 -406 0
-236 -422 0
-236 -440 0
-299 -343 0
-299 -406 0
-299 -422 0
-299 -440 0
-343 -406 0
-343 -422 0
-343 -440 0
-406 -422 0
-406 -440 0
-422 -440 0
81 88 100 210 228 241 328 353 379 397 434 0
-81 -88 0
-81 -100 0
-81 -210 0
-81 -228 0
-81 -241 0
-81 -328 0
-81 -353 0
-81 -379 0
-81 -397 0
-81 -434 0
-88 -100 0
-88 -210 0
-88 -228 0
-88 -241 0
-88 -328 0
-88 -353 0
-88 -379 0
-88 -397 0
-88 -434 0
-100 -210 0
-100 -228 0
-100 -241 0
-100 -328 0
-100 -353 0
-100 -379 0
-100 -397 0
-100 -434 0
-210 -228 0
-210 -241 0
-210 -328 0
-210 -353 0
-210 -379 0
-210 -397 0
-210 -434 0
-228 -241 0
-228 -328 0
-228 -353 0
-228 -379 0
-228 -397 0
-228 -434 0
-241 -328 0
-241 -353 0
-241 -379 0
-241 -397 0
-241 -434 0
-328 -353 0
-328 -379 0
-328 -397 0
-328 -434 0
-353 -379 0
-353 -397 0
-353 -434 0
-379 -397 0
-379 -434 0
-397 -434 0
76 82 88 93 220 236 253 316 365 386 390 0
-76 -82 0
-76 -88 0
-76 -93 0
-76 -220 0
-76 -236 0
-76 -253 0
-76 -316 0
-76 -365 0
-76 -386 0
-76 -390 0
-82 -88 0
-82 -93 0
-82 -220 0
-82 -236 0
-82 -253 0
-82 -316 0
-82 -365 0
-82 -386 0
-82 -390 0
-88 -93 0
-88 -220 0
-88 -236 0
-88 -253 0
-88 -316 0
-88 -365 0
-88 -386 0
-88 -390 0
-93 -220 0
-93 -236 0
-93 -253 0
-93 -316 0
-93 -365 0
-93 -386 0
-93 -390 0
-220 -236 0
-220 -253 0
-220 -316 0
-220 -365 0
-220 -386 0
-220 -390 0
-236 -253 0
-236 -316 0
-236 -365 0
-236 -386 0
-236 -390 0
-253 -316 0
-253 -365 0
-253 -386 0
-253 -390 0
-316 -365 0
-316 -386 0
-316 -390 0
-365 -386 0
-365 -390 0
-386 -390 0
66 76 94 104 205 228 264 306 334 376 401 0
-66 -76 0
-66 -94 0
-66 -104 0
-66 -205 0
-66 -228 0
-66 -264 0
-66 -306 0
-66 -334 0
-66 -376 0
-66 -401 0
-76 -94 0
-76 -104 0
-76 -205 0
-76 -228 0
-76 -264 0
-76 -306 0
-76 -334 0
-76 -376 0
-76 -401 0
-94 -104 0
-94 -205 0
-94 -228 0
-94 -264 0
-94 -306 0
-94 -334 0
-94 -376 0
-94 -401 0
-104 -205 0
-104 -228 0
-104 -264 0
-104 -306 0
-104 -334 0
-104 -376 0
-104 -401 0
-205 -228 0
-205 -264 0
-205 -306 0
-205 -334 0
-205 -376 0
-205 -401 0
-228 -264 0
-228 -306 0
-228 -334 0
-228 -376 0
-228 -401 0
-264 -306 0
-264 -334 0
-264 -376 0
-264 -401 0
-306 -334 0
-306 -376 0
-306 -401 0
-334 -376 0
-334 -401 0
-376 -401 0
55 66 105 115 243 275 294 328 344 406 413 0
-55 -66 0
-55 -105 0
-55 -115 0
-55 -243 0
-55 -275 0
-55 -294 0
-55 -328 0
-55 -344 0
-55 -406 0
-55 -413 0
-66 -105 0
-66 -115 0
-66 -243 0
-66 -275 0
-66 -294 0
-66 -328 0
-66 -344 0
-66 -406 0
-66 -413 0
-105 -115 0
-105 -243 0
-105 -275 0
-105 -294 0
-105 -328 0
-105 -344 0
-105 -406 0
-105 -413 0
-115 -243 0
-115 -275 0
-115 -294 0
-115 -328 0
-115 -344 0
-115 -406 0
-115 -413 0
-243 -275 0
-243 -294 0
-243 -328 0
-243 -344 0
-243 -406 0
-243 -413 0
-275 -294 0
-275 -328 0
-275 -344 0
-275 -406 0
-275 -413 0
-294 -328 0
-294 -344 0
-294 -406 0
-294 -413 0
-328 -344 0
-328 -406 0
-328 -413 0
-344 -406 0
-344 -413 0
-406 -413 0
55 116 128 180 205 255 286 316 356 397 440 0
-55 -116 0
-55 -128 0
-55 -180 0
-55 -205 0
-55 -255 0
-55 -286 0
-55 -316 0
-55 -356 0
-55 -397 0
-55 -440 0
-116 -128 0
-116 -180 0
-116 -205 0
-116 -255 0
-116 -286 0
-116 -316 0
-116 -356 0
-116 -397 0
-116 -440 0
-128 -180 0
-128 -205 0
-128 -255 0
-128 -286 0
-128 -316 0
-128 -356 0
-128 -397 0
-128 -440 0
-180 -205 0
-180 -255 0
-180 -286 0
-180 -316 0
-180 -356 0
-180 -397 0
-180 -440 0
-205 -255 0
-205 -286 0
-205 -316 0
-205 -356 0
-205 -397 0
-205 -440 0
-255 -286 0
-255 -316 0
-255 -356 0
-255 -397 0
-255 -440 0
-286 -316 0
-286 -356 0
-286 -397 0
-286 -440 0
-316 -356 0
-316 -397 0
-316 -440 0
-356 -397 0
-356 -440 0
-397 -440 0
34 129 139 171 266 306 368 386 389 422 434 0
-34 -129 0
-34 -139 0
-34 -171 0
-34 -266 0
-34 -306 0
-34 -368 0
-34 -386 0
-34 -389 0
-34 -422 0
-34 -434 0
-129 -139 0
-129 -171 0
-129 -266 0
-129 -306 0
-129 -368 0
-129 -386 0
-129 -389 0
-129 -422 0
-129 -434 0
-139 -171 0
-139 -266 0
-139 -306 0
-139 -368 0
-139 -386 0
-139 -389 0
-139 -422 0
-139 -434 0
-171 -266 0
-171 -306 0
-171 -368 0
-171 -386 0
-171 -389 0
-171 -422 0
-171 -434 0
-266 -306 0
-266 -368 0
-266 -386 0
-266 -389 0
-266 -422 0
-266 -434 0
-306 -368 0
-306 -386 0
-306 -389 0
-306 -422 0
-306 -434 0
-368 -386 0
-368 -389 0
-368 -422 0
-368 -434 0
-386 -389 0
-386 -422 0
-386 -434 0
-389 -422 0
-389 -434 0
-422 -434 0
34 150 180 277 294 297 309 343 353 365 376 0
-34 -150 0
-34 -180 0
-34 -277 0
-34 -294 0
-34 -297 0
-34 -309 0
-34 -343 0
-34 -353 0
-34 -365 0
-34 -376 0
-150 -180 0
-150 -277 0
-150 -294 0
-150 -297 0
-150 -309 0
-150 -343 0
-150 -353 0
-150 -365 0
-150 -376 0
-180 -277 0
-180 -294 0
-180 -297 0
-180 -309 0
-180 -343 0
-180 -353 0
-180 -365 0
-180 -376 0
-277 -294 0
-277 -297 0
-277 -309 0
-277 -343 0
-277 -353 0
-277 -365 0
-277 -376 0
-294 -297 0
-294 -309 0
-294 -343 0
-294 -353 0
-294 -365 0
-294 -376 0
-297 -309 0
-297 -343 0
-297 -353 0
-297 -365 0
-297 -376 0
-309 -343 0
-309 -353 0
-309 -365 0
-309 -376 0
-343 -353 0
-343 -365 0
-343 -376 0
-353 -365 0
-353 -376 0
-365 -376 0
12 151 171 172 183 195 230 241 253 264 275 286 0
-12 -151 0
-12 -171 0
-12 -172 0
-12 -183 0
-12 -195 0
-12 -230 0
-12 -241 0
-12 -253 0
-12 -264 0
-12 -275 0
-12 -286 0
-151 -171 0
-151 -172 0
-151 -183 0
-151 -195 0
-151 -230 0
-151 -241 0
-151 -253 0
-151 -264 0
-151 -275 0
-151 -286 0
-171 -172 0
-171 -183 0
-171 -195 0
-171 -230 0
-171 -241 0
-171 -253 0
-171 -264 0
-171 -275 0
-171 -286 0
-172 -183 0
-172 -195 0
-172 -230 0
-172 -241 0
-172 -253 0
-172 -264 0
-172 -275 0
-172 -286 0
-183 -195 0
-183 -230 0
-183 -241 0
-183 -253 0
-183 -264 0
-183 -275 0
-183 -286 0
-195 -230 0
-195 -241 0
-195 -253 0
-195 -264 0
-195 -275 0
-195 -286 0
-230 -241 0
-230 -253 0
-230 -264 0
-230 -275 0
-230 -286 0
-241 -253 0
-241 -264 0
-241 -275 0
-241 -286 0
-253 -264 0
-253 -275 0
-253 -286 0
-264 -275 0
-264 -286 0
-275 -286 0
2 3 15 26 47 70 95 106 117 140 152 0
-2 -3 0
-2 -15 0
-2 -26 0
-2 -47 0
-2 -70 0
-2 -95 0
-2 -106 0
-2 -117 0
-2 -140 0
-2 -152 0
-3 -15 0
-3 -26 0
-3 -47 0
-3 -70 0
-3 -95 0
-3 -106 0
-3 -117 0
-3 -140 0
-3 -152 0
-15 -26 0
-15 -47 0
-15 -70 0
-15 -95 0
-15 -106 0
-15 -117 0
-15 -140 0
-15 -152 0
-26 -47 0
-26 -70 0
-26 -95 0
-26 -106 0
-26 -117 0
-26 -140 0
-26 -152 0
-47 -70 0
-47 -95 0
-47 -106 0
-47 -117 0
-47 -140 0
-47 -152 0
-70 -95 0
-70 -106 0
-70 -117 0
-70 -140 0
-70 -152 0
-95 -106 0
-95 -117 0
-95 -140 0
-95 -152 0
-106 -117 0
-106 -140 0
-106 -152 0
-117 -140 0
-117 -152 0
-140 -152 0
3 14 154 161 163 174 185 221 232 244 256 278 0
-3 -14 0
-3 -154 0
-3 -161 0
-3 -163 0
-3 -174 0
-3 -185 0
-3 -221 0
-3 -232 0
-3 -244 0
-3 -256 0
-3 -278 0
-14 -154 0
-14 -161 0
-14 -163 0
-14 -174 0
-14 -185 0
-14 -221 0
-14 -232 0
-14 -244 0
-14 -256 0
-14 -278 0
-154 -161 0
-154 -163 0
-154 -174 0
-154 -185 0
-154 -221 0
-154 -232 0
-154 -244 0
-154 -256 0
-154 -278 0
-161 -163 0
-161 -174 0
-161 -185 0
-161 -221 0
-161 -232 0
-161 -244 0
-161 -256 0
-161 -278 0
-163 -174 0
-163 -185 0
-163 -221 0
-163 -232 0
-163 -244 0
-163 -256 0
-163 -278 0
-174 -185 0
-174 -221 0
-174 -232 0
-174 -244 0
-174 -256 0
-174 -278 0
-185 -221 0
-185 -232 0
-185 -244 0
-185 -256 0
-185 -278 0
-221 -232 0
-221 -244 0
-221 -256 0
-221 -278 0
-232 -244 0
-232 -256 0
-232 -278 0
-244 -256 0
-244 -278 0
-256 -278 0
15 25 143 154 173 280 298 311 323 335 357 0
-15 -25 0
-15 -143 0
-15 -154 0
-15 -173 0
-15 -280 0
-15 -298 0
-15 -311 0
-15 -323 0
-15 -335 0
-15 -357 0
-25 -143 0
-25 -154 0
-25 -173 0
-25 -280 0
-25 -298 0
-25 -311 0
-25 -323 0
-25 -335 0
-25 -357 0
-143 -154 0
-143 -173 0
-143 -280 0
-143 -298 0
-143 -311 0
-143 -323 0
-143 -335 0
-143 -357 0
-154 -173 0
-154 -280 0
-154 -298 0
-154 -311 0
-154 -323 0
-154 -335 0
-154 -357 0
-173 -280 0
-173 -298 0
-173 -311 0
-173 -323 0
-173 -335 0
-173 -357 0
-280 -298 0
-280 -311 0
-280 -323 0
-280 -335 0
-280 -357 0
-298 -311 0
-298 -323 0
-298 -335 0
-298 -357 0
-311 -323 0
-311 -335 0
-311 -357 0
-323 -335 0
-323 -357 0
-335 -357 0
26 132 143 163 184 269 380 391 402 414 425 0
-26 -132 0
-26 -143 0
-26 -163 0
-26 -184 0
-26 -269 0
-26 -380 0
-26 -391 0
-26 -402 0
-26 -414 0
-26 -425 0
-132 -143 0
-132 -163 0
-132 -184 0
-132 -269 0
-132 -380 0
-132 -391 0
-132 -402 0
-132 -414 0
-132 -425 0
-143 -163 0
-143 -184 0
-143 -269 0
-143 -380 0
-143 -391 0
-143 -402 0
-143 -414 0
-143 -425 0
-163 -184 0
-163 -269 0
-163 -380 0
-163 -391 0
-163 -402 0
-163 -414 0
-163 -425 0
-184 -269 0
-184 -380 0
-184 -391 0
-184 -402 0
-184 -414 0
-184 -425 0
-269 -380 0
-269 -391 0
-269 -402 0
-269 -414 0
-269 -425 0
-380 -391 0
-380 -402 0
-380 -414 0
-380 -425 0
-391 -402 0
-391 -414 0
-391 -425 0
-402 -414 0
-402 -425 0
-414 -425 0
121 132 174 196 280 321 360 428 436 444 447 0
-121 -132 0
-121 -174 0
-121 -196 0
-121 -280 0
-121 -321 0
-121 -360 0
-121 -428 0
-121 -436 0
-121 -444 0
-121 -447 0
-132 -174 0
-132 -196 0
-132 -280 0
-132 -321 0
-132 -360 0
-132 -428 0
-132 -436 0
-132 -444 0
-132 -447 0
-174 -196 0
-174 -280 0
-174 -321 0
-174 -360 0
-174 -428 0
-174 -436 0
-174 -444 0
-174 -447 0
-196 -280 0
-196 -321 0
-196 -360 0
-196 -428 0
-196 -436 0
-196 -444 0
-196 -447 0
-280 -321 0
-280 -360 0
-280 -428 0
-280 -436 0
-280 -444 0
-280 -447 0
-321 -360 0
-321 -428 0
-321 -436 0
-321 -444 0
-321 -447 0
-360 -428 0
-360 -436 0
-360 -444 0
-360 -447 0
-428 -436 0
-428 -444 0
-428 -447 0
-436 -444 0
-436 -447 0
-444 -447 0
47 58 121 185 209 249 269 332 418 451 455 0
-47 -58 0
-47 -121 0
-47 -185 0
-47 -209 0
-47 -249 0
-47 -269 0
-47 -332 0
-47 -418 0
-47 -451 0
-47 -455 0
-58 -121 0
-58 -185 0
-58 -209 0
-58 -249 0
-58 -269 0
-58 -332 0
-58 -418 0
-58 -451 0
-58 -455 0
-121 -185 0
-121 -209 0
-121 -249 0
-121 -269 0
-121 -332 0
-121 -418 0
-121 -451 0
-121 -455 0
-185 -209 0
-185 -249 0
-185 -269 0
-185 -332 0
-185 -418 0
-185 -451 0
-185 -455 0
-209 -249 0
-209 -269 0
-209 -332 0
-209 -418 0
-209 -451 0
-209 -455 0
-249 -269 0
-249 -332 0
-249 -418 0
-249 -451 0
-249 -455 0
-269 -332 0
-269 -418 0
-269 -451 0
-269 -455 0
-332 -418 0
-332 -451 0
-332 -455 0
-418 -451 0
-418 -455 0
-451 -455 0
70 82 89 231 249 311 329 354 360 380 398 0
-70 -82 0
-70 -89 0
-70 -231 0
-70 -249 0
-70 -311 0
-70 -329 0
-70 -354 0
-70 -360 0
-70 -380 0
-70 -398 0
-82 -89 0
-82 -231 0
-82 -249 0
-82 -311 0
-82 -329 0
-82 -354 0
-82 -360 0
-82 -380 0
-82 -398 0
-89 -231 0
-89 -249 0
-89 -311 0
-89 -329 0
-89 -354 0
-89 -360 0
-89 -380 0
-89 -398 0
-231 -249 0
-231 -311 0
-231 -329 0
-231 -354 0
-231 -360 0
-231 -380 0
-231 -398 0
-249 -311 0
-249 -329 0
-249 -354 0
-249 -360 0
-249 -380 0
-249 -398 0
-311 -329 0
-311 -354 0
-311 -360 0
-311 -380 0
-311 -398 0
-329 -354 0
-329 -360 0
-329 -380 0
-329 -398 0
-354 -360 0
-354 -380 0
-354 -398 0
-360 -380 0
-360 -398 0
-380 -398 0
77 89 94 216 221 242 317 323 366 391 428 0
-77 -89 0
-77 -94 0
-77 -216 0
-77 -221 0
-77 -242 0
-77 -317 0
-77 -323 0
-77 -366 0
-77 -391 0
-77 -428 0
-89 -94 0
-89 -216 0
-89 -221 0
-89 -242 0
-89 -317 0
-89 -323 0
-89 -366 0
-89 -391 0
-89 -428 0
-94 -216 0
-94 -221 0
-94 -242 0
-94 -317 0
-94 -323 0
-94 -366 0
-94 -391 0
-94 -428 0
-216 -221 0
-216 -242 0
-216 -317 0
-216 -323 0
-216 -366 0
-216 -391 0
-216 -428 0
-221 -242 0
-221 -317 0
-221 -323 0
-221 -366 0
-221 -391 0
-221 -428 0
-242 -317 0
-242 -323 0
-242 -366 0
-242 -391 0
-242 -428 0
-317 -323 0
-317 -366 0
-317 -391 0
-317 -428 0
-323 -366 0
-323 -391 0
-323 -428 0
-366 -391 0
-366 -428 0
-391 -428 0
67 77 95 105 232 254 335 377 402 418 436 0
-67 -77 0
-67 -95 0
-67 -105 0
-67 -232 0
-67 -254 0
-67 -335 0
-67 -377 0
-67 -402 0
-67 -418 0
-67 -436 0
-77 -95 0
-77 -105 0
-77 -232 0
-77 -254 0
-77 -335 0
-77 -377 0
-77 -402 0
-77 -418 0
-77 -436 0
-95 -105 0
-95 -232 0
-95 -254 0
-95 -335 0
-95 -377 0
-95 -402 0
-95 -418 0
-95 -436 0
-105 -232 0
-105 -254 0
-105 -335 0
-105 -377 0
-105 -402 0
-105 -418 0
-105 -436 0
-232 -254 0
-232 -335 0
-232 -377 0
-232 -402 0
-232 -418 0
-232 -436 0
-254 -335 0
-254 -377 0
-254 -402 0
-254 -418 0
-254 -436 0
-335 -377 0
-335 -402 0
-335 -418 0
-335 -436 0
-377 -402 0
-377 -418 0
-377 -436 0
-402 -418 0
-402 -436 0
-418 -436 0
67 106 116 216 244 265 295 329 414 447 451 0
-67 -106 0
-67 -116 0
-67 -216 0
-67 -244 0
-67 -265 0
-67 -295 0
-67 -329 0
-67 -414 0
-67 -447 0
-67 -451 0
-106 -116 0
-106 -216 0
-106 -244 0
-106 -265 0
-106 -295 0
-106 -329 0
-106 -414 0
-106 -447 0
-106 -451 0
-116 -216 0
-116 -244 0
-116 -265 0
-116 -295 0
-116 -329 0
-116 -414 0
-116 -447 0
-116 -451 0
-216 -244 0
-216 -265 0
-216 -295 0
-216 -329 0
-216 -414 0
-216 -447 0
-216 -451 0
-244 -265 0
-244 -295 0
-244 -329 0
-244 -414 0
-244 -447 0
-244 -451 0
-265 -295 0
-265 -329 0
-265 -414 0
-265 -447 0
-265 -451 0
-295 -329 0
-295 -414 0
-295 -447 0
-295 -451 0
-329 -414 0
-329 -447 0
-329 -451 0
-414 -447 0
-414 -451 0
-447 -451 0
117 129 181 256 276 317 357 398 425 444 455 0
-117 -129 0
-117 -181 0
-117 -256 0
-117 -276 0
-117 -317 0
-117 -357 0
-117 -398 0
-117 -425 0
-117 -444 0
-117 -455 0
-129 -181 0
-129 -256 0
-129 -276 0
-129 -317 0
-129 -357 0
-129 -398 0
-129 -425 0
-129 -444 0
-129 -455 0
-181 -256 0
-181 -276 0
-181 -317 0
-181 -357 0
-181 -398 0
-181 -425 0
-181 -444 0
-181 -455 0
-256 -276 0
-256 -317 0
-256 -357 0
-256 -398 0
-256 -425 0
-256 -444 0
-256 -455 0
-276 -317 0
-276 -357 0
-276 -398 0
-276 -425 0
-276 -444 0
-276 -455 0
-317 -357 0
-317 -398 0
-317 -425 0
-317 -444 0
-317 -455 0
-357 -398 0
-357 -425 0
-357 -444 0
-357 -455 0
-398 -425 0
-398 -444 0
-398 -455 0
-425 -444 0
-425 -455 0
-444 -455 0
23 140 151 181 278 295 298 321 332 354 366 377 0
-23 -140 0
-23 -151 0
-23 -181 0
-23 -278 0
-23 -295 0
-23 -298 0
-23 -321 0
-23 -332 0
-23 -354 0
-23 -366 0
-23 -377 0
-140 -151 0
-140 -181 0
-140 -278 0
-140 -295 0
-140 -298 0
-140 -321 0
-140 -332 0
-140 -354 0
-140 -366 0
-140 -377 0
-151 -181 0
-151 -278 0
-151 -295 0
-151 -298 0
-151 -321 0
-151 -332 0
-151 -354 0
-151 -366 0
-151 -377 0
-181 -278 0
-181 -295 0
-181 -298 0
-181 -321 0
-181 -332 0
-181 -354 0
-181 -366 0
-181 -377 0
-278 -295 0
-278 -298 0
-278 -321 0
-278 -332 0
-278 -354 0
-278 -366 0
-278 -377 0
-295 -298 0
-295 -321 0
-295 -332 0
-295 -354 0
-295 -366 0
-295 -377 0
-298 -321 0
-298 -332 0
-298 -354 0
-298 -366 0
-298 -377 0
-321 -332 0
-321 -354 0
-321 -366 0
-321 -377 0
-332 -354 0
-332 -366 0
-332 -377 0
-354 -366 0
-354 -377 0
-366 -377 0
3 4 16 37 83 96 107 118 130 141 153 0
-3 -4 0
-3 -16 0
-3 -37 0
-3 -83 0
-3 -96 0
-3 -107 0
-3 -118 0
-3 -130 0
-3 -141 0
-3 -153 0
-4 -16 0
-4 -37 0
-4 -83 0
-4 -96 0
-4 -107 0
-4 -118 0
-4 -130 0
-4 -141 0
-4 -153 0
-16 -37 0
-16 -83 0
-16 -96 0
-16 -107 0
-16 -118 0
-16 -130 0
-16 -141 0
-16 -153 0
-37 -83 0
-37 -96 0
-37 -107 0
-37 -118 0
-37 -130 0
-37 -141 0
-37 -153 0
-83 -96 0
-83 -107 0
-83 -118 0
-83 -130 0
-83 -141 0
-83 -153 0
-96 -107 0
-96 -118 0
-96 -130 0
-96 -141 0
-96 -153 0
-107 -118 0
-107 -130 0
-107 -141 0
-107 -153 0
-118 -130 0
-118 -141 0
-118 -153 0
-130 -141 0
-130 -153 0
-141 -153 0
4 15 155 162 186 198 222 245 257 267 279 0
-4 -15 0
-4 -155 0
-4 -162 0
-4 -186 0
-4 -198 0
-4 -222 0
-4 -245 0
-4 -257 0
-4 -267 0
-4 -279 0
-15 -155 0
-15 -162 0
-15 -186 0
-15 -198 0
-15 -222 0
-15 -245 0
-15 -257 0
-15 -267 0
-15 -279 0
-155 -162 0
-155 -186 0
-155 -198 0
-155 -222 0
-155 -245 0
-155 -257 0
-155 -267 0
-155 -279 0
-162 -186 0
-162 -198 0
-162 -222 0
-162 -245 0
-162 -257 0
-162 -267 0
-162 -279 0
-186 -198 0
-186 -222 0
-186 -245 0
-186 -257 0
-186 -267 0
-186 -279 0
-198 -222 0
-198 -245 0
-198 -257 0
-198 -267 0
-198 -279 0
-222 -245 0
-222 -257 0
-222 -267 0
-222 -279 0
-245 -257 0
-245 -267 0
-245 -279 0
-257 -267 0
-257 -279 0
-267 -279 0
16 26 155 281 287 288 300 324 336 345 358 0
-16 -26 0
-16 -155 0
-16 -281 0
-16 -287 0
-16 -288 0
-16 -300 0
-16 -324 0
-16 -336 0
-16 -345 0
-16 -358 0
-26 -155 0
-26 -281 0
-26 -287 0
-26 -288 0
-26 -300 0
-26 -324 0
-26 -336 0
-26 -345 0
-26 -358 0
-155 -281 0
-155 -287 0
-155 -288 0
-155 -300 0
-155 -324 0
-155 -336 0
-155 -345 0
-155 -358 0
-281 -287 0
-281 -288 0
-281 -300 0
-281 -324 0
-281 -336 0
-281 -345 0
-281 -358 0
-287 -288 0
-287 -300 0
-287 -324 0
-287 -336 0
-287 -345 0
-287 -358 0
-288 -300 0
-288 -324 0
-288 -336 0
-288 -345 0
-288 -358 0
-300 -324 0
-300 -336 0
-300 -345 0
-300 -358 0
-324 -336 0
-324 -345 0
-324 -358 0
-336 -345 0
-336 -358 0
-345 -358 0
37 47 122 197 259 281 310 400 429 437 445 448 0
-37 -47 0
-37 -122 0
-37 -197 0
-37 -259 0
-37 -281 0
-37 -310 0
-37 -400 0
-37 -429 0
-37 -437 0
-37 -445 0
-37 -448 0
-47 -122 0
-47 -197 0
-47 -259 0
-47 -281 0
-47 -310 0
-47 -400 0
-47 -429 0
-47 -437 0
-47 -445 0
-47 -448 0
-122 -197 0
-122 -259 0
-122 -281 0
-122 -310 0
-122 -400 0
-122 -429 0
-122 -437 0
-122 -445 0
-122 -448 0
-197 -259 0
-197 -281 0
-197 -310 0
-197 -400 0
-197 -429 0
-197 -437 0
-197 -445 0
-197 -448 0
-259 -281 0
-259 -310 0
-259 -400 0
-259 -429 0
-259 -437 0
-259 -445 0
-259 -448 0
-281 -310 0
-281 -400 0
-281 -429 0
-281 -437 0
-281 -445 0
-281 -448 0
-310 -400 0
-310 -429 0
-310 -437 0
-310 -445 0
-310 -448 0
-400 -429 0
-400 -437 0
-400 -445 0
-400 -448 0
-429 -437 0
-429 -445 0
-429 -448 0
-437 -445 0
-437 -448 0
-445 -448 0
110 122 186 210 288 322 348 411 419 452 456 0
-110 -122 0
-110 -186 0
-110 -210 0
-110 -288 0
-110 -322 0
-110 -348 0
-110 -411 0
-110 -419 0
-110 -452 0
-110 -456 0
-122 -186 0
-122 -210 0
-122 -288 0
-122 -322 0
-122 -348 0
-122 -411 0
-122 -419 0
-122 -452 0
-122 -456 0
-186 -210 0
-186 -288 0
-186 -322 0
-186 -348 0
-186 -411 0
-186 -419 0
-186 -452 0
-186 -456 0
-210 -288 0
-210 -322 0
-210 -348 0
-210 -411 0
-210 -419 0
-210 -452 0
-210 -456 0
-288 -322 0
-288 -348 0
-288 -411 0
-288 -419 0
-288 -452 0
-288 -456 0
-322 -348 0
-322 -411 0
-322 -419 0
-322 -452 0
-322 -456 0
-348 -411 0
-348 -419 0
-348 -452 0
-348 -456 0
-411 -419 0
-411 -452 0
-411 -456 0
-419 -452 0
-419 -456 0
-452 -456 0
70 110 198 220 259 300 333 339 407 423 441 0
-70 -110 0
-70 -198 0
-70 -220 0
-70 -259 0
-70 -300 0
-70 -333 0
-70 -339 0
-70 -407 0
-70 -423 0
-70 -441 0
-110 -198 0
-110 -220 0
-110 -259 0
-110 -300 0
-110 -333 0
-110 -339 0
-110 -407 0
-110 -423 0
-110 -441 0
-198 -220 0
-198 -259 0
-198 -300 0
-198 -333 0
-198 -339 0
-198 -407 0
-198 -423 0
-198 -441 0
-220 -259 0
-220 -300 0
-220 -333 0
-220 -339 0
-220 -407 0
-220 -423 0
-220 -441 0
-259 -300 0
-259 -333 0
-259 -339 0
-259 -407 0
-259 -423 0
-259 -441 0
-300 -333 0
-300 -339 0
-300 -407 0
-300 -423 0
-300 -441 0
-333 -339 0
-333 -407 0
-333 -423 0
-333 -441 0
-339 -407 0
-339 -423 0
-339 -441 0
-407 -423 0
-407 -441 0
-423 -441 0
78 83 95 222 243 318 324 348 355 387 429 0
-78 -83 0
-78 -95 0
-78 -222 0
-78 -243 0
-78 -318 0
-78 -324 0
-78 -348 0
-78 -355 0
-78 -387 0
-78 -429 0
-83 -95 0
-83 -222 0
-83 -243 0
-83 -318 0
-83 -324 0
-83 -348 0
-83 -355 0
-83 -387 0
-83 -429 0
-95 -222 0
-95 -243 0
-95 -318 0
-95 -324 0
-95 -348 0
-95 -355 0
-95 -387 0
-95 -429 0
-222 -243 0
-222 -318 0
-222 -324 0
-222 -348 0
-222 -355 0
-222 -387 0
-222 -429 0
-243 -318 0
-243 -324 0
-243 -348 0
-243 -355 0
-243 -387 0
-243 -429 0
-318 -324 0
-318 -348 0
-318 -355 0
-318 -387 0
-318 -429 0
-324 -348 0
-324 -355 0
-324 -387 0
-324 -429 0
-348 -355 0
-348 -387 0
-348 -429 0
-355 -387 0
-355 -429 0
-387 -429 0
78 96 106 206 255 307 336 339 367 419 437 0
-78 -96 0
-78 -106 0
-78 -206 0
-78 -255 0
-78 -307 0
-78 -336 0
-78 -339 0
-78 -367 0
-78 -419 0
-78 -437 0
-96 -106 0
-96 -206 0
-96 -255 0
-96 -307 0
-96 -336 0
-96 -339 0
-96 -367 0
-96 -419 0
-96 -437 0
-106 -206 0
-106 -255 0
-106 -307 0
-106 -336 0
-106 -339 0
-106 -367 0
-106 -419 0
-106 -437 0
-206 -255 0
-206 -307 0
-206 -336 0
-206 -339 0
-206 -367 0
-206 -419 0
-206 -437 0
-255 -307 0
-255 -336 0
-255 -339 0
-255 -367 0
-255 -419 0
-255 -437 0
-307 -336 0
-307 -339 0
-307 -367 0
-307 -419 0
-307 -437 0
-336 -339 0
-336 -367 0
-336 -419 0
-336 -437 0
-339 -367 0
-339 -419 0
-339 -437 0
-367 -419 0
-367 -437 0
-419 -437 0
56 107 117 193 245 266 296 345 407 448 452 0
-56 -107 0
-56 -117 0
-56 -193 0
-56 -245 0
-56 -266 0
-56 -296 0
-56 -345 0
-56 -407 0
-56 -448 0
-56 -452 0
-107 -117 0
-107 -193 0
-107 -245 0
-107 -266 0
-107 -296 0
-107 -345 0
-107 -407 0
-107 -448 0
-107 -452 0
-117 -193 0
-117 -245 0
-117 -266 0
-117 -296 0
-117 -345 0
-117 -407 0
-117 -448 0
-117 -452 0
-193 -245 0
-193 -266 0
-193 -296 0
-193 -345 0
-193 -407 0
-193 -448 0
-193 -452 0
-245 -266 0
-245 -296 0
-245 -345 0
-245 -407 0
-245 -448 0
-245 -452 0
-266 -296 0
-266 -345 0
-266 -407 0
-266 -448 0
-266 -452 0
-296 -345 0
-296 -407 0
-296 -448 0
-296 -452 0
-345 -407 0
-345 -448 0
-345 -452 0
-407 -448 0
-407 -452 0
-448 -452 0
56 118 182 206 257 277 318 358 441 445 456 0
-56 -118 0
-56 -182 0
-56 -206 0
-56 -257 0
-56 -277 0
-56 -318 0
-56 -358 0
-56 -441 0
-56 -445 0
-56 -456 0
-118 -182 0
-118 -206 0
-118 -257 0
-118 -277 0
-118 -318 0
-118 -358 0
-118 -441 0
-118 -445 0
-118 -456 0
-182 -206 0
-182 -257 0
-182 -277 0
-182 -318 0
-182 -358 0
-182 -441 0
-182 -445 0
-182 -456 0
-206 -257 0
-206 -277 0
-206 -318 0
-206 -358 0
-206 -441 0
-206 -445 0
-206 -456 0
-257 -277 0
-257 -318 0
-257 -358 0
-257 -441 0
-257 -445 0
-257 -456 0
-277 -318 0
-277 -358 0
-277 -441 0
-277 -445 0
-277 -456 0
-318 -358 0
-318 -441 0
-318 -445 0
-318 -456 0
-358 -441 0
-358 -445 0
-358 -456 0
-441 -445 0
-441 -456 0
-445 -456 0
35 130 140 172 193 267 307 387 400 411 423 0
-35 -130 0
-35 -140 0
-35 -172 0
-35 -193 0
-35 -267 0
-35 -307 0
-35 -387 0
-35 -400 0
-35 -411 0
-35 -423 0
-130 -140 0
-130 -172 0
-130 -193 0
-130 -267 0
-130 -307 0
-130 -387 0
-130 -400 0
-130 -411 0
-130 -423 0
-140 -172 0
-140 -193 0
-140 -267 0
-140 -307 0
-140 -387 0
-140 -400 0
-140 -411 0
-140 -423 0
-172 -193 0
-172 -267 0
-172 -307 0
-172 -387 0
-172 -400 0
-172 -411 0
-172 -423 0
-193 -267 0
-193 -307 0
-193 -387 0
-193 -400 0
-193 -411 0
-193 -423 0
-267 -307 0
-267 -387 0
-267 -400 0
-267 -411 0
-267 -423 0
-307 -387 0
-307 -400 0
-307 -411 0
-307 -423 0
-387 -400 0
-387 -411 0
-387 -423 0
-400 -411 0
-400 -423 0
-411 -423 0
4 5 17 59 71 97 108 119 131 142 154 0
-4 -5 0
-4 -17 0
-4 -59 0
-4 -71 0
-4 -97 0
-4 -108 0
-4 -119 0
-4 -131 0
-4 -142 0
-4 -154 0
-5 -17 0
-5 -59 0
-5 -71 0
-5 -97 0
-5 -108 0
-5 -119 0
-5 -131 0
-5 -142 0
-5 -154 0
-17 -59 0
-17 -71 0
-17 -97 0
-17 -108 0
-17 -119 0
-17 -131 0
-17 -142 0
-17 -154 0
-59 -71 0
-59 -97 0
-59 -108 0
-59 -119 0
-59 -131 0
-59 -142 0
-59 -154 0
-71 -97 0
-71 -108 0
-71 -119 0
-71 -131 0
-71 -142 0
-71 -154 0
-97 -108 0
-97 -119 0
-97 -131 0
-97 -142 0
-97 -154 0
-108 -119 0
-108 -131 0
-108 -142 0
-108 -154 0
-119 -131 0
-119 -142 0
-119 -154 0
-131 -142 0
-131 -154 0
-142 -154 0
5 16 156 163 164 199 211 223 233 246 268 0
-5 -16 0
-5 -156 0
-5 -163 0
-5 -164 0
-5 -199 0
-5 -211 0
-5 -223 0
-5 -233 0
-5 -246 0
-5 -268 0
-16 -156 0
-16 -163 0
-16 -164 0
-16 -199 0
-16 -211 0
-16 -223 0
-16 -233 0
-16 -246 0
-16 -268 0
-156 -163 0
-156 -164 0
-156 -199 0
-156 -211 0
-156 -223 0
-156 -233 0
-156 -246 0
-156 -268 0
-163 -164 0
-163 -199 0
-163 -211 0
-163 -223 0
-163 -233 0
-163 -246 0
-163 -268 0
-164 -199 0
-164 -211 0
-164 -223 0
-164 -233 0
-164 -246 0
-164 -268 0
-199 -211 0
-199 -223 0
-199 -233 0
-199 -246 0
-199 -268 0
-211 -223 0
-211 -233 0
-211 -246 0
-211 -268 0
-223 -233 0
-223 -246 0
-223 -268 0
-233 -246 0
-233 -268 0
-246 -268 0
17 144 156 174 301 312 325 337 346 359 369 0
-17 -144 0
-17 -156 0
-17 -174 0
-17 -301 0
-17 -312 0
-17 -325 0
-17 -337 0
-17 -346 0
-17 -359 0
-17 -369 0
-144 -156 0
-144 -174 0
-144 -301 0
-144 -312 0
-144 -325 0
-144 -337 0
-144 -346 0
-144 -359 0
-144 -369 0
-156 -174 0
-156 -301 0
-156 -312 0
-156 -325 0
-156 -337 0
-156 -346 0
-156 -359 0
-156 -369 0
-174 -301 0
-174 -312 0
-174 -325 0
-174 -337 0
-174 -346 0
-174 -359 0
-174 -369 0
-301 -312 0
-301 -325 0
-301 -337 0
-301 -346 0
-301 -359 0
-301 -369 0
-312 -325 0
-312 -337 0
-312 -346 0
-312 -359 0
-312 -369 0
-325 -337 0
-325 -346 0
-325 -359 0
-325 -369 0
-337 -346 0
-337 -359 0
-337 -369 0
-346 -359 0
-346 -369 0
-359 -369 0
37 144 164 185 299 378 381 392 403 415 426 0
-37 -144 0
-37 -164 0
-37 -185 0
-37 -299 0
-37 -378 0
-37 -381 0
-37 -392 0
-37 -403 0
-37 -415 0
-37 -426 0
-144 -164 0
-144 -185 0
-144 -299 0
-144 -378 0
-144 -381 0
-144 -392 0
-144 -403 0
-144 -415 0
-144 -426 0
-164 -185 0
-164 -299 0
-164 -378 0
-164 -381 0
-164 -392 0
-164 -403 0
-164 -415 0
-164 -426 0
-185 -299 0
-185 -378 0
-185 -381 0
-185 -392 0
-185 -403 0
-185 -415 0
-185 -426 0
-299 -378 0
-299 -381 0
-299 -392 0
-299 -403 0
-299 -415 0
-299 -426 0
-378 -381 0
-378 -392 0
-378 -403 0
-378 -415 0
-378 -426 0
-381 -392 0
-381 -403 0
-381 -415 0
-381 -426 0
-392 -403 0
-392 -415 0
-392 -426 0
-403 -415 0
-403 -426 0
-415 -426 0
59 101 199 221 237 301 334 340 408 412 442 0
-59 -101 0
-59 -199 0
-59 -221 0
-59 -237 0
-59 -301 0
-59 -334 0
-59 -340 0
-59 -408 0
-59 -412 0
-59 -442 0
-101 -199 0
-101 -221 0
-101 -237 0
-101 -301 0
-101 -334 0
-101 -340 0
-101 -408 0
-101 -412 0
-101 -442 0
-199 -221 0
-199 -237 0
-199 -301 0
-199 -334 0
-199 -340 0
-199 -408 0
-199 -412 0
-199 -442 0
-221 -237 0
-221 -301 0
-221 -334 0
-221 -340 0
-221 -408 0
-221 -412 0
-221 -442 0
-237 -301 0
-237 -334 0
-237 -340 0
-237 -408 0
-237 -412 0
-237 -442 0
-301 -334 0
-301 -340 0
-301 -408 0
-301 -412 0
-301 -442 0
-334 -340 0
-334 -408 0
-334 -412 0
-334 -442 0
-340 -408 0
-340 -412 0
-340 -442 0
-408 -412 0
-408 -442 0
-412 -442 0
71 83 90 101 211 232 312 330 344 381 399 424 0
-71 -83 0
-71 -90 0
-71 -101 0
-71 -211 0
-71 -232 0
-71 -312 0
-71 -330 0
-71 -344 0
-71 -381 0
-71 -399 0
-71 -424 0
-83 -90 0
-83 -101 0
-83 -211 0
-83 -232 0
-83 -312 0
-83 -330 0
-83 -344 0
-83 -381 0
-83 -399 0
-83 -424 0
-90 -101 0
-90 -211 0
-90 -232 0
-90 -312 0
-90 -330 0
-90 -344 0
-90 -381 0
-90 -399 0
-90 -424 0
-101 -211 0
-101 -232 0
-101 -312 0
-101 -330 0
-101 -344 0
-101 -381 0
-101 -399 0
-101 -424 0
-211 -232 0
-211 -312 0
-211 -330 0
-211 -344 0
-211 -381 0
-211 -399 0
-211 -424 0
-232 -312 0
-232 -330 0
-232 -344 0
-232 -381 0
-232 -399 0
-232 -424 0
-312 -330 0
-312 -344 0
-312 -381 0
-312 -399 0
-312 -424 0
-330 -344 0
-330 -381 0
-330 -399 0
-330 -424 0
-344 -381 0
-344 -399 0
-344 -424 0
-381 -399 0
-381 -424 0
-399 -424 0
90 96 217 223 237 244 319 325 356 388 392 0
-90 -96 0
-90 -217 0
-90 -223 0
-90 -237 0
-90 -244 0
-90 -319 0
-90 -325 0
-90 -356 0
-90 -388 0
-90 -392 0
-96 -217 0
-96 -223 0
-96 -237 0
-96 -244 0
-96 -319 0
-96 -325 0
-96 -356 0
-96 -388 0
-96 -392 0
-217 -223 0
-217 -237 0
-217 -244 0
-217 -319 0
-217 -325 0
-217 -356 0
-217 -388 0
-217 -392 0
-223 -237 0
-223 -244 0
-223 -319 0
-223 -325 0
-223 -356 0
-223 -388 0
-223 -392 0
-237 -244 0
-237 -319 0
-237 -325 0
-237 -356 0
-237 -388 0
-237 -392 0
-244 -319 0
-244 -325 0
-244 -356 0
-244 -388 0
-244 -392 0
-319 -325 0
-319 -356 0
-319 -388 0
-319 -392 0
-325 -356 0
-325 -388 0
-325 -392 0
-356 -388 0
-356 -392 0
-388 -392 0
68 97 107 207 233 256 308 337 340 368 403 0
-68 -97 0
-68 -107 0
-68 -207 0
-68 -233 0
-68 -256 0
-68 -308 0
-68 -337 0
-68 -340 0
-68 -368 0
-68 -403 0
-97 -107 0
-97 -207 0
-97 -233 0
-97 -256 0
-97 -308 0
-97 -337 0
-97 -340 0
-97 -368 0
-97 -403 0
-107 -207 0
-107 -233 0
-107 -256 0
-107 -308 0
-107 -337 0
-107 -340 0
-107 -368 0
-107 -403 0
-207 -233 0
-207 -256 0
-207 -308 0
-207 -337 0
-207 -340 0
-207 -368 0
-207 -403 0
-233 -256 0
-233 -308 0
-233 -337 0
-233 -340 0
-233 -368 0
-233 -403 0
-256 -308 0
-256 -337 0
-256 -340 0
-256 -368 0
-256 -403 0
-308 -337 0
-308 -340 0
-308 -368 0
-308 -403 0
-337 -340 0
-337 -368 0
-337 -403 0
-340 -368 0
-340 -403 0
-368 -403 0
68 108 118 194 217 246 297 330 346 408 415 0
-68 -108 0
-68 -118 0
-68 -194 0
-68 -217 0
-68 -246 0
-68 -297 0
-68 -330 0
-68 -346 0
-68 -408 0
-68 -415 0
-108 -118 0
-108 -194 0
-108 -217 0
-108 -246 0
-108 -297 0
-108 -330 0
-108 -346 0
-108 -408 0
-108 -415 0
-118 -194 0
-118 -217 0
-118 -246 0
-118 -297 0
-118 -330 0
-118 -346 0
-118 -408 0
-118 -415 0
-194 -217 0
-194 -246 0
-194 -297 0
-194 -330 0
-194 -346 0
-194 -408 0
-194 -415 0
-217 -246 0
-217 -297 0
-217 -330 0
-217 -346 0
-217 -408 0
-217 -415 0
-246 -297 0
-246 -330 0
-246 -346 0
-246 -408 0
-246 -415 0
-297 -330 0
-297 -346 0
-297 -408 0
-297 -415 0
-330 -346 0
-330 -408 0
-330 -415 0
-346 -408 0
-346 -415 0
-408 -415 0
46 119 130 183 207 278 319 359 399 426 442 0
-46 -119 0
-46 -130 0
-46 -183 0
-46 -207 0
-46 -278 0
-46 -319 0
-46 -359 0
-46 -399 0
-46 -426 0
-46 -442 0
-119 -130 0
-119 -183 0
-119 -207 0
-119 -278 0
-119 -319 0
-119 -359 0
-119 -399 0
-119 -426 0
-119 -442 0
-130 -183 0
-130 -207 0
-130 -278 0
-130 -319 0
-130 -359 0
-130 -399 0
-130 -426 0
-130 -442 0
-183 -207 0
-183 -278 0
-183 -319 0
-183 -359 0
-183 -399 0
-183 -426 0
-183 -442 0
-207 -278 0
-207 -319 0
-207 -359 0
-207 -399 0
-207 -426 0
-207 -442 0
-278 -319 0
-278 -359 0
-278 -399 0
-278 -426 0
-278 -442 0
-319 -359 0
-319 -399 0
-319 -426 0
-319 -442 0
-359 -399 0
-359 -426 0
-359 -442 0
-399 -426 0
-399 -442 0
-426 -442 0
5 6 27 38 48 60 84 98 120 143 155 0
-5 -6 0
-5 -27 0
-5 -38 0
-5 -48 0
-5 -60 0
-5 -84 0
-5 -98 0
-5 -120 0
-5 -143 0
-5 -155 0
-6 -27 0
-6 -38 0
-6 -48 0
-6 -60 0
-6 -84 0
-6 -98 0
-6 -120 0
-6 -143 0
-6 -155 0
-27 -38 0
-27 -48 0
-27 -60 0
-27 -84 0
-27 -98 0
-27 -120 0
-27 -143 0
-27 -155 0
-38 -48 0
-38 -60 0
-38 -84 0
-38 -98 0
-38 -120 0
-38 -143 0
-38 -155 0
-48 -60 0
-48 -84 0
-48 -98 0
-48 -120 0
-48 -143 0
-48 -155 0
-60 -84 0
-60 -98 0
-60 -120 0
-60 -143 0
-60 -155 0
-84 -98 0
-84 -120 0
-84 -143 0
-84 -155 0
-98 -120 0
-98 -143 0
-98 -155 0
-120 -143 0
-120 -155 0
-143 -155 0
6 17 165 175 187 200 224 234 247 258 280 0
-6 -17 0
-6 -165 0
-6 -175 0
-6 -187 0
-6 -200 0
-6 -224 0
-6 -234 0
-6 -247 0
-6 -258 0
-6 -280 0
-17 -165 0
-17 -175 0
-17 -187 0
-17 -200 0
-17 -224 0
-17 -234 0
-17 -247 0
-17 -258 0
-17 -280 0
-165 -175 0
-165 -187 0
-165 -200 0
-165 -224 0
-165 -234 0
-165 -247 0
-165 -258 0
-165 -280 0
-175 -187 0
-175 -200 0
-175 -224 0
-175 -234 0
-175 -247 0
-175 -258 0
-175 -280 0
-187 -200 0
-187 -224 0
-187 -234 0
-187 -247 0
-187 -258 0
-187 -280 0
-200 -224 0
-200 -234 0
-200 -247 0
-200 -258 0
-200 -280 0
-224 -234 0
-224 -247 0
-224 -258 0
-224 -280 0
-234 -247 0
-234 -258 0
-234 -280 0
-247 -258 0
-247 -280 0
-258 -280 0
27 133 165 186 270 370 379 393 404 416 427 0
-27 -133 0
-27 -165 0
-27 -186 0
-27 -270 0
-27 -370 0
-27 -379 0
-27 -393 0
-27 -404 0
-27 -416 0
-27 -427 0
-133 -165 0
-133 -186 0
-133 -270 0
-133 -370 0
-133 -379 0
-133 -393 0
-133 -404 0
-133 -416 0
-133 -427 0
-165 -186 0
-165 -270 0
-165 -370 0
-165 -379 0
-165 -393 0
-165 -404 0
-165 -416 0
-165 -427 0
-186 -270 0
-186 -370 0
-186 -379 0
-186 -393 0
-186 -404 0
-186 -416 0
-186 -427 0
-270 -370 0
-270 -379 0
-270 -393 0
-270 -404 0
-270 -416 0
-270 -427 0
-370 -379 0
-370 -393 0
-370 -404 0
-370 -416 0
-370 -427 0
-379 -393 0
-379 -404 0
-379 -416 0
-379 -427 0
-393 -404 0
-393 -416 0
-393 -427 0
-404 -416 0
-404 -427 0
-416 -427 0
38 123 133 175 198 311 390 430 435 438 449 0
-38 -123 0
-38 -133 0
-38 -175 0
-38 -198 0
-38 -311 0
-38 -390 0
-38 -430 0
-38 -435 0
-38 -438 0
-38 -449 0
-123 -133 0
-123 -175 0
-123 -198 0
-123 -311 0
-123 -390 0
-123 -430 0
-123 -435 0
-123 -438 0
-123 -449 0
-133 -175 0
-133 -198 0
-133 -311 0
-133 -390 0
-133 -430 0
-133 -435 0
-133 -438 0
-133 -449 0
-175 -198 0
-175 -311 0
-175 -390 0
-175 -430 0
-175 -435 0
-175 -438 0
-175 -449 0
-198 -311 0
-198 -390 0
-198 -430 0
-198 -435 0
-198 -438 0
-198 -449 0
-311 -390 0
-311 -430 0
-311 -435 0
-311 -438 0
-311 -449 0
-390 -430 0
-390 -435 0
-390 -438 0
-390 -449 0
-430 -435 0
-430 -438 0
-430 -449 0
-435 -438 0
-435 -449 0
-438 -449 0
48 59 111 123 187 270 323 349 401 420 446 453 0
-48 -59 0
-48 -111 0
-48 -123 0
-48 -187 0
-48 -270 0
-48 -323 0
-48 -349 0
-48 -401 0
-48 -420 0
-48 -446 0
-48 -453 0
-59 -111 0
-59 -123 0
-59 -187 0
-59 -270 0
-59 -323 0
-59 -349 0
-59 -401 0
-59 -420 0
-59 -446 0
-59 -453 0
-111 -123 0
-111 -187 0
-111 -270 0
-111 -323 0
-111 -349 0
-111 -401 0
-111 -420 0
-111 -446 0
-111 -453 0
-123 -187 0
-123 -270 0
-123 -323 0
-123 -349 0
-123 -401 0
-123 -420 0
-123 -446 0
-123 -453 0
-187 -270 0
-187 -323 0
-187 -349 0
-187 -401 0
-187 -420 0
-187 -446 0
-187 -453 0
-270 -323 0
-270 -349 0
-270 -401 0
-270 -420 0
-270 -446 0
-270 -453 0
-323 -349 0
-323 -401 0
-323 -420 0
-323 -446 0
-323 -453 0
-349 -401 0
-349 -420 0
-349 -446 0
-349 -453 0
-401 -420 0
-401 -446 0
-401 -453 0
-420 -446 0
-420 -453 0
-446 -453 0
60 71 111 200 222 335 341 370 409 413 443 0
-60 -71 0
-60 -111 0
-60 -200 0
-60 -222 0
-60 -335 0
-60 -341 0
-60 -370 0
-60 -409 0
-60 -413 0
-60 -443 0
-71 -111 0
-71 -200 0
-71 -222 0
-71 -335 0
-71 -341 0
-71 -370 0
-71 -409 0
-71 -413 0
-71 -443 0
-111 -200 0
-111 -222 0
-111 -335 0
-111 -341 0
-111 -370 0
-111 -409 0
-111 -413 0
-111 -443 0
-200 -222 0
-200 -335 0
-200 -341 0
-200 -370 0
-200 -409 0
-200 -413 0
-200 -443 0
-222 -335 0
-222 -341 0
-222 -370 0
-222 -409 0
-222 -413 0
-222 -443 0
-335 -341 0
-335 -370 0
-335 -409 0
-335 -413 0
-335 -443 0
-341 -370 0
-341 -409 0
-341 -413 0
-341 -443 0
-370 -409 0
-370 -413 0
-370 -443 0
-409 -413 0
-409 -443 0
-413 -443 0
79 84 97 218 224 245 320 349 357 389 393 430 0
-79 -84 0
-79 -97 0
-79 -218 0
-79 -224 0
-79 -245 0
-79 -320 0
-79 -349 0
-79 -357 0
-79 -389 0
-79 -393 0
-79 -430 0
-84 -97 0
-84 -218 0
-84 -224 0
-84 -245 0
-84 -320 0
-84 -349 0
-84 -357 0
-84 -389 0
-84 -393 0
-84 -430 0
-97 -218 0
-97 -224 0
-97 -245 0
-97 -320 0
-97 -349 0
-97 -357 0
-97 -389 0
-97 -393 0
-97 -430 0
-218 -224 0
-218 -245 0
-218 -320 0
-218 -349 0
-218 -357 0
-218 -389 0
-218 -393 0
-218 -430 0
-224 -245 0
-224 -320 0
-224 -349 0
-224 -357 0
-224 -389 0
-224 -393 0
-224 -430 0
-245 -320 0
-245 -349 0
-245 -357 0
-245 -389 0
-245 -393 0
-245 -430 0
-320 -349 0
-320 -357 0
-320 -389 0
-320 -393 0
-320 -430 0
-349 -357 0
-349 -389 0
-349 -393 0
-349 -430 0
-357 -389 0
-357 -393 0
-357 -430 0
-389 -393 0
-389 -430 0
-393 -430 0
79 98 108 208 234 257 309 341 404 420 438 0
-79 -98 0
-79 -108 0
-79 -208 0
-79 -234 0
-79 -257 0
-79 -309 0
-79 -341 0
-79 -404 0
-79 -420 0
-79 -438 0
-98 -108 0
-98 -208 0
-98 -234 0
-98 -257 0
-98 -309 0
-98 -341 0
-98 -404 0
-98 -420 0
-98 -438 0
-108 -208 0
-108 -234 0
-108 -257 0
-108 -309 0
-108 -341 0
-108 -404 0
-108 -420 0
-108 -438 0
-208 -234 0
-208 -257 0
-208 -309 0
-208 -341 0
-208 -404 0
-208 -420 0
-208 -438 0
-234 -257 0
-234 -309 0
-234 -341 0
-234 -404 0
-234 -420 0
-234 -438 0
-257 -309 0
-257 -341 0
-257 -404 0
-257 -420 0
-257 -438 0
-309 -341 0
-309 -404 0
-309 -420 0
-309 -438 0
-341 -404 0
-341 -420 0
-341 -438 0
-404 -420 0
-404 -438 0
-420 -438 0
57 119 195 218 247 267 298 409 416 449 453 0
-57 -119 0
-57 -195 0
-57 -218 0
-57 -247 0
-57 -267 0
-57 -298 0
-57 -409 0
-57 -416 0
-57 -449 0
-57 -453 0
-119 -195 0
-119 -218 0
-119 -247 0
-119 -267 0
-119 -298 0
-119 -409 0
-119 -416 0
-119 -449 0
-119 -453 0
-195 -218 0
-195 -247 0
-195 -267 0
-195 -298 0
-195 -409 0
-195 -416 0
-195 -449 0
-195 -453 0
-218 -247 0
-218 -267 0
-218 -298 0
-218 -409 0
-218 -416 0
-218 -449 0
-218 -453 0
-247 -267 0
-247 -298 0
-247 -409 0
-247 -416 0
-247 -449 0
-247 -453 0
-267 -298 0
-267 -409 0
-267 -416 0
-267 -449 0
-267 -453 0
-298 -409 0
-298 -416 0
-298 -449 0
-298 -453 0
-409 -416 0
-409 -449 0
-409 -453 0
-416 -449 0
-416 -453 0
-449 -453 0
6 7 18 28 39 49 61 72 85 109 132 156 0
-6 -7 0
-6 -18 0
-6 -28 0
-6 -39 0
-6 -49 0
-6 -61 0
-6 -72 0
-6 -85 0
-6 -109 0
-6 -132 0
-6 -156 0
-7 -18 0
-7 -28 0
-7 -39 0
-7 -49 0
-7 -61 0
-7 -72 0
-7 -85 0
-7 -109 0
-7 -132 0
-7 -156 0
-18 -28 0
-18 -39 0
-18 -49 0
-18 -61 0
-18 -72 0
-18 -85 0
-18 -109 0
-18 -132 0
-18 -156 0
-28 -39 0
-28 -49 0
-28 -61 0
-28 -72 0
-28 -85 0
-28 -109 0
-28 -132 0
-28 -156 0
-39 -49 0
-39 -61 0
-39 -72 0
-39 -85 0
-39 -109 0
-39 -132 0
-39 -156 0
-49 -61 0
-49 -72 0
-49 -85 0
-49 -109 0
-49 -132 0
-49 -156 0
-61 -72 0
-61 -85 0
-61 -109 0
-61 -132 0
-61 -156 0
-72 -85 0
-72 -109 0
-72 -132 0
-72 -156 0
-85 -109 0
-85 -132 0
-85 -156 0
-109 -132 0
-109 -156 0
-132 -156 0
7 157 164 166 188 201 212 225 248 269 281 0
-7 -157 0
-7 -164 0
-7 -166 0
-7 -188 0
-7 -201 0
-7 -212 0
-7 -225 0
-7 -248 0
-7 -269 0
-7 -281 0
-157 -164 0
-157 -166 0
-157 -188 0
-157 -201 0
-157 -212 0
-157 -225 0
-157 -248 0
-157 -269 0
-157 -281 0
-164 -166 0
-164 -188 0
-164 -201 0
-164 -212 0
-164 -225 0
-164 -248 0
-164 -269 0
-164 -281 0
-166 -188 0
-166 -201 0
-166 -212 0
-166 -225 0
-166 -248 0
-166 -269 0
-166 -281 0
-188 -201 0
-188 -212 0
-188 -225 0
-188 -248 0
-188 -269 0
-188 -281 0
-201 -212 0
-201 -225 0
-201 -248 0
-201 -269 0
-201 -281 0
-212 -225 0
-212 -248 0
-212 -269 0
-212 -281 0
-225 -248 0
-225 -269 0
-225 -281 0
-248 -269 0
-248 -281 0
-269 -281 0
18 27 145 157 282 288 289 302 313 326 347 0
-18 -27 0
-18 -145 0
-18 -157 0
-18 -282 0
-18 -288 0
-18 -289 0
-18 -302 0
-18 -313 0
-18 -326 0
-18 -347 0
-27 -145 0
-27 -157 0
-27 -282 0
-27 -288 0
-27 -289 0
-27 -302 0
-27 -313 0
-27 -326 0
-27 -347 0
-145 -157 0
-145 -282 0
-145 -288 0
-145 -289 0
-145 -302 0
-145 -313 0
-145 -326 0
-145 -347 0
-157 -282 0
-157 -288 0
-157 -289 0
-157 -302 0
-157 -313 0
-157 -326 0
-157 -347 0
-282 -288 0
-282 -289 0
-282 -302 0
-282 -313 0
-282 -326 0
-282 -347 0
-288 -289 0
-288 -302 0
-288 -313 0
-288 -326 0
-288 -347 0
-289 -302 0
-289 -313 0
-289 -326 0
-289 -347 0
-302 -313 0
-302 -326 0
-302 -347 0
-313 -326 0
-313 -347 0
-326 -347 0
28 38 134 145 166 300 371 380 382 394 417 0
-28 -38 0
-28 -134 0
-28 -145 0
-28 -166 0
-28 -300 0
-28 -371 0
-28 -380 0
-28 -382 0
-28 -394 0
-28 -417 0
-38 -134 0
-38 -145 0
-38 -166 0
-38 -300 0
-38 -371 0
-38 -380 0
-38 -382 0
-38 -394 0
-38 -417 0
-134 -145 0
-134 -166 0
-134 -300 0
-134 -371 0
-134 -380 0
-134 -382 0
-134 -394 0
-134 -417 0
-145 -166 0
-145 -300 0
-145 -371 0
-145 -380 0
-145 -382 0
-145 -394 0
-145 -417 0
-166 -300 0
-166 -371 0
-166 -380 0
-166 -382 0
-166 -394 0
-166 -417 0
-300 -371 0
-300 -380 0
-300 -382 0
-300 -394 0
-300 -417 0
-371 -380 0
-371 -382 0
-371 -394 0
-371 -417 0
-380 -382 0
-380 -394 0
-380 -417 0
-382 -394 0
-382 -417 0
-394 -417 0
39 48 124 134 199 260 282 361 391 431 450 0
-39 -48 0
-39 -124 0
-39 -134 0
-39 -199 0
-39 -260 0
-39 -282 0
-39 -361 0
-39 -391 0
-39 -431 0
-39 -450 0
-48 -124 0
-48 -134 0
-48 -199 0
-48 -260 0
-48 -282 0
-48 -361 0
-48 -391 0
-48 -431 0
-48 -450 0
-124 -134 0
-124 -199 0
-124 -260 0
-124 -282 0
-124 -361 0
-124 -391 0
-124 -431 0
-124 -450 0
-134 -199 0
-134 -260 0
-134 -282 0
-134 -361 0
-134 -391 0
-134 -431 0
-134 -450 0
-199 -260 0
-199 -282 0
-199 -361 0
-199 -391 0
-199 -431 0
-199 -450 0
-260 -282 0
-260 -361 0
-260 -391 0
-260 -431 0
-260 -450 0
-282 -361 0
-282 -391 0
-282 -431 0
-282 -450 0
-361 -391 0
-361 -431 0
-361 -450 0
-391 -431 0
-391 -450 0
-431 -450 0
49 60 112 124 188 211 289 324 350 402 454 0
-49 -60 0
-49 -112 0
-49 -124 0
-49 -188 0
-49 -211 0
-49 -289 0
-49 -324 0
-49 -350 0
-49 -402 0
-49 -454 0
-60 -112 0
-60 -124 0
-60 -188 0
-60 -211 0
-60 -289 0
-60 -324 0
-60 -350 0
-60 -402 0
-60 -454 0
-112 -124 0
-112 -188 0
-112 -211 0
-112 -289 0
-112 -324 0
-112 -350 0
-112 -402 0
-112 -454 0
-124 -188 0
-124 -211 0
-124 -289 0
-124 -324 0
-124 -350 0
-124 -402 0
-124 -454 0
-188 -211 0
-188 -289 0
-188 -324 0
-188 -350 0
-188 -402 0
-188 -454 0
-211 -289 0
-211 -324 0
-211 -350 0
-211 -402 0
-211 -454 0
-289 -324 0
-289 -350 0
-289 -402 0
-289 -454 0
-324 -350 0
-324 -402 0
-324 -454 0
-350 -402 0
-350 -454 0
-402 -454 0
61 112 201 223 238 260 302 336 371 410 414 0
-61 -112 0
-61 -201 0
-61 -223 0
-61 -238 0
-61 -260 0
-61 -302 0
-61 -336 0
-61 -371 0
-61 -410 0
-61 -414 0
-112 -201 0
-112 -223 0
-112 -238 0
-112 -260 0
-112 -302 0
-112 -336 0
-112 -371 0
-112 -410 0
-112 -414 0
-201 -223 0
-201 -238 0
-201 -260 0
-201 -302 0
-201 -336 0
-201 -371 0
-201 -410 0
-201 -414 0
-223 -238 0
-223 -260 0
-223 -302 0
-223 -336 0
-223 -371 0
-223 -410 0
-223 -414 0
-238 -260 0
-238 -302 0
-238 -336 0
-238 -371 0
-238 -410 0
-238 -414 0
-260 -302 0
-260 -336 0
-260 -371 0
-260 -410 0
-260 -414 0
-302 -336 0
-302 -371 0
-302 -410 0
-302 -414 0
-336 -371 0
-336 -410 0
-336 -414 0
-371 -410 0
-371 -414 0
-410 -414 0
72 84 91 212 233 313 331 345 361 382 425 0
-72 -84 0
-72 -91 0
-72 -212 0
-72 -233 0
-72 -313 0
-72 -331 0
-72 -345 0
-72 -361 0
-72 -382 0
-72 -425 0
-84 -91 0
-84 -212 0
-84 -233 0
-84 -313 0
-84 -331 0
-84 -345 0
-84 -361 0
-84 -382 0
-84 -425 0
-91 -212 0
-91 -233 0
-91 -313 0
-91 -331 0
-91 -345 0
-91 -361 0
-91 -382 0
-91 -425 0
-212 -233 0
-212 -313 0
-212 -331 0
-212 -345 0
-212 -361 0
-212 -382 0
-212 -425 0
-233 -313 0
-233 -331 0
-233 -345 0
-233 -361 0
-233 -382 0
-233 -425 0
-313 -331 0
-313 -345 0
-313 -361 0
-313 -382 0
-313 -425 0
-331 -345 0
-331 -361 0
-331 -382 0
-331 -425 0
-345 -361 0
-345 -382 0
-345 -425 0
-361 -382 0
-361 -425 0
-382 -425 0
85 91 98 219 225 238 246 326 350 358 394 431 0
-85 -91 0
-85 -98 0
-85 -219 0
-85 -225 0
-85 -238 0
-85 -246 0
-85 -326 0
-85 -350 0
-85 -358 0
-85 -394 0
-85 -431 0
-91 -98 0
-91 -219 0
-91 -225 0
-91 -238 0
-91 -246 0
-91 -326 0
-91 -350 0
-91 -358 0
-91 -394 0
-91 -431 0
-98 -219 0
-98 -225 0
-98 -238 0
-98 -246 0
-98 -326 0
-98 -350 0
-98 -358 0
-98 -394 0
-98 -431 0
-219 -225 0
-219 -238 0
-219 -246 0
-219 -326 0
-219 -350 0
-219 -358 0
-219 -394 0
-219 -431 0
-225 -238 0
-225 -246 0
-225 -326 0
-225 -350 0
-225 -358 0
-225 -394 0
-225 -431 0
-238 -246 0
-238 -326 0
-238 -350 0
-238 -358 0
-238 -394 0
-238 -431 0
-246 -326 0
-246 -350 0
-246 -358 0
-246 -394 0
-246 -431 0
-326 -350 0
-326 -358 0
-326 -394 0
-326 -431 0
-350 -358 0
-350 -394 0
-350 -431 0
-358 -394 0
-358 -431 0
-394 -431 0
7 8 19 40 50 62 73 86 99 121 144 0
-7 -8 0
-7 -19 0
-7 -40 0
-7 -50 0
-7 -62 0
-7 -73 0
-7 -86 0
-7 -99 0
-7 -121 0
-7 -144 0
-8 -19 0
-8 -40 0
-8 -50 0
-8 -62 0
-8 -73 0
-8 -86 0
-8 -99 0
-8 -121 0
-8 -144 0
-19 -40 0
-19 -50 0
-19 -62 0
-19 -73 0
-19 -86 0
-19 -99 0
-19 -121 0
-19 -144 0
-40 -50 0
-40 -62 0
-40 -73 0
-40 -86 0
-40 -99 0
-40 -121 0
-40 -144 0
-50 -62 0
-50 -73 0
-50 -86 0
-50 -99 0
-50 -121 0
-50 -144 0
-62 -73 0
-62 -86 0
-62 -99 0
-62 -121 0
-62 -144 0
-73 -86 0
-73 -99 0
-73 -121 0
-73 -144 0
-86 -99 0
-86 -121 0
-86 -144 0
-99 -121 0
-99 -144 0
-121 -144 0
8 18 158 165 167 176 189 202 213 226 235 0
-8 -18 0
-8 -158 0
-8 -165 0
-8 -167 0
-8 -176 0
-8 -189 0
-8 -202 0
-8 -213 0
-8 -226 0
-8 -235 0
-18 -158 0
-18 -165 0
-18 -167 0
-18 -176 0
-18 -189 0
-18 -202 0
-18 -213 0
-18 -226 0
-18 -235 0
-158 -165 0
-158 -167 0
-158 -176 0
-158 -189 0
-158 -202 0
-158 -213 0
-158 -226 0
-158 -235 0
-165 -167 0
-165 -176 0
-165 -189 0
-165 -202 0
-165 -213 0
-165 -226 0
-165 -235 0
-167 -176 0
-167 -189 0
-167 -202 0
-167 -213 0
-167 -226 0
-167 -235 0
-176 -189 0
-176 -202 0
-176 -213 0
-176 -226 0
-176 -235 0
-189 -202 0
-189 -213 0
-189 -226 0
-189 -235 0
-202 -213 0
-202 -226 0
-202 -235 0
-213 -226 0
-213 -235 0
-226 -235 0
19 28 146 158 175 290 303 314 327 338 360 0
-19 -28 0
-19 -146 0
-19 -158 0
-19 -175 0
-19 -290 0
-19 -303 0
-19 -314 0
-19 -327 0
-19 -338 0
-19 -360 0
-28 -146 0
-28 -158 0
-28 -175 0
-28 -290 0
-28 -303 0
-28 -314 0
-28 -327 0
-28 -338 0
-28 -360 0
-146 -158 0
-146 -175 0
-146 -290 0
-146 -303 0
-146 -314 0
-146 -327 0
-146 -338 0
-146 -360 0
-158 -175 0
-158 -290 0
-158 -303 0
-158 -314 0
-158 -327 0
-158 -338 0
-158 -360 0
-175 -290 0
-175 -303 0
-175 -314 0
-175 -327 0
-175 -338 0
-175 -360 0
-290 -303 0
-290 -314 0
-290 -327 0
-290 -338 0
-290 -360 0
-303 -314 0
-303 -327 0
-303 -338 0
-303 -360 0
-314 -327 0
-314 -338 0
-314 -360 0
-327 -338 0
-327 -360 0
-338 -360 0
39 135 146 167 187 271 301 372 383 395 405 428 0
-39 -135 0
-39 -146 0
-39 -167 0
-39 -187 0
-39 -271 0
-39 -301 0
-39 -372 0
-39 -383 0
-39 -395 0
-39 -405 0
-39 -428 0
-135 -146 0
-135 -167 0
-135 -187 0
-135 -271 0
-135 -301 0
-135 -372 0
-135 -383 0
-135 -395 0
-135 -405 0
-135 -428 0
-146 -167 0
-146 -187 0
-146 -271 0
-146 -301 0
-146 -372 0
-146 -383 0
-146 -395 0
-146 -405 0
-146 -428 0
-167 -187 0
-167 -271 0
-167 -301 0
-167 -372 0
-167 -383 0
-167 -395 0
-167 -405 0
-167 -428 0
-187 -271 0
-187 -301 0
-187 -372 0
-187 -383 0
-187 -395 0
-187 -405 0
-187 -428 0
-271 -301 0
-271 -372 0
-271 -383 0
-271 -395 0
-271 -405 0
-271 -428 0
-301 -372 0
-301 -383 0
-301 -395 0
-301 -405 0
-301 -428 0
-372 -383 0
-372 -395 0
-372 -405 0
-372 -428 0
-383 -395 0
-383 -405 0
-383 -428 0
-395 -405 0
-395 -428 0
-405 -428 0
40 49 125 135 176 200 312 362 432 436 439 0
-40 -49 0
-40 -125 0
-40 -135 0
-40 -176 0
-40 -200 0
-40 -312 0
-40 -362 0
-40 -432 0
-40 -436 0
-40 -439 0
-49 -125 0
-49 -135 0
-49 -176 0
-49 -200 0
-49 -312 0
-49 -362 0
-49 -432 0
-49 -436 0
-49 -439 0
-125 -135 0
-125 -176 0
-125 -200 0
-125 -312 0
-125 -362 0
-125 -432 0
-125 -436 0
-125 -439 0
-135 -176 0
-135 -200 0
-135 -312 0
-135 -362 0
-135 -432 0
-135 -436 0
-135 -439 0
-176 -200 0
-176 -312 0
-176 -362 0
-176 -432 0
-176 -436 0
-176 -439 0
-200 -312 0
-200 -362 0
-200 -432 0
-200 -436 0
-200 -439 0
-312 -362 0
-312 -432 0
-312 -436 0
-312 -439 0
-362 -432 0
-362 -436 0
-362 -439 0
-432 -436 0
-432 -439 0
-436 -439 0
50 61 125 189 250 271 290 325 351 421 447 0
-50 -61 0
-50 -125 0
-50 -189 0
-50 -250 0
-50 -271 0
-50 -290 0
-50 -325 0
-50 -351 0
-50 -421 0
-50 -447 0
-61 -125 0
-61 -189 0
-61 -250 0
-61 -271 0
-61 -290 0
-61 -325 0
-61 -351 0
-61 -421 0
-61 -447 0
-125 -189 0
-125 -250 0
-125 -271 0
-125 -290 0
-125 -325 0
-125 -351 0
-125 -421 0
-125 -447 0
-189 -250 0
-189 -271 0
-189 -290 0
-189 -325 0
-189 -351 0
-189 -421 0
-189 -447 0
-250 -271 0
-250 -290 0
-250 -325 0
-250 -351 0
-250 -421 0
-250 -447 0
-271 -290 0
-271 -325 0
-271 -351 0
-271 -421 0
-271 -447 0
-290 -325 0
-290 -351 0
-290 -421 0
-290 -447 0
-325 -351 0
-325 -421 0
-325 -447 0
-351 -421 0
-351 -447 0
-421 -447 0
62 72 102 202 224 239 303 337 342 372 444 0
-62 -72 0
-62 -102 0
-62 -202 0
-62 -224 0
-62 -239 0
-62 -303 0
-62 -337 0
-62 -342 0
-62 -372 0
-62 -444 0
-72 -102 0
-72 -202 0
-72 -224 0
-72 -239 0
-72 -303 0
-72 -337 0
-72 -342 0
-72 -372 0
-72 -444 0
-102 -202 0
-102 -224 0
-102 -239 0
-102 -303 0
-102 -337 0
-102 -342 0
-102 -372 0
-102 -444 0
-202 -224 0
-202 -239 0
-202 -303 0
-202 -337 0
-202 -342 0
-202 -372 0
-202 -444 0
-224 -239 0
-224 -303 0
-224 -337 0
-224 -342 0
-224 -372 0
-224 -444 0
-239 -303 0
-239 -337 0
-239 -342 0
-239 -372 0
-239 -444 0
-303 -337 0
-303 -342 0
-303 -372 0
-303 -444 0
-337 -342 0
-337 -372 0
-337 -444 0
-342 -372 0
-342 -444 0
-372 -444 0
73 85 102 213 229 234 250 314 346 362 383 0
-73 -85 0
-73 -102 0
-73 -213 0
-73 -229 0
-73 -234 0
-73 -250 0
-73 -314 0
-73 -346 0
-73 -362 0
-73 -383 0
-85 -102 0
-85 -213 0
-85 -229 0
-85 -234 0
-85 -250 0
-85 -314 0
-85 -346 0
-85 -362 0
-85 -383 0
-102 -213 0
-102 -229 0
-102 -234 0
-102 -250 0
-102 -314 0
-102 -346 0
-102 -362 0
-102 -383 0
-213 -229 0
-213 -234 0
-213 -250 0
-213 -314 0
-213 -346 0
-213 -362 0
-213 -383 0
-229 -234 0
-229 -250 0
-229 -314 0
-229 -346 0
-229 -362 0
-229 -383 0
-234 -250 0
-234 -314 0
-234 -346 0
-234 -362 0
-234 -383 0
-250 -314 0
-250 -346 0
-250 -362 0
-250 -383 0
-314 -346 0
-314 -362 0
-314 -383 0
-346 -362 0
-346 -383 0
-362 -383 0
80 86 226 239 247 321 327 351 359 395 432 0
-80 -86 0
-80 -226 0
-80 -239 0
-80 -247 0
-80 -321 0
-80 -327 0
-80 -351 0
-80 -359 0
-80 -395 0
-80 -432 0
-86 -226 0
-86 -239 0
-86 -247 0
-86 -321 0
-86 -327 0
-86 -351 0
-86 -359 0
-86 -395 0
-86 -432 0
-226 -239 0
-226 -247 0
-226 -321 0
-226 -327 0
-226 -351 0
-226 -359 0
-226 -395 0
-226 -432 0
-239 -247 0
-239 -321 0
-239 -327 0
-239 -351 0
-239 -359 0
-239 -395 0
-239 -432 0
-247 -321 0
-247 -327 0
-247 -351 0
-247 -359 0
-247 -395 0
-247 -432 0
-321 -327 0
-321 -351 0
-321 -359 0
-321 -395 0
-321 -432 0
-327 -351 0
-327 -359 0
-327 -395 0
-327 -432 0
-351 -359 0
-351 -395 0
-351 -432 0
-359 -395 0
-359 -432 0
-395 -432 0
8 9 29 41 51 63 74 87 100 122 157 0
-8 -9 0
-8 -29 0
-8 -41 0
-8 -51 0
-8 -63 0
-8 -74 0
-8 -87 0
-8 -100 0
-8 -122 0
-8 -157 0
-9 -29 0
-9 -41 0
-9 -51 0
-9 -63 0
-9 -74 0
-9 -87 0
-9 -100 0
-9 -122 0
-9 -157 0
-29 -41 0
-29 -51 0
-29 -63 0
-29 -74 0
-29 -87 0
-29 -100 0
-29 -122 0
-29 -157 0
-41 -51 0
-41 -63 0
-41 -74 0
-41 -87 0
-41 -100 0
-41 -122 0
-41 -157 0
-51 -63 0
-51 -74 0
-51 -87 0
-51 -100 0
-51 -122 0
-51 -157 0
-63 -74 0
-63 -87 0
-63 -100 0
-63 -122 0
-63 -157 0
-74 -87 0
-74 -100 0
-74 -122 0
-74 -157 0
-87 -100 0
-87 -122 0
-87 -157 0
-100 -122 0
-100 -157 0
-122 -157 0
9 19 166 177 190 203 214 227 236 249 259 0
-9 -19 0
-9 -166 0
-9 -177 0
-9 -190 0
-9 -203 0
-9 -214 0
-9 -227 0
-9 -236 0
-9 -249 0
-9 -259 0
-19 -166 0
-19 -177 0
-19 -190 0
-19 -203 0
-19 -214 0
-19 -227 0
-19 -236 0
-19 -249 0
-19 -259 0
-166 -177 0
-166 -190 0
-166 -203 0
-166 -214 0
-166 -227 0
-166 -236 0
-166 -249 0
-166 -259 0
-177 -190 0
-177 -203 0
-177 -214 0
-177 -227 0
-177 -236 0
-177 -249 0
-177 -259 0
-190 -203 0
-190 -214 0
-190 -227 0
-190 -236 0
-190 -249 0
-190 -259 0
-203 -214 0
-203 -227 0
-203 -236 0
-203 -249 0
-203 -259 0
-214 -227 0
-214 -236 0
-214 -249 0
-214 -259 0
-227 -236 0
-227 -249 0
-227 -259 0
-236 -249 0
-236 -259 0
-249 -259 0
29 40 136 188 373 381 384 396 406 418 429 0
-29 -40 0
-29 -136 0
-29 -188 0
-29 -373 0
-29 -381 0
-29 -384 0
-29 -396 0
-29 -406 0
-29 -418 0
-29 -429 0
-40 -136 0
-40 -188 0
-40 -373 0
-40 -381 0
-40 -384 0
-40 -396 0
-40 -406 0
-40 -418 0
-40 -429 0
-136 -188 0
-136 -373 0
-136 -381 0
-136 -384 0
-136 -396 0
-136 -406 0
-136 -418 0
-136 -429 0
-188 -373 0
-188 -381 0
-188 -384 0
-188 -396 0
-188 -406 0
-188 -418 0
-188 -429 0
-373 -381 0
-373 -384 0
-373 -396 0
-373 -406 0
-373 -418 0
-373 -429 0
-381 -384 0
-381 -396 0
-381 -406 0
-381 -418 0
-381 -429 0
-384 -396 0
-384 -406 0
-384 -418 0
-384 -429 0
-396 -406 0
-396 -418 0
-396 -429 0
-406 -418 0
-406 -429 0
-418 -429 0
41 50 136 177 201 261 363 392 433 437 440 451 0
-41 -50 0
-41 -136 0
-41 -177 0
-41 -201 0
-41 -261 0
-41 -363 0
-41 -392 0
-41 -433 0
-41 -437 0
-41 -440 0
-41 -451 0
-50 -136 0
-50 -177 0
-50 -201 0
-50 -261 0
-50 -363 0
-50 -392 0
-50 -433 0
-50 -437 0
-50 -440 0
-50 -451 0
-136 -177 0
-136 -201 0
-136 -261 0
-136 -363 0
-136 -392 0
-136 -433 0
-136 -437 0
-136 -440 0
-136 -451 0
-177 -201 0
-177 -261 0
-177 -363 0
-177 -392 0
-177 -433 0
-177 -437 0
-177 -440 0
-177 -451 0
-201 -261 0
-201 -363 0
-201 -392 0
-201 -433 0
-201 -437 0
-201 -440 0
-201 -451 0
-261 -363 0
-261 -392 0
-261 -433 0
-261 -437 0
-261 -440 0
-261 -451 0
-363 -392 0
-363 -433 0
-363 -437 0
-363 -440 0
-363 -451 0
-392 -433 0
-392 -437 0
-392 -440 0
-392 -451 0
-433 -437 0
-433 -440 0
-433 -451 0
-437 -440 0
-437 -451 0
-440 -451 0
51 62 113 190 212 251 352 403 422 448 455 0
-51 -62 0
-51 -113 0
-51 -190 0
-51 -212 0
-51 -251 0
-51 -352 0
-51 -403 0
-51 -422 0
-51 -448 0
-51 -455 0
-62 -113 0
-62 -190 0
-62 -212 0
-62 -251 0
-62 -352 0
-62 -403 0
-62 -422 0
-62 -448 0
-62 -455 0
-113 -190 0
-113 -212 0
-113 -251 0
-113 -352 0
-113 -403 0
-113 -422 0
-113 -448 0
-113 -455 0
-190 -212 0
-190 -251 0
-190 -352 0
-190 -403 0
-190 -422 0
-190 -448 0
-190 -455 0
-212 -251 0
-212 -352 0
-212 -403 0
-212 -422 0
-212 -448 0
-212 -455 0
-251 -352 0
-251 -403 0
-251 -422 0
-251 -448 0
-251 -455 0
-352 -403 0
-352 -422 0
-352 -448 0
-352 -455 0
-403 -422 0
-403 -448 0
-403 -455 0
-422 -448 0
-422 -455 0
-448 -455 0
63 73 113 203 225 240 261 343 373 415 445 0
-63 -73 0
-63 -113 0
-63 -203 0
-63 -225 0
-63 -240 0
-63 -261 0
-63 -343 0
-63 -373 0
-63 -415 0
-63 -445 0
-73 -113 0
-73 -203 0
-73 -225 0
-73 -240 0
-73 -261 0
-73 -343 0
-73 -373 0
-73 -415 0
-73 -445 0
-113 -203 0
-113 -225 0
-113 -240 0
-113 -261 0
-113 -343 0
-113 -373 0
-113 -415 0
-113 -445 0
-203 -225 0
-203 -240 0
-203 -261 0
-203 -343 0
-203 -373 0
-203 -415 0
-203 -445 0
-225 -240 0
-225 -261 0
-225 -343 0
-225 -373 0
-225 -415 0
-225 -445 0
-240 -261 0
-240 -343 0
-240 -373 0
-240 -415 0
-240 -445 0
-261 -343 0
-261 -373 0
-261 -415 0
-261 -445 0
-343 -373 0
-343 -415 0
-343 -445 0
-373 -415 0
-373 -445 0
-415 -445 0
74 86 92 214 230 251 332 363 384 400 426 0
-74 -86 0
-74 -92 0
-74 -214 0
-74 -230 0
-74 -251 0
-74 -332 0
-74 -363 0
-74 -384 0
-74 -400 0
-74 -426 0
-86 -92 0
-86 -214 0
-86 -230 0
-86 -251 0
-86 -332 0
-86 -363 0
-86 -384 0
-86 -400 0
-86 -426 0
-92 -214 0
-92 -230 0
-92 -251 0
-92 -332 0
-92 -363 0
-92 -384 0
-92 -400 0
-92 -426 0
-214 -230 0
-214 -251 0
-214 -332 0
-214 -363 0
-214 -384 0
-214 -400 0
-214 -426 0
-230 -251 0
-230 -332 0
-230 -363 0
-230 -384 0
-230 -400 0
-230 -426 0
-251 -332 0
-251 -363 0
-251 -384 0
-251 -400 0
-251 -426 0
-332 -363 0
-332 -384 0
-332 -400 0
-332 -426 0
-363 -384 0
-363 -400 0
-363 -426 0
-384 -400 0
-384 -426 0
-400 -426 0
9 10 30 42 52 64 75 88 110 133 145 158 0
-9 -10 0
-9 -30 0
-9 -42 0
-9 -52 0
-9 -64 0
-9 -75 0
-9 -88 0
-9 -110 0
-9 -133 0
-9 -145 0
-9 -158 0
-10 -30 0
-10 -42 0
-10 -52 0
-10 -64 0
-10 -75 0
-10 -88 0
-10 -110 0
-10 -133 0
-10 -145 0
-10 -158 0
-30 -42 0
-30 -52 0
-30 -64 0
-30 -75 0
-30 -88 0
-30 -110 0
-30 -133 0
-30 -145 0
-30 -158 0
-42 -52 0
-42 -64 0
-42 -75 0
-42 -88 0
-42 -110 0
-42 -133 0
-42 -145 0
-42 -158 0
-52 -64 0
-52 -75 0
-52 -88 0
-52 -110 0
-52 -133 0
-52 -145 0
-52 -158 0
-64 -75 0
-64 -88 0
-64 -110 0
-64 -133 0
-64 -145 0
-64 -158 0
-75 -88 0
-75 -110 0
-75 -133 0
-75 -145 0
-75 -158 0
-88 -110 0
-88 -133 0
-88 -145 0
-88 -158 0
-110 -133 0
-110 -145 0
-110 -158 0
-133 -145 0
-133 -158 0
-145 -158 0
10 159 167 168 178 191 204 215 228 270 282 0
-10 -159 0
-10 -167 0
-10 -168 0
-10 -178 0
-10 -191 0
-10 -204 0
-10 -215 0
-10 -228 0
-10 -270 0
-10 -282 0
-159 -167 0
-159 -168 0
-159 -178 0
-159 -191 0
-159 -204 0
-159 -215 0
-159 -228 0
-159 -270 0
-159 -282 0
-167 -168 0
-167 -178 0
-167 -191 0
-167 -204 0
-167 -215 0
-167 -228 0
-167 -270 0
-167 -282 0
-168 -178 0
-168 -191 0
-168 -204 0
-168 -215 0
-168 -228 0
-168 -270 0
-168 -282 0
-178 -191 0
-178 -204 0
-178 -215 0
-178 -228 0
-178 -270 0
-178 -282 0
-191 -204 0
-191 -215 0
-191 -228 0
-191 -270 0
-191 -282 0
-204 -215 0
-204 -228 0
-204 -270 0
-204 -282 0
-215 -228 0
-215 -270 0
-215 -282 0
-228 -270 0
-228 -282 0
-270 -282 0
29 147 159 176 289 291 304 315 328 348 370 0
-29 -147 0
-29 -159 0
-29 -176 0
-29 -289 0
-29 -291 0
-29 -304 0
-29 -315 0
-29 -328 0
-29 -348 0
-29 -370 0
-147 -159 0
-147 -176 0
-147 -289 0
-147 -291 0
-147 -304 0
-147 -315 0
-147 -328 0
-147 -348 0
-147 -370 0
-159 -176 0
-159 -289 0
-159 -291 0
-159 -304 0
-159 -315 0
-159 -328 0
-159 -348 0
-159 -370 0
-176 -289 0
-176 -291 0
-176 -304 0
-176 -315 0
-176 -328 0
-176 -348 0
-176 -370 0
-289 -291 0
-289 -304 0
-289 -315 0
-289 -328 0
-289 -348 0
-289 -370 0
-291 -304 0
-291 -315 0
-291 -328 0
-291 -348 0
-291 -370 0
-304 -315 0
-304 -328 0
-304 -348 0
-304 -370 0
-315 -328 0
-315 -348 0
-315 -370 0
-328 -348 0
-328 -370 0
-348 -370 0
30 41 147 168 189 272 302 374 385 397 419 0
-30 -41 0
-30 -147 0
-30 -168 0
-30 -189 0
-30 -272 0
-30 -302 0
-30 -374 0
-30 -385 0
-30 -397 0
-30 -419 0
-41 -147 0
-41 -168 0
-41 -189 0
-41 -272 0
-41 -302 0
-41 -374 0
-41 -385 0
-41 -397 0
-41 -419 0
-147 -168 0
-147 -189 0
-147 -272 0
-147 -302 0
-147 -374 0
-147 -385 0
-147 -397 0
-147 -419 0
-168 -189 0
-168 -272 0
-168 -302 0
-168 -374 0
-168 -385 0
-168 -397 0
-168 -419 0
-189 -272 0
-189 -302 0
-189 -374 0
-189 -385 0
-189 -397 0
-189 -419 0
-272 -302 0
-272 -374 0
-272 -385 0
-272 -397 0
-272 -419 0
-302 -374 0
-302 -385 0
-302 -397 0
-302 -419 0
-374 -385 0
-374 -397 0
-374 -419 0
-385 -397 0
-385 -419 0
-397 -419 0
42 51 126 178 202 262 313 364 393 434 452 0
-42 -51 0
-42 -126 0
-42 -178 0
-42 -202 0
-42 -262 0
-42 -313 0
-42 -364 0
-42 -393 0
-42 -434 0
-42 -452 0
-51 -126 0
-51 -178 0
-51 -202 0
-51 -262 0
-51 -313 0
-51 -364 0
-51 -393 0
-51 -434 0
-51 -452 0
-126 -178 0
-126 -202 0
-126 -262 0
-126 -313 0
-126 -364 0
-126 -393 0
-126 -434 0
-126 -452 0
-178 -202 0
-178 -262 0
-178 -313 0
-178 -364 0
-178 -393 0
-178 -434 0
-178 -452 0
-202 -262 0
-202 -313 0
-202 -364 0
-202 -393 0
-202 -434 0
-202 -452 0
-262 -313 0
-262 -364 0
-262 -393 0
-262 -434 0
-262 -452 0
-313 -364 0
-313 -393 0
-313 -434 0
-313 -452 0
-364 -393 0
-364 -434 0
-364 -452 0
-393 -434 0
-393 -452 0
-434 -452 0
52 63 126 191 213 252 272 291 326 353 404 456 0
-52 -63 0
-52 -126 0
-52 -191 0
-52 -213 0
-52 -252 0
-52 -272 0
-52 -291 0
-52 -326 0
-52 -353 0
-52 -404 0
-52 -456 0
-63 -126 0
-63 -191 0
-63 -213 0
-63 -252 0
-63 -272 0
-63 -291 0
-63 -326 0
-63 -353 0
-63 -404 0
-63 -456 0
-126 -191 0
-126 -213 0
-126 -252 0
-126 -272 0
-126 -291 0
-126 -326 0
-126 -353 0
-126 -404 0
-126 -456 0
-191 -213 0
-191 -252 0
-191 -272 0
-191 -291 0
-191 -326 0
-191 -353 0
-191 -404 0
-191 -456 0
-213 -252 0
-213 -272 0
-213 -291 0
-213 -326 0
-213 -353 0
-213 -404 0
-213 -456 0
-252 -272 0
-252 -291 0
-252 -326 0
-252 -353 0
-252 -404 0
-252 -456 0
-272 -291 0
-272 -326 0
-272 -353 0
-272 -404 0
-272 -456 0
-291 -326 0
-291 -353 0
-291 -404 0
-291 -456 0
-326 -353 0
-326 -404 0
-326 -456 0
-353 -404 0
-353 -456 0
-404 -456 0
64 74 103 204 226 241 262 304 374 411 416 0
-64 -74 0
-64 -103 0
-64 -204 0
-64 -226 0
-64 -241 0
-64 -262 0
-64 -304 0
-64 -374 0
-64 -411 0
-64 -416 0
-74 -103 0
-74 -204 0
-74 -226 0
-74 -241 0
-74 -262 0
-74 -304 0
-74 -374 0
-74 -411 0
-74 -416 0
-103 -204 0
-103 -226 0
-103 -241 0
-103 -262 0
-103 -304 0
-103 -374 0
-103 -411 0
-103 -416 0
-204 -226 0
-204 -241 0
-204 -262 0
-204 -304 0
-204 -374 0
-204 -411 0
-204 -416 0
-226 -241 0
-226 -262 0
-226 -304 0
-226 -374 0
-226 -411 0
-226 -416 0
-241 -262 0
-241 -304 0
-241 -374 0
-241 -411 0
-241 -416 0
-262 -304 0
-262 -374 0
-262 -411 0
-262 -416 0
-304 -374 0
-304 -411 0
-304 -416 0
-374 -411 0
-374 -416 0
-411 -416 0
10 20 31 43 53 65 76 89 123 134 146 0
-10 -20 0
-10 -31 0
-10 -43 0
-10 -53 0
-10 -65 0
-10 -76 0
-10 -89 0
-10 -123 0
-10 -134 0
-10 -146 0
-20 -31 0
-20 -43 0
-20 -53 0
-20 -65 0
-20 -76 0
-20 -89 0
-20 -123 0
-20 -134 0
-20 -146 0
-31 -43 0
-31 -53 0
-31 -65 0
-31 -76 0
-31 -89 0
-31 -123 0
-31 -134 0
-31 -146 0
-43 -53 0
-43 -65 0
-43 -76 0
-43 -89 0
-43 -123 0
-43 -134 0
-43 -146 0
-53 -65 0
-53 -76 0
-53 -89 0
-53 -123 0
-53 -134 0
-53 -146 0
-65 -76 0
-65 -89 0
-65 -123 0
-65 -134 0
-65 -146 0
-76 -89 0
-76 -123 0
-76 -134 0
-76 -146 0
-89 -123 0
-89 -134 0
-89 -146 0
-123 -134 0
-123 -146 0
-134 -146 0
20 30 177 283 290 292 305 316 329 339 371 0
-20 -30 0
-20 -177 0
-20 -283 0
-20 -290 0
-20 -292 0
-20 -305 0
-20 -316 0
-20 -329 0
-20 -339 0
-20 -371 0
-30 -177 0
-30 -283 0
-30 -290 0
-30 -292 0
-30 -305 0
-30 -316 0
-30 -329 0
-30 -339 0
-30 -371 0
-177 -283 0
-177 -290 0
-177 -292 0
-177 -305 0
-177 -316 0
-177 -329 0
-177 -339 0
-177 -371 0
-283 -290 0
-283 -292 0
-283 -305 0
-283 -316 0
-283 -329 0
-283 -339 0
-283 -371 0
-290 -292 0
-290 -305 0
-290 -316 0
-290 -329 0
-290 -339 0
-290 -371 0
-292 -305 0
-292 -316 0
-292 -329 0
-292 -339 0
-292 -371 0
-305 -316 0
-305 -329 0
-305 -339 0
-305 -371 0
-316 -329 0
-316 -339 0
-316 -371 0
-329 -339 0
-329 -371 0
-339 -371 0
31 42 137 190 273 303 375 382 386 398 407 430 0
-31 -42 0
-31 -137 0
-31 -190 0
-31 -273 0
-31 -303 0
-31 -375 0
-31 -382 0
-31 -386 0
-31 -398 0
-31 -407 0
-31 -430 0
-42 -137 0
-42 -190 0
-42 -273 0
-42 -303 0
-42 -375 0
-42 -382 0
-42 -386 0
-42 -398 0
-42 -407 0
-42 -430 0
-137 -190 0
-137 -273 0
-137 -303 0
-137 -375 0
-137 -382 0
-137 -386 0
-137 -398 0
-137 -407 0
-137 -430 0
-190 -273 0
-190 -303 0
-190 -375 0
-190 -382 0
-190 -386 0
-190 -398 0
-190 -407 0
-190 -430 0
-273 -303 0
-273 -375 0
-273 -382 0
-273 -386 0
-273 -398 0
-273 -407 0
-273 -430 0
-303 -375 0
-303 -382 0
-303 -386 0
-303 -398 0
-303 -407 0
-303 -430 0
-375 -382 0
-375 -386 0
-375 -398 0
-375 -407 0
-375 -430 0
-382 -386 0
-382 -398 0
-382 -407 0
-382 -430 0
-386 -398 0
-386 -407 0
-386 -430 0
-398 -407 0
-398 -430 0
-407 -430 0
43 52 137 203 263 283 314 365 394 438 441 0
-43 -52 0
-43 -137 0
-43 -203 0
-43 -263 0
-43 -283 0
-43 -314 0
-43 -365 0
-43 -394 0
-43 -438 0
-43 -441 0
-52 -137 0
-52 -203 0
-52 -263 0
-52 -283 0
-52 -314 0
-52 -365 0
-52 -394 0
-52 -438 0
-52 -441 0
-137 -203 0
-137 -263 0
-137 -283 0
-137 -314 0
-137 -365 0
-137 -394 0
-137 -438 0
-137 -441 0
-203 -263 0
-203 -283 0
-203 -314 0
-203 -365 0
-203 -394 0
-203 -438 0
-203 -441 0
-263 -283 0
-263 -314 0
-263 -365 0
-263 -394 0
-263 -438 0
-263 -441 0
-283 -314 0
-283 -365 0
-283 -394 0
-283 -438 0
-283 -441 0
-314 -365 0
-314 -394 0
-314 -438 0
-314 -441 0
-365 -394 0
-365 -438 0
-365 -441 0
-394 -438 0
-394 -441 0
-438 -441 0
53 64 114 214 253 273 292 327 354 423 449 0
-53 -64 0
-53 -114 0
-53 -214 0
-53 -253 0
-53 -273 0
-53 -292 0
-53 -327 0
-53 -354 0
-53 -423 0
-53 -449 0
-64 -114 0
-64 -214 0
-64 -253 0
-64 -273 0
-64 -292 0
-64 -327 0
-64 -354 0
-64 -423 0
-64 -449 0
-114 -214 0
-114 -253 0
-114 -273 0
-114 -292 0
-114 -327 0
-114 -354 0
-114 -423 0
-114 -449 0
-214 -253 0
-214 -273 0
-214 -292 0
-214 -327 0
-214 -354 0
-214 -423 0
-214 -449 0
-253 -273 0
-253 -292 0
-253 -327 0
-253 -354 0
-253 -423 0
-253 -449 0
-273 -292 0
-273 -327 0
-273 -354 0
-273 -423 0
-273 -449 0
-292 -327 0
-292 -354 0
-292 -423 0
-292 -449 0
-327 -354 0
-327 -423 0
-327 -449 0
-354 -423 0
-354 -449 0
-423 -449 0
11 32 44 54 66 77 101 111 124 135 159 0
-11 -32 0
-11 -44 0
-11 -54 0
-11 -66 0
-11 -77 0
-11 -101 0
-11 -111 0
-11 -124 0
-11 -135 0
-11 -159 0
-32 -44 0
-32 -54 0
-32 -66 0
-32 -77 0
-32 -101 0
-32 -111 0
-32 -124 0
-32 -135 0
-32 -159 0
-44 -54 0
-44 -66 0
-44 -77 0
-44 -101 0
-44 -111 0
-44 -124 0
-44 -135 0
-44 -159 0
-54 -66 0
-54 -77 0
-54 -101 0
-54 -111 0
-54 -124 0
-54 -135 0
-54 -159 0
-66 -77 0
-66 -101 0
-66 -111 0
-66 -124 0
-66 -135 0
-66 -159 0
-77 -101 0
-77 -111 0
-77 -124 0
-77 -135 0
-77 -159 0
-101 -111 0
-101 -124 0
-101 -135 0
-101 -159 0
-111 -124 0
-111 -135 0
-111 -159 0
-124 -135 0
-124 -159 0
-135 -159 0
11 20 168 169 179 192 205 216 237 260 271 0
-11 -20 0
-11 -168 0
-11 -169 0
-11 -179 0
-11 -192 0
-11 -205 0
-11 -216 0
-11 -237 0
-11 -260 0
-11 -271 0
-20 -168 0
-20 -169 0
-20 -179 0
-20 -192 0
-20 -205 0
-20 -216 0
-20 -237 0
-20 -260 0
-20 -271 0
-168 -169 0
-168 -179 0
-168 -192 0
-168 -205 0
-168 -216 0
-168 -237 0
-168 -260 0
-168 -271 0
-169 -179 0
-169 -192 0
-169 -205 0
-169 -216 0
-169 -237 0
-169 -260 0
-169 -271 0
-179 -192 0
-179 -205 0
-179 -216 0
-179 -237 0
-179 -260 0
-179 -271 0
-192 -205 0
-192 -216 0
-192 -237 0
-192 -260 0
-192 -271 0
-205 -216 0
-205 -237 0
-205 -260 0
-205 -271 0
-216 -237 0
-216 -260 0
-216 -271 0
-237 -260 0
-237 -271 0
-260 -271 0
31 148 178 284 293 306 317 340 349 361 372 0
-31 -148 0
-31 -178 0
-31 -284 0
-31 -293 0
-31 -306 0
-31 -317 0
-31 -340 0
-31 -349 0
-31 -361 0
-31 -372 0
-148 -178 0
-148 -284 0
-148 -293 0
-148 -306 0
-148 -317 0
-148 -340 0
-148 -349 0
-148 -361 0
-148 -372 0
-178 -284 0
-178 -293 0
-178 -306 0
-178 -317 0
-178 -340 0
-178 -349 0
-178 -361 0
-178 -372 0
-284 -293 0
-284 -306 0
-284 -317 0
-284 -340 0
-284 -349 0
-284 -361 0
-284 -372 0
-293 -306 0
-293 -317 0
-293 -340 0
-293 -349 0
-293 -361 0
-293 -372 0
-306 -317 0
-306 -340 0
-306 -349 0
-306 -361 0
-306 -372 0
-317 -340 0
-317 -349 0
-317 -361 0
-317 -372 0
-340 -349 0
-340 -361 0
-340 -372 0
-349 -361 0
-349 -372 0
-361 -372 0
32 43 148 169 191 274 376 383 408 420 431 0
-32 -43 0
-32 -148 0
-32 -169 0
-32 -191 0
-32 -274 0
-32 -376 0
-32 -383 0
-32 -408 0
-32 -420 0
-32 -431 0
-43 -148 0
-43 -169 0
-43 -191 0
-43 -274 0
-43 -376 0
-43 -383 0
-43 -408 0
-43 -420 0
-43 -431 0
-148 -169 0
-148 -191 0
-148 -274 0
-148 -376 0
-148 -383 0
-148 -408 0
-148 -420 0
-148 -431 0
-169 -191 0
-169 -274 0
-169 -376 0
-169 -383 0
-169 -408 0
-169 -420 0
-169 -431 0
-191 -274 0
-191 -376 0
-191 -383 0
-191 -408 0
-191 -420 0
-191 -431 0
-274 -376 0
-274 -383 0
-274 -408 0
-274 -420 0
-274 -431 0
-376 -383 0
-376 -408 0
-376 -420 0
-376 -431 0
-383 -408 0
-383 -420 0
-383 -431 0
-408 -420 0
-408 -431 0
-420 -431 0
44 53 127 179 204 264 284 366 395 442 453 0
-44 -53 0
-44 -127 0
-44 -179 0
-44 -204 0
-44 -264 0
-44 -284 0
-44 -366 0
-44 -395 0
-44 -442 0
-44 -453 0
-53 -127 0
-53 -179 0
-53 -204 0
-53 -264 0
-53 -284 0
-53 -366 0
-53 -395 0
-53 -442 0
-53 -453 0
-127 -179 0
-127 -204 0
-127 -264 0
-127 -284 0
-127 -366 0
-127 -395 0
-127 -442 0
-127 -453 0
-179 -204 0
-179 -264 0
-179 -284 0
-179 -366 0
-179 -395 0
-179 -442 0
-179 -453 0
-204 -264 0
-204 -284 0
-204 -366 0
-204 -395 0
-204 -442 0
-204 -453 0
-264 -284 0
-264 -366 0
-264 -395 0
-264 -442 0
-264 -453 0
-284 -366 0
-284 -395 0
-284 -442 0
-284 -453 0
-366 -395 0
-366 -442 0
-366 -453 0
-395 -442 0
-395 -453 0
-442 -453 0
11 21 33 45 55 67 78 90 112 125 136 147 0
-11 -21 0
-11 -33 0
-11 -45 0
-11 -55 0
-11 -67 0
-11 -78 0
-11 -90 0
-11 -112 0
-11 -125 0
-11 -136 0
-11 -147 0
-21 -33 0
-21 -45 0
-21 -55 0
-21 -67 0
-21 -78 0
-21 -90 0
-21 -112 0
-21 -125 0
-21 -136 0
-21 -147 0
-33 -45 0
-33 -55 0
-33 -67 0
-33 -78 0
-33 -90 0
-33 -112 0
-33 -125 0
-33 -136 0
-33 -147 0
-45 -55 0
-45 -67 0
-45 -78 0
-45 -90 0
-45 -112 0
-45 -125 0
-45 -136 0
-45 -147 0
-55 -67 0
-55 -78 0
-55 -90 0
-55 -112 0
-55 -125 0
-55 -136 0
-55 -147 0
-67 -78 0
-67 -90 0
-67 -112 0
-67 -125 0
-67 -136 0
-67 -147 0
-78 -90 0
-78 -112 0
-78 -125 0
-78 -136 0
-78 -147 0
-90 -112 0
-90 -125 0
-90 -136 0
-90 -147 0
-112 -125 0
-112 -136 0
-112 -147 0
-125 -136 0
-125 -147 0
-136 -147 0
21 32 285 291 294 318 330 341 350 362 373 0
-21 -32 0
-21 -285 0
-21 -291 0
-21 -294 0
-21 -318 0
-21 -330 0
-21 -341 0
-21 -350 0
-21 -362 0
-21 -373 0
-32 -285 0
-32 -291 0
-32 -294 0
-32 -318 0
-32 -330 0
-32 -341 0
-32 -350 0
-32 -362 0
-32 -373 0
-285 -291 0
-285 -294 0
-285 -318 0
-285 -330 0
-285 -341 0
-285 -350 0
-285 -362 0
-285 -373 0
-291 -294 0
-291 -318 0
-291 -330 0
-291 -341 0
-291 -350 0
-291 -362 0
-291 -373 0
-294 -318 0
-294 -330 0
-294 -341 0
-294 -350 0
-294 -362 0
-294 -373 0
-318 -330 0
-318 -341 0
-318 -350 0
-318 -362 0
-318 -373 0
-330 -341 0
-330 -350 0
-330 -362 0
-330 -373 0
-341 -350 0
-341 -362 0
-341 -373 0
-350 -362 0
-350 -373 0
-362 -373 0
33 44 138 275 304 377 384 387 399 409 432 0
-33 -44 0
-33 -138 0
-33 -275 0
-33 -304 0
-33 -377 0
-33 -384 0
-33 -387 0
-33 -399 0
-33 -409 0
-33 -432 0
-44 -138 0
-44 -275 0
-44 -304 0
-44 -377 0
-44 -384 0
-44 -387 0
-44 -399 0
-44 -409 0
-44 -432 0
-138 -275 0
-138 -304 0
-138 -377 0
-138 -384 0
-138 -387 0
-138 -399 0
-138 -409 0
-138 -432 0
-275 -304 0
-275 -377 0
-275 -384 0
-275 -387 0
-275 -399 0
-275 -409 0
-275 -432 0
-304 -377 0
-304 -384 0
-304 -387 0
-304 -399 0
-304 -409 0
-304 -432 0
-377 -384 0
-377 -387 0
-377 -399 0
-377 -409 0
-377 -432 0
-384 -387 0
-384 -399 0
-384 -409 0
-384 -432 0
-387 -399 0
-387 -409 0
-387 -432 0
-399 -409 0
-399 -432 0
-409 -432 0
21 169 170 180 206 217 238 250 261 272 283 0
-21 -169 0
-21 -170 0
-21 -180 0
-21 -206 0
-21 -217 0
-21 -238 0
-21 -250 0
-21 -261 0
-21 -272 0
-21 -283 0
-169 -170 0
-169 -180 0
-169 -206 0
-169 -217 0
-169 -238 0
-169 -250 0
-169 -261 0
-169 -272 0
-169 -283 0
-170 -180 0
-170 -206 0
-170 -217 0
-170 -238 0
-170 -250 0
-170 -261 0
-170 -272 0
-170 -283 0
-180 -206 0
-180 -217 0
-180 -238 0
-180 -250 0
-180 -261 0
-180 -272 0
-180 -283 0
-206 -217 0
-206 -238 0
-206 -250 0
-206 -261 0
-206 -272 0
-206 -283 0
-217 -238 0
-217 -250 0
-217 -261 0
-217 -272 0
-217 -283 0
-238 -250 0
-238 -261 0
-238 -272 0
-238 -283 0
-250 -261 0
-250 -272 0
-250 -283 0
-261 -272 0
-261 -283 0
-272 -283 0
33 149 179 286 292 295 307 319 351 363 374 0
-33 -149 0
-33 -179 0
-33 -286 0
-33 -292 0
-33 -295 0
-33 -307 0
-33 -319 0
-33 -351 0
-33 -363 0
-33 -374 0
-149 -179 0
-149 -286 0
-149 -292 0
-149 -295 0
-149 -307 0
-149 -319 0
-149 -351 0
-149 -363 0
-149 -374 0
-179 -286 0
-179 -292 0
-179 -295 0
-179 -307 0
-179 -319 0
-179 -351 0
-179 -363 0
-179 -374 0
-286 -292 0
-286 -295 0
-286 -307 0
-286 -319 0
-286 -351 0
-286 -363 0
-286 -374 0
-292 -295 0
-292 -307 0
-292 -319 0
-292 -351 0
-292 -363 0
-292 -374 0
-295 -307 0
-295 -319 0
-295 -351 0
-295 -363 0
-295 -374 0
-307 -319 0
-307 -351 0
-307 -363 0
-307 -374 0
-319 -351 0
-319 -363 0
-319 -374 0
-351 -363 0
-351 -374 0
-363 -374 0
22 34 56 68 79 91 102 113 126 137 148 0
-22 -34 0
-22 -56 0
-22 -68 0
-22 -79 0
-22 -91 0
-22 -102 0
-22 -113 0
-22 -126 0
-22 -137 0
-22 -148 0
-34 -56 0
-34 -68 0
-34 -79 0
-34 -91 0
-34 -102 0
-34 -113 0
-34 -126 0
-34 -137 0
-34 -148 0
-56 -68 0
-56 -79 0
-56 -91 0
-56 -102 0
-56 -113 0
-56 -126 0
-56 -137 0
-56 -148 0
-68 -79 0
-68 -91 0
-68 -102 0
-68 -113 0
-68 -126 0
-68 -137 0
-68 -148 0
-79 -91 0
-79 -102 0
-79 -113 0
-79 -126 0
-79 -137 0
-79 -148 0
-91 -102 0
-91 -113 0
-91 -126 0
-91 -137 0
-91 -148 0
-102 -113 0
-102 -126 0
-102 -137 0
-102 -148 0
-113 -126 0
-113 -137 0
-113 -148 0
-126 -137 0
-126 -148 0
-137 -148 0
160 171 181 193 207 218 239 251 262 273 284 0
-160 -171 0
-160 -181 0
-160 -193 0
-160 -207 0
-160 -218 0
-160 -239 0
-160 -251 0
-160 -262 0
-160 -273 0
-160 -284 0
-171 -181 0
-171 -193 0
-171 -207 0
-171 -218 0
-171 -239 0
-171 -251 0
-171 -262 0
-171 -273 0
-171 -284 0
-181 -193 0
-181 -207 0
-181 -218 0
-181 -239 0
-181 -251 0
-181 -262 0
-181 -273 0
-181 -284 0
-193 -207 0
-193 -218 0
-193 -239 0
-193 -251 0
-193 -262 0
-193 -273 0
-193 -284 0
-207 -218 0
-207 -239 0
-207 -251 0
-207 -262 0
-207 -273 0
-207 -284 0
-218 -239 0
-218 -251 0
-218 -262 0
-218 -273 0
-218 -284 0
-239 -251 0
-239 -262 0
-239 -273 0
-239 -284 0
-251 -262 0
-251 -273 0
-251 -284 0
-262 -273 0
-262 -284 0
-273 -284 0
-5 -13 -32 -45 -57 -61 -73 -87 -96 -110 -117 -137 -146 -151 -165 -174 -194 -205 -212 -222 -236 -242 -262 -272 -282 -292 -309 -311 -328 -342 -349 -358 -368 -381 -400 -402 -417 -432 -442 -451 0
-5 -13 -33 -46 -54 -61 -76 -83 -99 -106 -122 -133 -148 -151 -166 -173 -185 -200 -219 -226 -237 -251 -257 -272 -282 -297 -305 -314 -328 -337 -345 -364 -373 -389 -398 -402 -423 -428 -440 -453 0
-3 -13 -27 -44 -55 -62 -75 -92 -100 -109 -126 -134 -142 -151 -168 -176 -194 -207 -211 -225 -234 -245 -259 -265 -283 -293 -301 -318 -323 -336 -351 -360 -376 -386 -392 -411 -418 -425 -443 -449 0
-8 -13 -26 -44 -48 -68 -72 -89 -96 -114 -119 -136 -145 -151 -168 -175 -185 -203 -211 -222 -238 -248 -262 -265 -285 -293 -309 -316 -328 -334 -351 -357 -369 -383 -400 -407 -422 -427 -436 -456 0
-6 -13 -26 -37 -57 -67 -74 -88 -101 -113 -121 -129 -146 -154 -166 -183 -189 -198 -215 -229 -231 -246 -260 -273 -283 -289 -307 -318 -331 -337 -349 -366 -376 -388 -396 -404 -413 -432 -440 -452 0
-7 -13 -26 -37 -56 -63 -78 -84 -101 -110 -116 -138 -146 -154 -165 -183 -190 -204 -209 -229 -239 -246 -260 -267 -283 -289 -308 -317 -325 -341 -354 -363 -376 -385 -390 -406 -417 -434 -436 -446 0
-10 -13 -29 -38 -47 -66 -78 -82 -103 -107 -126 -132 -144 -154 -165 -183 -194 -201 -211 -227 -237 -251 -257 -265 -283 -288 -303 -317 -331 -343 -351 -362 -377 -389 -397 -405 -423 -431 -443 -453 0
-11 -13 -34 -37 -48 -62 -75 -89 -100 -109 -116 -138 -140 -154 -166 -178 -189 -207 -209 -222 -234 -246 -264 -274 -283 -289 -301 -320 -327 -336 -344 -363 -373 -388 -390 -407 -416 -425 -436 -456 0
-11 -13 -29 -43 -48 -64 -79 -92 -96 -105 -117 -132 -144 -154 -165 -178 -194 -207 -211 -225 -231 -250 -259 -267 -286 -288 -303 -318 -331 -334 -353 -366 -371 -385 -390 -405 -422 -432 -443 -451 0
-10 -13 -32 -39 -56 -59 -70 -83 -100 -105 -121 -138 -147 -155 -170 -173 -188 -200 -216 -227 -235 -251 -264 -268 -278 -293 -309 -314 -326 -337 -351 -356 -371 -386 -393 -411 -415 -425 -437 -449 0
-11 -13 -34 -42 -53 -62 -70 -83 -97 -105 -122 -138 -143 -156 -166 -183 -193 -200 -219 -228 -235 -244 -257 -272 -276 -289 -305 -314 -332 -336 -351 -361 -373 -378 -390 -408 -416 -428 -440 -446 0
-11 -13 -25 -40 -51 -64 -76 -84 -96 -108 -117 -137 -149 -156 -171 -175 -186 -201 -209 -221 -235 -250 -259 -274 -282 -291 -308 -321 -329 -343 -344 -358 -372 -387 -397 -402 -417 -426 -443 -453 0
-3 -13 -30 -38 -54 -58 -73 -89 -103 -108 -125 -132 -148 -157 -167 -181 -186 -206 -219 -227 -233 -247 -260 -265 -286 -291 -303 -320 -324 -335 -344 -365 -369 -384 -392 -401 -423 -434 -442 -448 0
-5 -13 -28 -37 -50 -64 -76 -92 -101 -112 -116 -137 -140 -157 -169 -174 -195 -202 -219 -222 -234 -249 -254 -270 -284 -297 -308 -319 -328 -339 -345 -357 -373 -385 -391 -405 -422 -432 -435 -456 0
-5 -13 -30 -39 -53 -58 -77 -86 -103 -113 -118 -136 -140 -157 -165 -174 -191 -208 -218 -222 -237 -250 -259 -265 -286 -293 -303 -311 -328 -336 -350 -365 -368 -378 -399 -401 -417 -425 -439 -452 0
-6 -13 -31 -40 -57 -67 -75 -83 -97 -113 -124 -129 -140 -157 -169 -174 -189 -198 -209 -228 -236 -246 -262 -275 -285 -292 -309 -314 -323 -342 -345 -356 -370 -380 -395 -410 -412 -426 -437 -456 0
-11 -13 -34 -38 -47 -61 -75 -89 -99 -108 -116 -130 -149 -157 -161 -178 -187 -199 -213 -222 -236 -251 -264 -274 -283 -298 -304 -320 -327 -337 -344 -358 -373 -379 -392 -407 -419 -425 -436 -454 0
-3 -13 -27 -44 -51 -58 -73 -91 -103 -108 -123 -132 -147 -158 -166 -181 -195 -199 -216 -228 -231 -245 -258 -274 -283 -294 -308 -312 -324 -335 -351 -356 -372 -386 -396 -410 -423 -426 -437 -456 0
-4 -13 -29 -44 -55 -61 -79 -92 -94 -106 -121 -134 -143 -158 -169 -177 -195 -200 -211 -225 -239 -252 -254 -270 -278 -288 -299 -318 -331 -340 -346 -365 -374 -388 -398 -405 -423 -434 -435 -448 0
-4 -13 -29 -38 -54 -68 -72 -89 -103 -106 -125 -129 -144 -158 -161 -179 -195 -199 -219 -228 -236 -251 -258 -269 -283 -294 -302 -321 -324 -335 -349 -356 -375 -383 -399 -404 -423 -433 -445 -452 0
-7 -13 -33 -46 -47 -66 -74 -83 -102 -108 -116 -134 -143 -158 -169 -177 -195 -200 -219 -221 -233 -245 -254 -270 -284 -289 -299 -321 -325 -336 -352 -365 -373 -385 -398 -405 -423 -434 -435 -456 0
-7 -13 -27 -41 -55 -58 -80 -89 -96 -108 -117 -135 -148 -158 -163 -183 -190 -204 -218 -222 -240 -250 -260 -265 -280 -292 -300 -315 -331 -337 -350 -365 -377 -381 -400 -401 -412 -434 -435 -456 0
-3 -13 -25 -38 -52 -67 -76 -86 -97 -114 -122 -132 -148 -159 -165 -183 -193 -199 -212 -229 -238 -249 -257 -271 -276 -294 -303 -312 -324 -339 -347 -366 -374 -388 -396 -409 -415 -434 -440 -446 0
-3 -13 -30 -38 -51 -58 -76 -86 -102 -108 -125 -132 -149 -159 -165 -180 -188 -203 -216 -223 -241 -252 -254 -267 -284 -288 -301 -318 -331 -338 -354 -357 -368 -378 -399 -407 -413 -431 -437 -446 0
-7 -13 -27 -37 -52 -59 -70 -87 -94 -112 -127 -134 -148 -159 -163 -173 -193 -202 -214 -222 -241 -247 -261 -271 -285 -295 -309 -316 -331 -338 -346 -358 -368 -388 -399 -406 -419 -430 -436 -455 0
-8 -13 -28 -46 -52 -59 -76 -90 -98 -106 -118 -129 -148 -159 -163 -180 -186 -201 -218 -229 -241 -249 -254 -271 -280 -292 -299 -313 -324 -337 -352 -366 -373 -385 -400 -407 -413 -432 -435 -450 0
-9 -13 -31 -38 -55 -68 -72 -82 -99 -114 -117 -130 -142 -159 -170 -179 -189 -201 -218 -222 -241 -244 -254 -268 -280 -288 -301 -314 -332 -339 -350 -364 -376 -381 -391 -404 -422 -432 -445 -446 0
-5 -13 -25 -39 -51 -64 -73 -89 -101 -106 -125 -130 -148 -160 -161 -175 -192 -208 -217 -227 -235 -245 -264 -270 -281 -294 -299 -321 -326 -337 -348 -363 -371 -386 -397 -409 -418 -425 -441 -454 0
-6 -13 -34 -44 -52 -65 -78 -86 -94 -107 -122 -131 -140 -160 -164 -183 -190 -202 -209 -229 -238 -244 -257 -271 -282 -292 -300 -312 -328 -335 -349 -360 -373 -385 -390 -408 -416 -425 -440 -454 0
-10 -14 -33 -37 -51 -68 -72 -86 -98 -114 -124 -131 -140 -150 -171 -175 -189 -196 -216 -223 -236 -245 -255 -269 -283 -293 -300 -312 -328 -335 -347 -355 -373 -383 -398 -401 -416 -433 -442 -456 0
-7 -14 -33 -41 -48 -64 -80 -91 -101 -106 -118 -131 -146 -150 -171 -176 -191 -205 -210 -223 -236 -250 -254 -267 -280 -293 -305 -310 -324 -337 -347 -366 -373 -380 -393 -407 -413 -426 -438 -455 0
-5 -14 -28 -43 -57 -64 -79 -90 -100 -107 -121 -135 -140 -150 -165 -178 -192 -198 -212 -227 -239 -250 -255 -275 -276 -287 -302 -315 -329 -335 -350 -363 -369 -386 -391 -401 -415 -429 -442 -456 0
-9 -14 -32 -40 -55 -65 -71 -85 -95 -113 -120 -138 -141 -150 -164 -179 -187 -197 -217 -228 -235 -253 -262 -267 -276 -289 -303 -311 -332 -340 -345 -359 -371 -389 -391 -404 -419 -433 -441 -447 0
-7 -14 -34 -36 -53 -66 -75 -83 -100 -112 -119 -138 -143 -152 -172 -175 -192 -203 -219 -226 -233 -251 -257 -272 -282 -295 -300 -316 -325 -342 -349 -362 -370 -378 -398 -408 -418 -428 -437 -452 0
-10 -14 -27 -44 -49 -63 -79 -90 -99 -104 -118 -131 -149 -152 -164 -175 -195 -202 -219 -222 -236 -251 -260 -266 -283 -294 -300 -315 -323 -340 -354 -359 -375 -383 -397 -411 -418 -425 -437 -447 0
-10 -14 -28 -44 -48 -62 -80 -90 -100 -104 -118 -131 -148 -152 -164 -176 -195 -207 -216 -222 -240 -250 -259 -266 -280 -294 -301 -316 -326 -336 -354 -363 -375 -385 -393 -411 -418 -425 -438 -454 0
-12 -14 -32 -45 -53 -59 -73 -84 -100 -109 -126 -130 -145 -152 -167 -181 -194 -205 -211 -227 -238 -247 -257 -266 -281 -293 -303 -311 -325 -339 -348 -365 -374 -384 -391 -403 -413 -427 -436 -451 0
-7 -14 -29 -44 -47 -67 -69 -88 -97 -113 -123 -130 -149 -155 -171 -178 -194 -199 -214 -226 -234 -242 -255 -271 -283 -298 -302 -312 -331 -338 -350 -355 -376 -380 -392 -407 -413 -427 -444 -456 0
-7 -14 -33 -41 -47 -66 -71 -91 -103 -107 -123 -128 -145 -155 -172 -182 -191 -202 -217 -227 -234 -242 -260 -268 -284 -298 -301 -320 -327 -339 -348 -365 -373 -379 -398 -402 -422 -426 -439 -447 0
-7 -14 -33 -46 -51 -59 -69 -89 -95 -107 -124 -133 -148 -155 -171 -176 -192 -196 -214 -228 -234 -246 -255 -272 -285 -298 -303 -320 -325 -333 -347 -365 -371 -381 -395 -411 -413 -425 -445 -451 0
-7 -14 -32 -42 -55 -59 -74 -89 -102 -104 -117 -130 -149 -155 -167 -175 -194 -196 -210 -227 -233 -253 -260 -272 -284 -298 -309 -320 -325 -339 -347 -355 -370 -381 -394 -402 -422 -432 -445 -451 0
-7 -14 -32 -42 -56 -63 -76 -92 -96 -112 -119 -128 -140 -155 -168 -175 -194 -199 -210 -226 -231 -250 -259 -275 -284 -292 -309 -320 -323 -337 -347 -355 -370 -381 -394 -405 -422 -425 -436 -451 0
-8 -14 -30 -44 -47 -59 -76 -91 -103 -109 -125 -128 -141 -155 -166 -175 -195 -208 -216 -223 -231 -243 -261 -273 -282 -293 -307 -321 -330 -337 -353 -357 -370 -383 -396 -402 -422 -426 -441 -452 0
-8 -14 -31 -46 -52 -66 -71 -91 -95 -107 -125 -132 -139 -155 -168 -180 -195 -199 -210 -224 -236 -248 -262 -265 -285 -289 -307 -311 -327 -333 -346 -366 -371 -384 -392 -405 -420 -427 -445 -455 0
-10 -14 -29 -36 -49 -62 -78 -91 -101 -107 -119 -138 -140 -155 -164 -175 -192 -197 -217 -226 -240 -249 -264 -273 -276 -294 -302 -316 -322 -335 -349 -363 -369 -383 -391 -404 -417 -434 -441 -447 0
-10 -14 -32 -46 -56 -67 -71 -86 -96 -104 -122 -132 -140 -155 -170 -176 -188 -203 -209 -220 -234 -246 -260 -275 -284 -290 -301 -313 -323 -342 -353 -355 -374 -389 -398 -403 -417 -427 -440 -449 0
-11 -14 -28 -36 -53 -62 -70 -83 -100 -108 -126 -133 -149 -155 -167 -181 -188 -196 -219 -227 -233 -247 -255 -275 -283 -296 -302 -315 -325 -335 -349 -362 -376 -386 -391 -411 -412 -426 -445 -451 0
-11 -14 -30 -43 -56 -61 -71 -86 -95 -104 -122 -130 -149 -155 -167 -175 -184 -199 -217 -225 -236 -252 -255 -275 -284 -289 -309 -320 -323 -333 -354 -362 -369 -382 -396 -403 -416 -434 -444 -451 0
-11 -14 -34 -41 -47 -64 -71 -85 -99 -107 -115 -134 -149 -155 -165 -181 -195 -208 -212 -228 -236 -242 -255 -268 -283 -289 -303 -311 -325 -333 -349 -364 -373 -387 -395 -408 -414 -426 -436 -456 0
-8 -14 -35 -44 -52 -60 -76 -91 -95 -107 -115 -131 -147 -156 -170 -181 -190 -198 -215 -230 -231 -248 -255 -271 -280 -288 -309 -319 -327 -342 -349 -362 -371 -381 -391 -408 -416 -434 -445 -451 0
-10 -14 -26 -38 -54 -68 -73 -92 -100 -112 -119 -128 -141 -156 -172 -176 -186 -208 -212 -224 -237 -249 -262 -272 -276 -292 -306 -318 -323 -338 -347 -365 -377 -381 -395 -407 -413 -431 -437 -447 0
-12 -14 -27 -37 -55 -64 -71 -86 -100 -106 -124 -137 -146 -156 -168 -177 -194 -202 -218 -225 -231 -250 -257 -266 -280 -291 -300 -319 -322 -340 -352 -366 -376 -387 -390 -410 -418 -425 -439 -446 0
-12 -14 -29 -37 -55 -68 -75 -89 -101 -106 -121 -131 -143 -156 -165 -182 -192 -204 -214 -220 -239 -248 -261 -267 -276 -290 -302 -319 -324 -341 -353 -361 -377 -383 -394 -401 -422 -430 -439 -452 0
-4 -14 -26 -46 -49 -67 -73 -84 -101 -110 -123 -137 -139 -157 -169 -182 -193 -202 -209 -228 -236 -246 -255 -275 -280 -291 -309 -317 -325 -338 -354 -363 -371 -385 -395 -403 -416 -429 -443 -450 0
-5 -14 -26 -43 -56 -61 -75 -90 -99 -104 -124 -138 -141 -157 -168 -181 -186 -200 -219 -226 -236 -243 -261 -265 -286 -291 -309 -320 -323 -339 -346 -360 -372 -382 -400 -403 -418 -434 -442 -449 0
-5 -14 -35 -44 -55 -61 -70 -81 -102 -107 -121 -133 -146 -157 -162 -178 -194 -203 -218 -226 -237 -253 -258 -272 -276 -295 -305 -312 -323 -341 -348 -358 -376 -382 -396 -402 -422 -426 -437 -450 0
-6 -14 -33 -37 -52 -68 -76 -86 -101 -114 -119 -128 -140 -157 -167 -182 -184 -198 -216 -223 -241 -249 -261 -266 -284 -290 -309 -315 -324 -335 -352 -362 -369 -382 -393 -406 -419 -431 -444 -446 0
-4 -14 -35 -36 -53 -68 -74 -85 -95 -112 -121 -135 -143 -158 -171 -177 -192 -199 -212 -228 -231 -247 -255 -272 -285 -295 -300 -317 -325 -342 -347 -365 -370 -378 -399 -406 -420 -430 -445 -452 0
-5 -14 -29 -37 -55 -68 -72 -86 -101 -104 -123 -138 -140 -158 -166 -173 -191 -206 -210 -222 -234 -253 -263 -271 -284 -287 -302 -319 -329 -343 -350 -364 -369 -389 -391 -407 -416 -433 -436 -455 0
-5 -14 -34 -46 -51 -61 -76 -90 -95 -107 -124 -128 -144 -158 -168 -181 -186 -197 -214 -229 -241 -242 -261 -269 -280 -291 -307 -320 -329 -333 -347 -358 -372 -382 -396 -408 -413 -432 -438 -453 0
-6 -14 -32 -36 -51 -65 -71 -92 -102 -112 -117 -130 -144 -158 -166 -182 -184 -198 -218 -228 -237 -246 -255 -275 -283 -288 -308 -315 -323 -343 -354 -361 -374 -386 -395 -404 -421 -429 -436 -451 0
-6 -14 -31 -37 -57 -62 -74 -91 -97 -104 -117 -135 -147 -158 -171 -182 -186 -203 -216 -223 -231 -250 -255 -269 -282 -292 -300 -321 -330 -335 -353 -364 -369 -387 -390 -406 -420 -433 -442 -454 0
-7 -14 -31 -36 -51 -68 -71 -84 -95 -114 -124 -130 -147 -158 -169 -181 -184 -198 -215 -223 -234 -249 -264 -266 -285 -288 -301 -316 -323 -342 -353 -363 -367 -378 -394 -406 -416 -432 -445 -447 0
-6 -14 -26 -37 -56 -62 -80 -90 -100 -104 -119 -133 -146 -159 -166 -173 -189 -199 -216 -222 -238 -252 -255 -275 -284 -292 -308 -313 -332 -333 -346 -365 -373 -389 -398 -411 -420 -433 -436 -454 0
-7 -14 -34 -38 -55 -63 -76 -81 -97 -110 -118 -138 -140 -159 -165 -173 -195 -197 -214 -222 -237 -250 -263 -268 -284 -296 -303 -313 -329 -336 -350 -359 -374 -381 -391 -405 -420 -433 -436 -455 0
-9 -14 -34 -40 -48 -61 -76 -90 -103 -107 -119 -128 -140 -159 -164 -179 -184 -197 -213 -224 -240 -251 -257 -275 -283 -293 -300 -313 -327 -335 -350 -355 -369 -379 -398 -408 -419 -428 -435 -451 0
-8 -14 -31 -39 -56 -60 -69 -88 -101 -106 -119 -136 -141 -160 -168 -180 -184 -198 -214 -223 -234 -243 -264 -274 -281 -291 -305 -313 -323 -337 -351 -360 -377 -389 -394 -411 -415 -427 -439 -455 0
-5 -14 -32 -42 -55 -68 -73 -81 -96 -109 -122 -134 -140 -160 -170 -173 -189 -201 -216 -222 -236 -247 -264 -270 -277 -292 -304 -312 -326 -333 -345 -360 -372 -389 -396 -402 -412 -426 -438 -455 0
-8 -14 -30 -44 -48 -68 -71 -89 -95 -104 -125 -132 -141 -160 -164 -175 -191 -197 -214 -229 -237 -245 -261 -265 -286 -298 -309 -313 -328 -336 -350 -359 -372 -386 -396 -411 -417 -427 -441 -455 0
-5 -15 -30 -40 -53 -68 -74 -90 -94 -109 -124 -130 -149 -150 -171 -174 -191 -202 -212 -227 -238 -247 -255 -271 -276 -288 -299 -314 -328 -341 -349 -355 -377 -380 -390 -407 -412 -427 -445 -451 0
-7 -15 -32 -46 -56 -63 -76 -83 -98 -105 -125 -133 -142 -150 -168 -177 -185 -197 -217 -226 -233 -251 -258 -265 -286 -289 -301 -314 -322 -336 -349 -366 -375 -380 -396 -409 -423 -434 -444 -450 0
-9 -15 -28 -37 -57 -60 -78 -89 -99 -105 -126 -135 -142 -150 -165 -179 -184 -199 -212 -228 -239 -253 -256 -266 -283 -293 -302 -315 -332 -333 -346 -358 -373 -388 -399 -411 -420 -430 -440 -447 0
-10 -15 -35 -38 -54 -68 -72 -83 -100 -112 -119 -129 -144 -150 -163 -177 -189 -206 -216 -220 -231 -248 -258 -273 -286 -288 -304 -314 -332 -334 -349 -364 -373 -388 -395 -404 -413 -431 -436 -448 0
-5 -15 -35 -45 -51 -64 -77 -91 -99 -107 -123 -132 -139 -151 -161 -176 -188 -208 -215 -224 -236 -243 -260 -272 -284 -288 -301 -314 -330 -339 -351 -356 -376 -379 -398 -409 -417 -426 -445 -451 0
-5 -15 -28 -36 -50 -66 -79 -83 -100 -110 -123 -138 -147 -151 -169 -178 -193 -200 -212 -221 -235 -249 -263 -265 -277 -292 -308 -310 -326 -336 -346 -356 -373 -386 -395 -402 -416 -426 -444 -450 0
-8 -15 -32 -45 -57 -59 -76 -81 -98 -110 -126 -132 -141 -151 -164 -175 -193 -204 -214 -229 -232 -242 -255 -271 -283 -297 -302 -319 -324 -337 -352 -361 -370 -389 -398 -406 -417 -432 -445 -451 0
-10 -15 -24 -38 -51 -61 -78 -86 -101 -108 -127 -130 -148 -151 -164 -176 -187 -205 -210 -229 -236 -244 -261 -273 -276 -294 -305 -310 -326 -337 -345 -360 -374 -389 -391 -409 -418 -427 -441 -454 0
-10 -15 -34 -38 -57 -62 -78 -85 -100 -108 -124 -128 -141 -151 -163 -179 -187 -207 -214 -220 -235 -248 -254 -274 -283 -291 -302 -317 -325 -334 -345 -360 -375 -381 -393 -411 -413 -432 -445 -451 0
-10 -15 -32 -46 -55 -59 -74 -84 -102 -104 -118 -132 -144 -151 -166 -175 -189 -208 -211 -220 -231 -244 -260 -273 -283 -287 -307 -317 -326 -343 -348 -364 -368 -379 -395 -409 -418 -433 -439 -448 0
-11 -15 -27 -36 -52 -61 -73 -91 -100 -107 -119 -134 -149 -151 -164 -176 -187 -204 -217 -221 -231 -251 -259 -274 -277 -287 -306 -316 -327 -341 -344 -364 -369 -387 -396 -402 -419 -430 -444 -451 0
-8 -15 -35 -39 -56 -65 -78 -88 -98 -111 -116 -131 -139 -153 -168 -175 -195 -196 -212 -223 -232 -252 -259 -273 -283 -288 -304 -317 -332 -337 -351 -362 -376 -380 -393 -406 -415 -433 -442 -454 0
-1 -15 -32 -38 -51 -64 -76 -85 -97 -112 -127 -137 -144 -153 -171 -176 -194 -199 -216 -227 -232 -247 -261 -270 -281 -296 -309 -319 -332 -339 -347 -360 -372 -387 -397 -406 -421 -425 -443 -456 0
-12 -15 -28 -43 -56 -63 -75 -84 -94 -112 -119 -135 -144 -153 -168 -180 -190 -199 -219 -226 -234 -244 -254 -269 -284 -288 -308 -310 -330 -339 -354 -363 -370 -387 -390 -406 -421 -434 -444 -446 0
-7 -15 -32 -41 -55 -59 -76 -81 -102 -114 -120 -129 -145 -153 -167 -179 -194 -203 -211 -230 -238 -247 -262 -265 -278 -293 -309 -310 -325 -339 -345 -360 -370 -387 -391 -403 -418 -430 -439 -456 0
-7 -15 -34 -36 -48 -66 -71 -82 -100 -110 -125 -138 -146 -153 -169 -177 -193 -196 -215 -226 -234 -244 -263 -268 -286 -291 -302 -317 -332 -337 -352 -358 -367 -382 -393 -402 -415 -429 -442 -449 0
-9 -15 -31 -38 -50 -66 -71 -91 -93 -109 -116 -138 -147 -153 -170 -179 -187 -202 -218 -223 -241 -242 -256 -269 -282 -296 -309 -314 -324 -339 -354 -359 -373 -378 -400 -408 -422 -427 -436 -456 0
-5 -15 -31 -39 -57 -62 -74 -88 -94 -111 -126 -128 -147 -153 -165 -179 -193 -206 -215 -229 -231 -248 -259 -275 -278 -288 -308 -312 -327 -343 -350 -355 -371 -389 -392 -408 -418 -425 -438 -447 0
-8 -15 -28 -42 -53 -58 -77 -92 -98 -104 -119 -136 -148 -153 -171 -180 -194 -203 -211 -224 -231 -244 -260 -270 -281 -296 -301 -321 -328 -339 -347 -362 -374 -387 -390 -403 -421 -425 -443 -456 0
-11 -15 -31 -40 -52 -60 -74 -82 -102 -109 -115 -131 -149 -153 -165 -182 -193 -199 -215 -227 -238 -244 -264 -269 -276 -290 -300 -313 -330 -343 -348 -359 -377 -389 -397 -403 -420 -428 -437 -449 0
-8 -15 -27 -44 -52 -58 -76 -90 -102 -107 -115 -131 -149 -156 -172 -182 -190 -200 -215 -221 -238 -248 -262 -271 -276 -297 -300 -321 -329 -338 -348 -361 -373 -389 -397 -402 -420 -426 -437 -449 0
-8 -15 -34 -44 -55 -60 -80 -82 -96 -104 -123 -131 -145 -156 -168 -182 -195 -203 -210 -224 -238 -248 -262 -265 -278 -290 -299 -315 -330 -340 -345 -363 -375 -383 -391 -404 -423 -429 -436 -455 0
-8 -15 -27 -44 -57 -64 -71 -91 -93 -105 -118 -136 -146 -156 -172 -180 -191 -196 -216 -224 -240 -251 -259 -269 -278 -296 -299 -315 -324 -340 -351 -362 -371 -388 -398 -401 -419 -434 -438 -450 0
-8 -15 -24 -37 -54 -68 -80 -90 -98 -105 -119 -133 -146 -156 -172 -182 -191 -200 -214 -221 -231 -250 -260 -269 -284 -295 -304 -320 -324 -339 -347 -365 -373 -382 -397 -401 -422 -433 -444 -452 0
-9 -15 -31 -44 -48 -62 -69 -82 -96 -108 -126 -136 -149 -156 -167 -180 -185 -207 -216 -225 -241 -243 -258 -274 -276 -290 -302 -321 -322 -334 -345 -362 -370 -389 -400 -402 -417 -424 -441 -449 0
-11 -15 -29 -38 -50 -65 -71 -92 -94 -110 -115 -137 -141 -156 -172 -181 -185 -202 -217 -225 -236 -252 -258 -265 -282 -292 -309 -318 -331 -336 -349 -360 -368 -383 -397 -402 -416 -432 -442 -448 0
-1 -15 -28 -40 -53 -68 -77 -90 -103 -110 -120 -130 -142 -157 -168 -174 -187 -199 -213 -230 -239 -249 -261 -274 -277 -295 -306 -316 -328 -336 -350 -355 -375 -378 -393 -409 -421 -425 -438 -448 0
-1 -15 -30 -38 -55 -62 -76 -83 -103 -109 -124 -131 -148 -157 -172 -176 -192 -207 -214 -221 -234 -246 -261 -270 -285 -295 -299 -310 -325 -336 -353 -360 -375 -389 -395 -409 -418 -425 -441 -452 0
-5 -15 -31 -39 -57 -64 -79 -82 -101 -112 -115 -130 -144 -157 -168 -175 -184 -197 -213 -227 -239 -244 -261 -274 -286 -297 -308 -318 -322 -339 -345 -366 -370 -384 -394 -401 -421 -434 -436 -455 0
-5 -15 -33 -43 -49 -68 -80 -88 -94 -111 -121 -128 -141 -157 -168 -175 -195 -208 -213 -227 -232 -251 -261 -266 -276 -294 -299 -315 -325 -339 -354 -358 -372 -382 -393 -411 -414 -429 -442 -450 0
-6 -15 -34 -43 -57 -64 -73 -81 -94 -111 -118 -136 -142 -157 -168 -176 -185 -207 -211 -230 -238 -243 -259 -265 -285 -287 -307 -316 -325 -338 -352 -361 -377 -380 -395 -404 -412 -430 -444 -452 0
-11 -15 -31 -40 -57 -60 -79 -83 -94 -109 -115 -133 -142 -157 -171 -174 -187 -202 -215 -223 -236 -250 -263 -265 -277 -291 -308 -310 -327 -339 -345 -363 -377 -380 -397 -411 -415 -431 -442 -455 0
-12 -15 -32 -38 -49 -67 -71 -91 -96 -110 -121 -129 -146 -157 -163 -178 -194 -203 -218 -226 -234 -242 -260 -272 -277 -287 -299 -316 -328 -337 -354 -363 -375 -387 -396 -401 -421 -427 -442 -448 0
-1 -15 -33 -39 -54 -62 -80 -84 -100 -108 -123 -130 -148 -158 -168 -174 -195 -200 -214 -223 -240 -250 -262 -266 -281 -294 -308 -316 -326 -334 -348 -366 -367 -381 -398 -402 -417 -427 -441 -451 0
-5 -15 -33 -43 -57 -66 -79 -81 -96 -109 -122 -129 -144 -158 -172 -182 -187 -204 -214 -225 -239 -242 -260 -272 -278 -297 -305 -313 -324 -340 -352 -362 -370 -380 -390 -407 -418 -424 -440 -447 0
-7 -15 -24 -44 -48 -65 -71 -92 -100 -113 -118 -129 -147 -158 -170 -178 -195 -196 -216 -224 -233 -243 -259 -273 -278 -296 -301 -316 -326 -336 -351 -362 -376 -380 -392 -411 -418 -427 -438 -454 0
-7 -15 -35 -43 -56 -63 -77 -83 -93 -108 -120 -129 -147 -158 -161 -180 -192 -200 -210 -229 -233 -251 -259 -275 -282 -292 -299 -321 -325 -336 -350 -364 -372 -380 -396 -401 -416 -430 -442 -451 0
-12 -15 -27 -45 -56 -61 -73 -87 -97 -105 -123 -135 -141 -158 -166 -174 -184 -204 -216 -220 -239 -246 -258 -274 -283 -291 -309 -319 -324 -334 -354 -361 -375 -381 -400 -409 -419 -434 -440 -455 0
-12 -15 -32 -38 -53 -59 -74 -83 -94 -112 -126 -132 -144 -158 -168 -177 -193 -206 -212 -220 -234 -246 -263 -265 -278 -288 -308 -310 -328 -343 -351 -356 -372 -389 -398 -409 -418 -427 -439 -450 0
-7 -15 -34 -38 -51 -58 -71 -88 -103 -107 -115 -136 -146 -159 -165 -179 -195 -208 -214 -223 -239 -242 -255 -272 -278 -288 -305 -310 -331 -334 -349 -362 -369 -387 -398 -402 -415 -431 -441 -447 0
-8 -15 -27 -36 -49 -64 -78 -89 -97 -113 -118 -129 -149 -159 -163 -183 -187 -205 -210 -229 -236 -248 -254 -272 -284 -294 -303 -321 -325 -333 -345 -364 -371 -381 -400 -409 -412 -431 -438 -451 0
-5 -15 -30 -40 -56 -58 -72 -87 -101 -112 -115 -134 -141 -160 -165 -178 -184 -205 -214 -220 -241 -244 -261 -274 -281 -297 -307 -314 -326 -341 -348 -359 -377 -389 -398 -403 -421 -428 -435 -453 0
-11 -15 -29 -36 -49 -62 -71 -88 -98 -105 -126 -134 -141 -160 -165 -180 -184 -201 -215 -227 -233 -244 -264 -266 -285 -288 -299 -314 -332 -339 -349 -359 -374 -387 -398 -408 -421 -428 -445 -449 0
-11 -15 -31 -36 -48 -61 -74 -91 -94 -107 -119 -133 -144 -160 -163 -176 -188 -196 -215 -224 -240 -253 -259 -272 -277 -288 -307 -314 -329 -341 -344 -355 -377 -388 -395 -408 -417 -434 -440 -455 0
-8 -15 -24 -43 -56 -59 -75 -83 -98 -105 -124 -132 -147 -160 -164 -175 -195 -204 -217 -229 -236 -242 -255 -271 -278 -288 -306 -310 -329 -337 -353 -363 -373 -382 -393 -410 -423 -432 -443 -455 0
-8 -15 -24 -38 -55 -58 -76 -85 -96 -110 -119 -135 -148 -160 -168 -174 -188 -199 -214 -224 -241 -252 -254 -266 -283 -287 -309 -313 -330 -338 -351 -366 -370 -387 -398 -403 -414 -433 -445 -446 0
-2 -16 -28 -41 -55 -64 -76 -84 -99 -113 -124 -138 -142 -150 -161 -176 -186 -207 -215 -230 -237 -247 -259 -269 -283 -296 -307 -318 -326 -335 -346 -366 -372 -381 -398 -410 -420 -434 -435 -447 0
-6 -16 -31 -46 -54 -68 -71 -82 -100 -106 -125 -133 -144 -150 -171 -179 -184 -203 -212 -221 -235 -243 -257 -272 -282 -298 -304 -320 -327 -333 -350 -356 -371 -383 -400 -401 -418 -433 -444 -452 0
-6 -16 -32 -41 -55 -59 -80 -88 -94 -113 -121 -134 -140 -150 -162 -176 -188 -206 -215 -230 -231 -244 -259 -271 -284 -292 -303 -320 -326 -335 -346 -355 -368 -378 -399 -410 -416 -425 -438 -452 0
-9 -16 -32 -40 -55 -68 -70 -85 -94 -114 -120 -134 -142 -150 -168 -175 -185 -201 -210 -230 -235 -245 -262 -265 -283 -289 -307 -321 -325 -335 -352 -355 -372 -386 -399 -404 -412 -425 -445 -453 0
-9 -16 -35 -39 -55 -62 -76 -91 -101 -106 -120 -129 -142 -150 -169 -174 -189 -197 -215 -222 -241 -247 -254 -269 -284 -289 -308 -319 -323 -338 -354 -362 -371 -384 -393 -407 -415 -433 -438 -456 0
-9 -16 -32 -45 -53 -68 -73 -84 -103 -109 -119 -129 -140 -150 -165 -178 -188 -206 -209 -220 -239 -244 -260 -275 -279 -290 -299 -312 -326 -335 -348 -363 -375 -380 -397 -401 -412 -428 -438 -448 0
-10 -16 -28 -41 -55 -60 -77 -82 -103 -108 -121 -137 -140 -150 -161 -179 -187 -206 -213 -230 -239 -248 -259 -266 -279 -293 -305 -313 -325 -334 -348 -357 -373 -379 -399 -403 -414 -431 -439 -449 0
-10 -16 -24 -45 -49 -63 -70 -86 -101 -114 -119 -137 -143 -151 -166 -179 -186 -206 -219 -224 -235 -244 -262 -266 -276 -290 -302 -310 -328 -341 -346 -361 -376 -387 -390 -403 -418 -428 -440 -446 0
-6 -16 -33 -41 -57 -65 -73 -81 -95 -110 -126 -135 -142 -151 -166 -182 -185 -196 -216 -226 -238 -245 -255 -273 -282 -290 -306 -311 -330 -337 -352 -365 -370 -388 -400 -406 -420 -425 -442 -454 0
-11 -16 -29 -36 -48 -62 -75 -89 -95 -108 -127 -132 -148 -151 -167 -175 -186 -201 -209 -229 -236 -244 -262 -266 -283 -294 -308 -312 -326 -334 -351 -357 -367 -382 -397 -409 -423 -426 -445 -454 0
-6 -16 -24 -40 -57 -64 -77 -90 -97 -106 -122 -134 -148 -151 -167 -174 -192 -201 -209 -229 -236 -251 -257 -266 -283 -294 -303 -311 -326 -333 -351 -364 -370 -387 -397 -401 -415 -425 -442 -454 0
-10 -16 -35 -39 -56 -60 -77 -87 -93 -106 -121 -136 -142 -151 -161 -175 -186 -208 -213 -225 -237 -243 -259 -273 -283 -293 -304 -313 -330 -337 -351 -357 -376 -380 -397 -410 -422 -426 -439 -453 0
-6 -16 -25 -46 -52 -59 -77 -86 -102 -112 -122 -134 -139 -152 -168 -176 -190 -206 -219 -220 -241 -245 -256 -269 -284 -295 -305 -313 -325 -341 -344 -360 -376 -387 -396 -405 -415 -427 -440 -449 0
-6 -16 -25 -40 -52 -67 -76 -87 -101 -114 -115 -131 -148 -152 -170 -179 -189 -198 -218 -225 -241 -249 -256 -270 -277 -289 -303 -321 -331 -341 -346 -356 -371 -387 -391 -405 -422 -426 -437 -452 0
-6 -16 -30 -45 -50 -65 -80 -87 -94 -113 -124 -131 -139 -152 -166 -176 -191 -206 -219 -220 -237 -245 -256 -273 -286 -294 -299 -313 -332 -335 -346 -360 -372 -379 -399 -411 -414 -429 -438 -453 0
-7 -16 -31 -44 -57 -58 -74 -81 -97 -110 -126 -136 -143 -152 -171 -180 -189 -200 -216 -227 -232 -243 -257 -270 -285 -289 -307 -314 -331 -334 -354 -359 -371 -388 -390 -405 -415 -431 -444 -448 0
-7 -16 -25 -46 -54 -59 -75 -91 -100 -112 -120 -128 -146 -152 -169 -174 -189 -200 -214 -229 -239 -243 -264 -267 -282 -295 -304 -317 -330 -339 -352 -365 -368 -380 -392 -404 -418 -430 -445 -452 0
-11 -16 -25 -40 -48 -63 -76 -91 -103 -109 -119 -128 -145 -152 -165 -178 -185 -201 -217 -230 -239 -245 -259 -274 -277 -292 -301 -314 -328 -341 -352 -366 -368 -387 -398 -402 -419 -424 -435 -447 0
-2 -16 -31 -46 -54 -68 -74 -84 -99 -110 -125 -132 -139 -154 -166 -182 -193 -202 -216 -222 -231 -247 -264 -272 -282 -292 -301 -314 -328 -343 -350 -356 -377 -381 -390 -410 -420 -427 -437 -455 0
-9 -16 -31 -44 -48 -68 -69 -85 -95 -114 -116 -136 -144 -154 -169 -176 -195 -198 -212 -228 -239 -252 -258 -266 -276 -290 -302 -319 -332 -341 -344 -365 -367 -380 -393 -411 -412 -428 -445 -454 0
-9 -16 -32 -38 -49 -58 -76 -81 -99 -114 -117 -137 -147 -154 -172 -180 -192 -201 -219 -226 -234 -251 -254 -270 -279 -295 -308 -313 -325 -339 -344 -360 -372 -389 -391 -409 -415 -429 -442 -456 0
-11 -16 -28 -40 -48 -63 -69 -89 -103 -105 -117 -133 -148 -154 -162 -182 -184 -202 -212 -228 -238 -247 -259 -273 -286 -289 -305 -320 -332 -341 -346 -365 -368 -387 -392 -405 -419 -424 -442 -447 0
-6 -16 -30 -46 -51 -68 -78 -89 -101 -105 -121 -128 -140 -154 -169 -182 -186 -204 -218 -225 -235 -253 -259 -266 -276 -289 -299 -314 -325 -341 -353 -363 -372 -382 -396 -401 -414 -432 -435 -450 0
-2 -16 -35 -36 -56 -64 -77 -85 -99 -112 -119 -134 -143 -157 -170 -176 -187 -205 -215 -222 -231 -244 -259 -275 -284 -290 -299 -321 -331 -337 -353 -363 -373 -386 -393 -408 -419 -424 -438 -455 0
-2 -16 -31 -40 -57 -59 -75 -84 -102 -109 -124 -128 -147 -157 -165 -174 -191 -207 -217 -222 -236 -242 -264 -271 -285 -296 -309 -311 -327 -339 -344 -363 -377 -378 -394 -411 -414 -434 -445 -455 0
-11 -16 -34 -40 -52 -61 -69 -82 -97 -106 -120 -138 -146 -157 -172 -182 -185 -198 -214 -226 -234 -242 -261 -270 -284 -298 -305 -319 -330 -334 -348 -364 -369 -382 -397 -402 -413 -431 -444 -448 0
-2 -16 -29 -36 -50 -67 -71 -89 -98 -114 -124 -132 -148 -158 -166 -179 -187 -198 -209 -228 -239 -252 -256 -275 -283 -298 -302 -318 -331 -343 -346 -356 -367 -386 -393 -411 -412 -426 -439 -448 0
-12 -16 -31 -45 -49 -62 -79 -87 -101 -105 -117 -131 -143 -158 -166 -182 -185 -205 -210 -222 -231 -247 -262 -270 -283 -291 -302 -319 -331 -343 -346 -366 -368 -384 -390 -405 -423 -431 -437 -447 0
-1 -16 -27 -41 -55 -65 -72 -88 -97 -106 -121 -138 -148 -159 -170 -181 -190 -200 -213 -230 -232 -248 -260 -266 -279 -290 -309 -319 -323 -334 -350 -364 -369 -380 -395 -411 -415 -429 -441 -449 0
-1 -16 -27 -43 -47 -64 -72 -92 -100 -113 -119 -136 -144 -159 -166 -182 -193 -198 -213 -221 -238 -243 -264 -271 -280 -295 -309 -316 -330 -338 -349 -364 -368 -388 -398 -402 -419 -432 -443 -450 0
-9 -16 -27 -46 -47 -62 -78 -91 -94 -109 -115 -134 -142 -159 -169 -173 -188 -200 -213 -230 -240 -245 -256 -273 -277 -293 -301 -316 -330 -333 -351 -360 -377 -385 -392 -411 -414 -434 -438 -453 0
-8 -16 -25 -38 -53 -59 -72 -81 -95 -110 -125 -138 -148 -159 -161 -181 -188 -205 -217 -230 -240 -249 -258 -267 -277 -296 -305 -314 -326 -341 -344 -359 -374 -386 -393 -403 -414 -428 -437 -450 0
-2 -16 -32 -40 -56 -63 -72 -90 -98 -110 -115 -134 -142 -160 -165 -180 -194 -196 -215 -221 -236 -248 -264 -271 -279 -289 -305 -314 -332 -335 -349 -359 -374 -387 -398 -403 -414 -434 -437 -449 0
-7 -16 -30 -43 -54 -58 -74 -91 -95 -112 -119 -128 -143 -160 -161 -175 -190 -208 -216 -220 -235 -245 -261 -275 -282 -297 -307 -310 -325 -340 -354 -362 -370 -381 -395 -401 -417 -434 -444 -456 0
-1 -16 -33 -43 -51 -68 -75 -86 -95 -109 -119 -135 -143 -160 -166 -175 -192 -208 -213 -221 -238 -245 -264 -270 -277 -289 -299 -310 -325 -339 -354 -361 -373 -386 -397 -411 -413 -424 -444 -451 0
-2 -16 -29 -36 -49 -65 -78 -84 -101 -113 -119 -133 -144 -160 -161 -178 -187 -205 -217 -226 -236 -248 -257 -275 -285 -292 -302 -314 -322 -335 -353 -366 -368 -380 -400 -407 -421 -431 -444 -451 0
-2 -16 -27 -36 -56 -63 -75 -85 -97 -111 -125 -134 -144 -160 -169 -178 -194 -201 -209 -226 -232 -253 -259 -267 -280 -294 -303 -319 -329 -334 -348 -366 -367 -384 -397 -405 -422 -425 -438 -454 0
-1 -16 -30 -40 -53 -66 -74 -90 -95 -108 -120 -132 -148 -160 -172 -180 -186 -201 -213 -224 -240 -249 -256 -271 -282 -295 -299 -315 -323 -338 -350 -359 -367 -382 -390 -409 -412 -434 -441 -448 0
-7 -16 -29 -42 -56 -65 -69 -84 -95 -112 -116 -135 -142 -160 -161 -175 -189 -204 -210 -229 -237 -253 -259 -267 -283 -294 -306 -321 -323 -337 -347 -363 -367 -380 -399 -404 -415 -431 -443 -455 0
-3 -17 -25 -39 -54 -64 -69 -86 -98 -112 -123 -137 -149 -157 -172 -182 -191 -202 -218 -222 -237 -250 -259 -268 -276 -297 -306 -316 -328 -338 -345 -366 -373 -380 -399 -403 -419 -427 -436 -451 0
-7 -17 -25 -46 -48 -63 -76 -91 -96 -112 -117 -133 -139 -159 -163 -179 -190 -202 -218 -230 -231 -243 -257 -274 -283 -297 -300 -310 -327 -340 -347 -362 -377 -381 -397 -411 -421 -428 -443 -451 0
-7 -17 -25 -37 -54 -63 -69 -88 -102 -106 -125 -134 -149 -155 -168 -177 -184 -208 -211 -226 -238 -251 -264 -266 -278 -294 -308 -313 -322 -338 -349 -356 -370 -387 -398 -408 -418 -428 -441 -449 0
-11 -17 -25 -41 -56 -60 -72 -89 -95 -110 -121 -138 -141 -150 -164 -176 -184 -197 -217 -227 -241 -251 -256 -267 -282 -295 -306 -316 -327 -336 -344 -364 -373 -383 -394 -404 -421 -430 -442 -446 0
-8 -17 -30 -46 -53 -61 -69 -82 -101 -113 -118 -136 -143 -152 -164 -180 -192 -208 -210 -222 -239 -244 -259 -275 -282 -291 -307 -317 -332 -338 -345 -364 -368 -383 -394 -401 -416 -430 -436 -454 0
-8 -17 -35 -42 -49 -58 -79 -89 -96 -111 -117 -136 -143 -150 -164 -179 -195 -198 -214 -228 -239 -243 -254 -272 -278 -288 -304 -316 -330 -338 -352 -361 -368 -383 -394 -410 -412 -427 -445 -447 0
-2 -17 -24 -40 -53 -67 -79 -85 -101 -107 -122 -133 -143 -160 -164 -182 -191 -203 -217 -230 -235 -242 -260 -267 -278 -294 -304 -313 -324 -339 -351 -360 -372 -386 -397 -401 -417 -433 -443 -455 0
-2 -17 -30 -46 -50 -63 -77 -85 -96 -112 -123 -137 -143 -150 -169 -176 -185 -199 -218 -228 -236 -248 -257 -265 -286 -293 -300 -313 -330 -338 -354 -355 -368 -384 -395 -411 -413 -427 -444 -448 0
-9 -17 -32 -36 -50 -67 -76 -85 -96 -113 -127 -129 -143 -152 -167 -180 -194 -207 -211 -221 -241 -243 -260 -267 -281 -292 -299 -313 -332 -342 -349 -360 -370 -385 -396 -407 -417 -432 -438 -456 0
-2 -17 -24 -39 -52 -65 -79 -92 -101 -112 -121 -130 -143 -157 -171 -179 -190 -206 -219 -226 -233 -244 -254 -270 -279 -290 -300 -317 -328 -342 -354 -362 -376 -385 -390 -409 -415 -429 -440 -452 0
-2 -17 -27 -40 -51 -66 -79 -81 -96 -109 -123 -138 -147 -158 -164 -173 -195 -204 -216 -222 -238 -249 -263 -273 -278 -296 -300 -316 -330 -343 -351 -361 -368 -383 -400 -402 -412 -433 -444 -456 0
-9 -17 -27 -46 -53 -58 -77 -85 -99 -112 -118 -137 -140 -150 -167 -173 -192 -199 -218 -222 -241 -244 -255 -272 -281 -290 -306 -315 -331 -333 -344 -363 -373 -380 -390 -403 -420 -432 -444 -452 0
-7 -17 -24 -38 -53 -63 -79 -92 -101 -105 -118 -136 -140 -158 -163 -173 -195 -197 -216 -222 -238 -249 -262 -270 -285 -289 -306 -319 -322 -339 -345 -365 -375 -383 -397 -403 -421 -432 -444 -450 0
-8 -17 -30 -38 -47 -65 -72 -90 -103 -107 -116 -137 -139 -159 -164 -173 -194 -206 -210 -222 -236 -251 -260 -275 -278 -287 -309 -317 -326 -334 -351 -360 -373 -383 -393 -402 -423 -433 -439 -453 0
-10 -17 -29 -44 -48 -68 -72 -81 -99 -106 -125 -130 -149 -151 -166 -173 -185 -197 -213 -222 -237 -251 -261 -268 -285 -293 -302 -316 -327 -333 -344 -358 -376 -389 -398 -402 -416 -428 -438 -452 0
-9 -17 -28 -46 -48 -62 -79 -89 -96 -104 -116 -136 -140 -159 -169 -173 -185 -198 -213 -230 -240 -246 -262 -266 -281 -292 -302 -318 -322 -340 -344 -365 -375 -379 -395 -409 -421 -425 -436 -454 0
-10 -17 -28 -44 -51 -60 -79 -86 -95 -114 -118 -128 -147 -151 -164 -173 -193 -198 -210 -221 -235 -249 -260 -274 -283 -287 -308 -319 -326 -343 -344 -362 -372 -386 -396 -401 -416 -425 -437 -447 0
-12 -17 -30 -37 -49 -58 -77 -86 -98 -113 -117 -136 -146 -157 -170 -173 -186 -204 -213 -227 -233 -243 -260 -273 -278 -287 -307 -315 -330 -342 -349 -356 -376 -380 -390 -409 -412 -434 -441 -447 0
-8 -17 -34 -45 -52 -60 -72 -81 -94 -106 -127 -134 -141 -159 -163 -177 -186 -197 -217 -229 -231 -248 -262 -271 -286 -298 -302 -320 -327 -340 -344 -358 -373 -387 -390 -407 -420 -426 -436 -455 0
-8 -17 -26 -36 -48 -65 -79 -85 -103 -105 -125 -133 -141 -159 -172 -179 -185 -207 -211 -222 -236 -248 -261 -265 -285 -298 -306 -313 -327 -342 -353 -356 -371 -384 -398 -408 -419 -428 -441 -448 0
-2 -17 -24 -40 -56 -67 -80 -89 -96 -111 -122 -132 -145 -155 -170 -178 -185 -201 -213 -227 -233 -251 -264 -271 -276 -298 -303 -316 -328 -343 -350 -355 -374 -389 -399 -408 -423 -427 -438 -450 0
-2 -17 -24 -45 -51 -64 -77 -91 -99 -107 -127 -132 -146 -155 -166 -176 -185 -208 -211 -230 -239 -250 -260 -270 -276 -298 -306 -319 -329 -333 -347 -365 -373 -387 -397 -408 -413 -430 -437 -456 0
-8 -17 -35 -44 -48 -58 -76 -90 -95 -110 -115 -132 -148 -153 -168 -180 -188 -207 -214 -221 -241 -252 -257 -268 -276 -298 -303 -313 -329 -336 -351 -362 -370 -389 -394 -405 -415 -433 -435 -448 0
-1 -17 -33 -42 -49 -62 -76 -84 -95 -111 -122 -130 -148 -160 -164 -180 -194 -204 -213 -230 -237 -249 -256 -266 -279 -298 -302 -315 -327 -339 -344 -358 -373 -379 -391 -405 -417 -433 -438 -447 0
-3 -17 -27 -40 -54 -67 -72 -82 -100 -110 -126 -134 -149 -150 -168 -177 -184 -207 -211 -225 -235 -250 -264 -266 -279 -298 -304 -318 -327 -336 -349 -356 -375 -378 -400 -408 -413 -428 -438 -455 0
-2 -17 -27 -40 -57 -67 -72 -87 -101 -113 -115 -134 -141 -158 -171 -178 -192 -196 -219 -223 -236 -245 -256 -269 -283 -297 -304 -311 -324 -341 -351 -366 -375 -383 -397 -401 -423 -426 -437 -456 0
-3 -17 -28 -36 -48 -64 -76 -86 -100 -105 -127 -136 -148 -159 -172 -180 -190 -202 -218 -222 -237 -246 -263 -269 -276 -295 -302 -311 -322 -339 -345 -362 -368 -378 -399 -404 -421 -428 -445 -454 0
-10 -17 -28 -41 -48 -58 -78 -91 -99 -114 -118 -135 -139 -152 -164 -183 -190 -205 -213 -220 -232 -245 -262 -274 -283 -288 -309 -311 -328 -340 -351 -366 -373 -388 -400 -409 -414 -427 -444 -454 0
-11 -17 -29 -39 -57 -65 -73 -81 -98 -107 -126 -129 -140 -158 -170 -183 -186 -204 -209 -221 -236 -251 -255 -268 -281 -292 -302 -311 -330 -342 -349 -355 -376 -382 -392 -402 -413 -432 -441 -447 0
-1 -17 -27 -41 -53 -66 -72 -90 -99 -106 -126 -130 -149 -158 -163 -180 -194 -203 -215 -220 -241 -251 -257 -271 -281 -296 -299 -321 -323 -340 -348 -362 -371 -389 -398 -409 -418 -431 -435 -454 0
-10 -17 -32 -38 -49 -68 -74 -81 -99 -106 -127 -130 -147 -151 -163 -180 -186 -208 -213 -225 -236 -243 -260 -273 -276 -287 -305 -313 -323 -334 -351 -360 -372 -389 -392 -409 -418 -424 -441 -448 0
-10 -17 -32 -38 -51 -58 -79 -86 -95 -104 -125 -132 -149 -153 -171 -177 -194 -206 -213 -225 -233 -244 -260 -267 -276 -288 -304 -310 -323 -338 -354 -365 -372 -381 -397 -407 -413 -427 -442 -454 0
-2 -17 -32 -37 -56 -63 -69 -86 -98 -109 -127 -134 -147 -158 -163 -177 -188 -198 -218 -228 -237 -250 -263 -265 -286 -297 -308 -313 -323 -336 -354 -355 -372 -386 -399 -411 -413 -427 -436 -455 0
-1 -17 -30 -40 -56 -66 -72 -92 -95 -112 -122 -130 -146 -155 -164 -179 -195 -203 -219 -220 -235 -250 -256 -273 -282 -293 -304 -321 -323 -341 -353 -356 -367 -380 -393 -408 -422 -424 -435 -451 0
-10 -17 -27 -44 -50 -68 -80 -87 -96 -112 -116 -132 -140 -150 -161 -176 -192 -199 -218 -220 -241 -249 -257 -272 -281 -292 -303 -317 -331 -335 -344 -355 -373 -383 -394 -401 -422 -426 -435 -452 0
-2 -17 -24 -37 -48 -61 -74 -90 -99 -113 -127 -133 -146 -159 -169 -177 -195 -207 -213 -221 -231 -246 -257 -269 -285 -295 -306 -320 -324 -335 -347 -365 -367 -382 -397 -406 -423 -432 -444 -452 0
-11 -17 -30 -36 -48 -61 -76 -86 -102 -107 -116 -138 -140 -157 -170 -176 -191 -203 -209 -221 -241 -243 -257 -268 -284 -297 -300 -319 -322 -335 -350 -360 -375 -381 -393 -405 -422 -425 -437 -449 0
-3 -17 -32 -38 -49 -58 -76 -86 -103 -110 -126 -136 -139 -157 -170 -183 -189 -196 -218 -227 -237 -246 -255 -270 -279 -292 -309 -314 -328 -335 -345 -366 -372 -387 -398 -403 -414 -424 -445 -450 0
-3 -17 -32 -40 -48 -61 -69 -90 -94 -113 -122 -133 -146 -160 -166 -179 -195 -202 -215 -229 -231 -243 -257 -268 -283 -297 -304 -321 -326 -340 -345 -357 -367 -386 -397 -402 -423 -426 -443 -451 0
-11 -17 -31 -38 -50 -64 -72 -87 -95 -104 -126 -130 -149 -151 -167 -180 -185 -196 -219 -223 -236 -251 -257 -266 -281 -289 -308 -314 -329 -333 -344 -357 -373 -379 -391 -408 -419 -432 -443 -453 0
-1 -17 -30 -40 -53 -68 -72 -90 -95 -111 -120 -138 -141 -157 -169 -183 -185 -199 -215 -226 -240 -251 -259 -267 -277 -295 -306 -314 -328 -336 -350 -357 -375 -380 -390 -404 -421 -428 -440 -452 0
-10 -17 -32 -39 -55 -58 -73 -87 -98 -106 -118 -137 -149 -150 -163 -183 -193 -201 -210 -226 -237 -242 -259 -272 -279 -290 -306 -313 -324 -342 -354 -357 -370 -384 -390 -403 -417 -424 -436 -453 0
-3 -18 -25 -46 -51 -64 -77 -90 -102 -108 -120 -134 -144 -150 -171 -175 -191 -196 -210 -227 -233 -245 -261 -271 -281 -293 -307 -316 -332 -334 -350 -355 -370 -385 -398 -406 -414 -432 -441 -453 0
-4 -18 -29 -42 -54 -60 -79 -86 -103 -105 -125 -134 -140 -150 -171 -179 -191 -203 -209 -220 -238 -244 -258 -268 -281 -296 -305 -318 -323 -334 -346 -360 -372 -379 -399 -403 -419 -425 -440 -449 0
-4 -18 -30 -40 -47 -68 -77 -92 -100 -112 -116 -134 -143 -150 -171 -179 -191 -203 -212 -220 -231 -250 -258 -268 -278 -293 -301 -315 -327 -341 -344 -358 -367 -387 -392 -401 -416 -430 -444 -452 0
-4 -18 -26 -42 -50 -58 -74 -89 -102 -111 -120 -138 -147 -150 -171 -179 -188 -203 -217 -228 -233 -247 -255 -265 -278 -293 -301 -318 -322 -338 -344 -357 -371 -378 -390 -404 -423 -431 -436 -448 0
-4 -18 -26 -40 -52 -58 -77 -84 -103 -113 -122 -134 -147 -150 -169 -174 -193 -201 -214 -220 -234 -246 -264 -270 -276 -298 -303 -318 -329 -340 -351 -356 -367 -378 -399 -405 -413 -434 -435 -454 0
-10 -18 -29 -38 -55 -58 -73 -92 -101 -106 -118 -137 -142 -150 -163 -181 -192 -201 -210 -224 -231 -253 -259 -272 -279 -290 -306 -319 -323 -341 -345 -364 -369 -387 -395 -403 -416 -431 -436 -454 0
-10 -18 -32 -38 -50 -63 -70 -91 -94 -108 -127 -130 -147 -150 -164 -173 -187 -206 -210 -222 -236 -244 -260 -273 -286 -287 -305 -314 -332 -340 -344 -364 -369 -389 -396 -402 -416 -432 -444 -448 0
-3 -18 -31 -38 -50 -63 -75 -90 -102 -111 -127 -128 -142 -151 -164 -173 -194 -207 -216 -228 -236 -247 -257 -266 -283 -294 -301 -310 -331 -336 -348 -360 -374 -384 -393 -402 -423 -431 -439 -455 0
-3 -18 -35 -38 -51 -64 -77 -90 -102 -108 -121 -128 -146 -151 -168 -173 -186 -200 -218 -227 -233 -252 -261 -266 -281 -293 -299 -318 -328 -339 -351 -365 -369 -384 -398 -401 -414 -431 -442 -454 0
-3 -18 -29 -44 -48 -62 -76 -90 -103 -110 -119 -128 -148 -151 -168 -175 -193 -197 -214 -229 -233 -242 -261 -269 -279 -297 -301 -318 -329 -336 -351 -357 -375 -378 -394 -404 -413 -434 -436 -454 0
-4 -18 -26 -44 -57 -64 -69 -86 -98 -113 -122 -136 -146 -151 -166 -182 -185 -207 -211 -224 -231 -243 -260 -270 -283 -291 -307 -317 -331 -335 -346 -356 -376 -385 -390 -407 -412 -434 -439 -447 0
-5 -18 -35 -36 -52 -62 -74 -91 -95 -107 -124 -136 -146 -151 -168 -174 -186 -200 -217 -229 -236 -242 -255 -269 -284 -294 -300 -315 -329 -334 -351 -357 -375 -378 -399 -410 -420 -434 -445 -449 0
-11 -18 -35 -41 -47 -59 -75 -84 -102 -104 -118 -134 -144 -151 -170 -173 -191 -198 -214 -225 -232 -247 -255 -268 -284 -290 -304 -319 -324 -341 -352 -365 -368 -379 -398 -406 -414 -428 -439 -452 0
-4 -18 -24 -42 -48 -68 -80 -87 -101 -105 -121 -136 -146 -152 -164 -180 -191 -208 -216 -224 -236 -251 -264 -266 -278 -293 -305 -311 -325 -336 -348 -362 -374 -379 -394 -409 -423 -425 -445 -454 0
-4 -18 -25 -42 -57 -67 -76 -84 -99 -111 -122 -128 -148 -152 -163 -175 -188 -203 -215 -230 -239 -250 -260 -266 -285 -297 -308 -312 -328 -339 -354 -358 -374 -387 -392 -404 -417 -428 -442 -455 0
-10 -18 -25 -44 -50 -59 -80 -84 -96 -113 -122 -128 -147 -152 -169 -183 -193 -200 -214 -220 -232 -246 -257 -269 -285 -295 -306 -314 -324 -337 -353 -364 -371 -378 -398 -406 -416 -428 -435 -450 0
-12 -18 -30 -44 -50 -67 -74 -83 -98 -113 -119 -129 -146 -152 -170 -178 -185 -200 -210 -227 -233 -245 -260 -273 -281 -291 -307 -321 -323 -342 -346 -356 -376 -380 -390 -406 -412 -427 -441 -454 0
-5 -18 -26 -41 -56 -58 -78 -81 -101 -110 -127 -134 -144 -153 -171 -178 -194 -205 -212 -227 -238 -247 -256 -265 -279 -290 -304 -319 -323 -342 -354 -365 -373 -383 -400 -404 -413 -430 -436 -454 0
-9 -18 -35 -38 -53 -59 -69 -86 -94 -106 -124 -136 -148 -153 -163 -173 -195 -200 -215 -229 -238 -245 -262 -271 -281 -294 -305 -319 -331 -337 -348 -360 -377 -386 -397 -404 -415 -424 -441 -455 0
-11 -18 -35 -40 -47 -64 -71 -91 -100 -104 -116 -134 -143 -153 -171 -178 -190 -201 -217 -221 -240 -245 -258 -268 -276 -294 -305 -315 -324 -337 -351 -360 -377 -383 -390 -404 -419 -426 -441 -453 0
-1 -18 -30 -38 -56 -62 -70 -87 -96 -114 -124 -136 -146 -154 -172 -180 -186 -203 -216 -228 -234 -246 -262 -274 -281 -291 -299 -320 -332 -340 -351 -355 -369 -386 -399 -410 -413 -425 -436 -453 0
-1 -18 -32 -41 -48 -62 -75 -89 -95 -112 -126 -130 -149 -154 -166 -175 -186 -208 -218 -228 -237 -253 -255 -268 -283 -293 -304 -310 -332 -343 -346 -358 -368 -381 -395 -407 -413 -425 -439 -447 0
-1 -18 -29 -45 -50 -64 -77 -92 -98 -113 -117 -134 -141 -154 -172 -178 -186 -207 -211 -224 -237 -252 -259 -269 -283 -295 -299 -318 -331 -336 -346 -360 -376 -386 -397 -405 -413 -432 -435 -453 0
-9 -18 -32 -36 -53 -60 -80 -82 -102 -106 -118 -136 -144 -154 -172 -180 -187 -198 -218 -228 -240 -242 -260 -268 -281 -290 -304 -319 -332 -340 -344 -355 -375 -385 -394 -404 -422 -425 -436 -452 0
-10 -18 -24 -38 -51 -58 -77 -86 -96 -114 -125 -137 -140 -154 -171 -177 -186 -205 -211 -220 -238 -252 -258 -265 -281 -296 -309 -318 -328 -337 -349 -360 -374 -383 -396 -409 -415 -425 -442 -450 0
-11 -18 -29 -37 -57 -64 -69 -89 -98 -113 -121 -129 -140 -154 -166 -178 -186 -200 -211 -220 -239 -252 -254 -275 -283 -297 -308 -318 -325 -338 -345 -363 -367 -383 -397 -401 -414 -430 -442 -450 0
-12 -18 -31 -41 -55 -64 -77 -84 -102 -107 -121 -129 -140 -154 -162 -175 -184 -206 -211 -228 -236 -251 -260 -274 -281 -297 -301 -319 -329 -333 -348 -364 -373 -378 -394 -404 -421 -432 -443 -453 0
-1 -18 -34 -42 -50 -66 -70 -87 -96 -112 -123 -138 -142 -155 -172 -182 -192 -204 -218 -221 -236 -246 -258 -269 -283 -295 -308 -312 -327 -335 -348 -361 -373 -383 -397 -404 -417 -426 -444 -448 0
-1 -18 -30 -44 -55 -62 -80 -91 -95 -107 -122 -131 -146 -155 -170 -183 -191 -200 -211 -221 -236 -248 -260 -273 -277 -293 -307 -315 -332 -333 -346 -357 -373 -380 -392 -401 -416 -434 -438 -447 0
-2 -18 -35 -44 -56 -65 -73 -87 -96 -110 -125 -131 -139 -155 -170 -175 -195 -196 -214 -228 -239 -246 -260 -269 -278 -291 -301 -317 -329 -335 -344 -365 -374 -382 -393 -403 -420 -429 -440 -454 0
-3 -18 -35 -40 -51 -64 -78 -89 -97 -104 -124 -129 -148 -155 -166 -179 -195 -197 -209 -229 -239 -246 -261 -270 -280 -290 -301 -315 -331 -341 -344 -365 -377 -388 -397 -407 -414 -426 -435 -456 0
-9 -18 -24 -44 -56 -59 -76 -83 -103 -105 -121 -136 -140 -155 -164 -173 -191 -197 -217 -224 -240 -251 -256 -271 -286 -293 -309 -314 -329 -333 -350 -359 -370 -382 -391 -410 -419 -434 -439 -449 0
-1 -18 -26 -37 -50 -67 -74 -89 -102 -108 -120 -133 -149 -159 -162 -174 -193 -200 -211 -225 -236 -252 -260 -275 -283 -298 -308 -318 -327 -333 -349 -356 -376 -382 -396 -405 -419 -434 -442 -455 0
-4 -18 -26 -43 -51 -68 -69 -82 -103 -112 -120 -133 -144 -159 -161 -177 -187 -199 -216 -225 -239 -250 -264 -266 -285 -293 -309 -319 -332 -338 -344 -357 -367 -382 -397 -409 -423 -429 -436 -456 0
-4 -18 -31 -41 -57 -60 -78 -88 -94 -113 -117 -128 -144 -159 -171 -179 -187 -197 -217 -227 -233 -252 -254 -269 -278 -287 -309 -311 -327 -342 -344 -362 -371 -384 -393 -411 -412 -431 -441 -447 0
-4 -18 -33 -36 -51 -60 -75 -86 -94 -106 -127 -137 -146 -159 -170 -177 -193 -197 -209 -225 -234 -253 -260 -268 -278 -294 -300 -311 -325 -342 -349 -355 -368 -381 -397 -408 -416 -425 -436 -456 0
-5 -18 -26 -42 -56 -62 -74 -81 -96 -112 -123 -129 -149 -159 -166 -183 -186 -205 -218 -220 -232 -242 -263 -272 -280 -290 -309 -310 -331 -340 -354 -362 -369 -387 -395 -406 -415 -431 -443 -451 0
-3 -18 -30 -38 -53 -62 -74 -90 -93 -108 -124 -129 -148 -160 -170 -183 -184 -201 -216 -228 -233 -249 -255 -267 -280 -291 -301 -314 -322 -343 -351 -358 -377 -378 -393 -407 -413 -429 -439 -446 0
-10 -18 -24 -44 -47 -60 -74 -90 -99 -108 -116 -130 -148 -160 -164 -177 -192 -198 -219 -224 -231 -253 -256 -272 -277 -298 -301 -314 -328 -336 -351 -355 -373 -382 -391 -401 -422 -427 -436 -452 0
-9 -18 -24 -44 -48 -58 -73 -89 -95 -108 -126 -130 -147 -160 -164 -182 -186 -196 -215 -224 -241 -244 -255 -271 -283 -298 -300 -312 -327 -340 -350 -363 -376 -386 -396 -410 -413 -425 -435 -448 0
-4 -18 -32 -40 -52 -60 -74 -82 -95 -113 -115 -134 -147 -160 -172 -179 -185 -206 -219 -227 -233 -242 -258 -270 -281 -290 -309 -321 -322 -334 -346 -357 -372 -388 -399 -407 -414 -434 -440 -449 0
-1 -18 -34 -44 -51 -64 -76 -84 -95 -107 -121 -131 -147 -160 -163 -177 -188 -200 -215 -230 -237 -250 -255 -267 -285 -295 -300 -310 -323 -338 -344 -359 -372 -379 -398 -410 -415 -431 -438 -456 0
-5 -19 -25 -43 -47 -64 -72 -92 -101 -113 -118 -136 -139 -157 -165 -178 -193 -205 -219 -220 -231 -250 -256 -275 -279 -295 -299 -315 -324 -341 -353 -359 -371 -388 -391 -405 -419 -430 -436 -453 0
-2 -19 -30 -37 -49 -63 -76 -84 -102 -114 -115 -136 -142 -159 -165 -180 -194 -196 -216 -223 -241 -248 -256 -267 -284 -288 -301 -318 -332 -335 -351 -364 -367 -380 -399 -407 -422 -431 -438 -446 0
-4 -19 -26 -43 -48 -58 -80 -81 -102 -112 -122 -135 -145 -156 -165 -178 -194 -206 -218 -225 -237 -242 -264 -266 -278 -291 -309 -316 -331 -335 -344 -355 -374 -384 -398 -403 -423 -433 -435 -447 0
-4 -19 -29 -44 -52 -67 -70 -84 -94 -114 -123 -132 -148 -150 -165 -173 -195 -206 -211 -225 -239 -243 -256 -271 -282 -287 -299 -319 -332 -341 -346 -364 -371 -386 -397 -411 -412 -433 -439 -448 0
-2 -19 -29 -45 -52 -59 -69 -89 -98 -114 -124 -130 -148 -156 -165 -180 -184 -201 -215 -229 -239 -244 -264 -271 -279 -288 -308 -318 -332 -339 -344 -357 -374 -382 -390 -409 -415 -434 -436 -448 0
-11 -19 -29 -39 -56 -65 -80 -84 -94 -110 -115 -130 -142 -152 -165 -178 -185 -208 -211 -222 -241 -251 -255 -272 -281 -292 -308 -311 -325 -343 -347 -362 -377 -386 -394 -408 -414 -433 -444 -453 0
-11 -19 -30 -38 -53 -59 -70 -87 -102 -104 -116 -138 -141 -156 -167 -173 -193 -197 -217 -222 -241 -247 -263 -269 -278 -289 -309 -317 -331 -336 -344 -363 -373 -386 -393 -403 -421 -431 -436 -456 0
-11 -19 -30 -37 -48 -61 -74 -89 -102 -114 -117 -128 -142 -151 -167 -174 -184 -206 -210 -225 -233 -252 -258 -267 -284 -289 -300 -319 -330 -335 -352 -355 -376 -386 -393 -406 -412 -432 -438 -451 0
-2 -19 -27 -44 -51 -59 -76 -85 -103 -110 -125 -130 -148 -150 -167 -174 -195 -206 -216 -223 -239 -245 -258 -269 -276 -291 -305 -310 -324 -335 -354 -363 -368 -382 -397 -406 -415 -424 -438 -450 0
-11 -19 -35 -41 -48 -58 -75 -89 -97 -106 -118 -137 -139 -156 -167 -180 -184 -198 -210 -225 -232 -253 -258 -274 -284 -298 -304 -313 -324 -334 -351 -362 -371 -388 -396 -404 -413 -426 -444 -448 0
-5 -19 -26 -36 -54 -64 -78 -87 -102 -109 -123 -130 -149 -151 -167 -182 -186 -197 -212 -221 -231 -247 -260 -272 -284 -289 -308 -316 -325 -341 -344 -357 -376 -384 -394 -407 -415 -434 -436 -451 0
-11 -19 -24 -41 -47 -61 -76 -83 -102 -108 -116 -138 -145 -155 -163 -176 -188 -196 -215 -230 -240 -247 -262 -266 -283 -294 -301 -319 -331 -335 -349 -366 -367 -379 -398 -403 -423 -431 -435 -456 0
-3 -19 -30 -43 -56 -63 -78 -82 -98 -114 -124 -131 -139 -156 -162 -176 -192 -207 -217 -229 -241 -248 -254 -270 -280 -294 -300 -313 -322 -334 -351 -366 -372 -381 -400 -409 -414 -430 -440 -455 0
-5 -19 -24 -37 -51 -66 -72 -88 -103 -112 -123 -129 -148 -152 -168 -176 -195 -207 -217 -229 -232 -245 -255 -269 -280 -288 -301 -318 -329 -343 -351 -366 -375 -384 -394 -404 -423 -433 -443 -450 0
-5 -19 -33 -43 -54 -63 -79 -88 -103 -109 -118 -129 -140 -150 -168 -176 -186 -201 -209 -230 -232 -250 -255 -273 -280 -296 -300 -313 -329 -334 -350 -359 -372 -388 -391 -403 -413 -429 -435 -453 0
-10 -19 -35 -44 -48 -63 -72 -82 -95 -112 -119 -137 -139 -153 -161 -176 -186 -206 -216 -230 -234 -246 -262 -269 -285 -292 -300 -321 -325 -340 -347 -357 -376 -381 -397 -405 -413 -433 -435 -448 0
-6 -19 -35 -43 -47 -64 -78 -87 -102 -107 -124 -128 -142 -151 -163 -176 -186 -201 -219 -228 -237 -251 -254 -272 -277 -293 -300 -313 -329 -341 -351 -357 -369 -386 -399 -406 -415 -428 -435 -453 0
-3 -19 -27 -41 -52 -65 -78 -82 -103 -108 -124 -128 -148 -156 -172 -176 -184 -198 -212 -228 -237 -250 -258 -273 -285 -295 -308 -310 -323 -343 -344 -358 -371 -389 -395 -409 -418 -426 -444 -452 0
-6 -19 -24 -45 -52 -65 -80 -83 -97 -105 -122 -135 -148 -152 -162 -180 -189 -199 -216 -228 -240 -253 -262 -269 -278 -289 -307 -311 -331 -341 -346 -358 -371 -384 -392 -407 -422 -427 -444 -453 0
-6 -19 -33 -43 -54 -64 -80 -91 -93 -107 -122 -129 -140 -154 -170 -183 -189 -201 -209 -228 -237 -251 -255 -268 -279 -289 -300 -318 -329 -343 -346 -364 -372 -381 -391 -404 -413 -430 -436 -453 0
-12 -19 -33 -43 -56 -63 -75 -85 -96 -111 -120 -129 -140 -154 -170 -178 -189 -198 -210 -224 -233 -242 -260 -273 -281 -289 -309 -316 -330 -334 -352 -355 -369 -380 -395 -406 -416 -426 -436 -451 0
-10 -19 -27 -45 -49 -66 -71 -82 -100 -114 -117 -137 -139 -153 -169 -173 -189 -198 -212 -224 -240 -244 -262 -268 -286 -291 -309 -321 -322 -340 -346 -358 -371 -387 -391 -405 -418 -426 -437 -453 0
-2 -19 -27 -43 -57 -66 -72 -90 -100 -110 -126 -130 -142 -150 -171 -174 -189 -206 -215 -222 -234 -246 -260 -265 -281 -296 -304 -316 -323 -340 -354 -363 -373 -378 -395 -402 -417 -430 -439 -455 0
-2 -19 -29 -43 -49 -66 -69 -90 -102 -110 -118 -131 -149 -155 -163 -180 -189 -196 -215 -225 -241 -247 -260 -273 -285 -296 -301 -313 -329 -335 -349 -366 -368 -387 -390 -404 -417 -426 -437 -455 0
-5 -19 -26 -39 -52 -65 -79 -81 -101 -112 -116 -138 -141 -157 -169 -174 -189 -204 -219 -230 -239 -243 -258 -267 -276 -297 -306 -319 -323 -339 -354 -362 -370 -382 -390 -403 -418 -433 -445 -452 0
-1 -19 -31 -37 -54 -60 -75 -90 -95 -109 -126 -131 -149 -157 -162 -183 -189 -206 -218 -221 -240 -246 -260 -270 -280 -296 -300 -316 -328 -337 -354 -362 -376 -384 -395 -411 -422 -425 -438 -451 0
-5 -19 -29 -43 -57 -58 -77 -90 -102 -109 -115 -130 -145 -152 -170 -179 -189 -198 -215 -225 -241 -251 -256 -266 -280 -297 -301 -316 -324 -341 -354 -361 -375 -378 -393 -401 -414 -432 -437 -456 0
-6 -19 -30 -36 -47 -63 -76 -92 -101 -108 -125 -129 -148 -153 -163 -180 -192 -202 -212 -229 -241 -245 -254 -273 -282 -295 -308 -311 -322 -336 -350 -359 -370 -387 -392 -406 -417 -428 -441 -453 0
-11 -19 -29 -38 -47 -64 -76 -85 -97 -113 -116 -138 -139 -153 -163 -181 -194 -202 -215 -230 -231 -248 -258 -267 -283 -294 -302 -312 -324 -335 -351 -361 -367 -379 -392 -407 -420 -428 -442 -456 0
-6 -19 -24 -45 -47 -59 -74 -89 -96 -105 -124 -137 -145 -160 -169 -178 -184 -201 -213 -220 -240 -246 -264 -267 -278 -292 -309 -318 -322 -337 -345 -357 -370 -381 -397 -405 -422 -432 -435 -447 0
-2 -19 -33 -36 -48 -65 -77 -91 -103 -107 -122 -132 -145 -154 -168 -180 -188 -200 -213 -223 -240 -251 -264 -267 -276 -287 -299 -318 -328 -339 -354 -359 -372 -386 -393 -408 -421 -424 -438 -451 0
-4 -19 -31 -41 -48 -68 -72 -82 -101 -104 -125 -133 -140 -160 -169 -183 -185 -204 -213 -223 -240 -247 -255 -265 -281 -292 -309 -318 -328 -333 -347 -357 -369 -384 -394 -402 -422 -428 -443 -452 0
-4 -19 -24 -43 -55 -68 -72 -92 -94 -111 -120 -133 -140 -157 -168 -182 -185 -199 -213 -220 -241 -247 -261 -265 -284 -292 -309 -315 -325 -336 -350 -357 -375 -380 -399 -405 -422 -429 -436 -452 0
-2 -19 -30 -37 -48 -67 -72 -89 -100 -113 -127 -131 -139 -159 -163 -181 -188 -205 -209 -226 -238 -253 -263 -267 -280 -297 -300 -318 -325 -340 -347 -363 -367 -383 -399 -404 -413 -430 -439 -452 0
-6 -19 -32 -46 -52 -58 -70 -91 -96 -104 -125 -134 -142 -157 -168 -180 -186 -208 -211 -221 -235 -253 -262 -266 -276 -287 -305 -321 -328 -335 -346 -363 -372 -387 -396 -403 -414 -430 -445 -453 0
-2 -19 -27 -45 -57 -65 -74 -83 -102 -110 -124 -132 -142 -150 -169 -178 -187 -207 -212 -221 -235 -245 -264 -268 -276 -291 -307 -310 -325 -335 -354 -358 -371 -386 -397 -406 -415 -432 -438 -451 0
-5 -19 -35 -42 -47 -61 -76 -90 -100 -105 -124 -128 -148 -153 -171 -173 -187 -204 -216 -225 -235 -245 -263 -272 -278 -288 -309 -318 -331 -339 -346 -363 -370 -380 -396 -403 -412 -432 -444 -449 0
-2 -19 -27 -44 -51 -64 -69 -85 -96 -108 -123 -137 -147 -160 -164 -173 -195 -200 -216 -228 -235 -245 -261 -274 -278 -294 -301 -316 -324 -333 -351 -361 -368 -380 -400 -410 -418 -424 -444 -456 0
-11 -19 -26 -38 -52 -61 -74 -89 -93 -113 -116 -138 -141 -154 -170 -181 -188 -197 -209 -224 -235 -246 -264 -267 -282 -292 -309 -318 -331 -340 -344 -359 -370 -383 -392 -407 -419 -434 -436 -446 0
-3 -19 -27 -36 -53 -58 -74 -88 -102 -108 -124 -138 -147 -156 -172 -180 -191 -207 -212 -222 -235 -247 -263 -271 -276 -295 -306 -310 -323 -339 -344 -358 -373 -380 -392 -410 -412 -430 -436 -452 0
-10 -19 -27 -41 -55 -61 -71 -82 -102 -106 -127 -135 -139 -153 -169 -181 -185 -208 -212 -230 -235 -246 -254 -267 -280 -292 -304 -310 -324 -340 -353 -359 -373 -388 -391 -401 -417 -430 -441 -452 0
-1 -20 -28 -45 -50 -64 -70 -84 -102 -107 -122 -135 -142 -160 -165 -178 -188 -199 -217 -227 -232 -243 -264 -274 -279 -291 -307 -321 -323 -343 -347 -358 -369 -386 -397 -409 -414 -426 -438 -455 0
-4 -20 -28 -36 -54 -60 -70 -90 -103 -105 -121 -133 -148 -157 -161 -183 -193 -202 -214 -228 -234 -246 -263 -272 -277 -295 -301 -310 -331 -336 -348 -357 -373 -386 -391 -403 -421 -432 -440 -453 0
-4 -20 -28 -46 -54 -67 -74 -84 -99 -113 -117 -133 -139 -151 -163 -173 -188 -202 -217 -220 -234 -249 -263 -273 -282 -291 -299 -312 -322 -340 -351 -358 -376 -387 -397 -410 -413 -428 -437 -453 0
-5 -20 -25 -37 -51 -61 -73 -91 -103 -111 -117 -128 -147 -158 -166 -174 -186 -206 -218 -230 -231 -243 -258 -274 -282 -287 -308 -319 -330 -334 -353 -366 -372 -386 -396 -402 -423 -432 -438 -451 0
-4 -20 -24 -39 -47 -68 -73 -87 -98 -111 -116 -136 -149 -158 -166 -178 -184 -206 -211 -221 -239 -243 -264 -274 -280 -291 -302 -320 -325 -333 -345 -365 -377 -379 -398 -411 -422 -426 -439 -449 0
-5 -20 -25 -39 -52 -66 -73 -81 -96 -114 -122 -136 -148 -152 -170 -175 -189 -204 -218 -221 -236 -248 -257 -266 -286 -297 -300 -313 -332 -342 -350 -359 -370 -387 -398 -403 -414 -424 -436 -446 0
-3 -20 -29 -42 -56 -67 -72 -86 -93 -108 -124 -138 -143 -151 -170 -175 -191 -201 -218 -222 -235 -249 -255 -268 -276 -288 -306 -310 -325 -343 -344 -362 -374 -379 -394 -403 -423 -428 -442 -446 0
-2 -20 -33 -42 -50 -60 -77 -91 -100 -109 -127 -130 -139 -154 -164 -175 -194 -203 -218 -226 -231 -253 -257 -272 -282 -294 -300 -312 -332 -340 -348 -356 -367 -383 -396 -401 -414 -427 -444 -448 0
-7 -20 -34 -45 -52 -60 -80 -82 -100 -104 -117 -130 -142 -159 -161 -175 -186 -202 -214 -223 -240 -250 -255 -275 -284 -298 -301 -320 -330 -333 -347 -358 -374 -382 -391 -403 -420 -429 -436 -451 0
-2 -20 -29 -37 -56 -61 -78 -88 -99 -111 -127 -128 -142 -155 -166 -175 -184 -202 -217 -221 -233 -251 -263 -275 -282 -298 -306 -320 -322 -343 -350 -359 -374 -383 -398 -404 -423 -424 -436 -451 0
-3 -20 -27 -42 -57 -66 -79 -85 -99 -112 -122 -128 -142 -151 -164 -175 -189 -206 -215 -222 -236 -251 -263 -266 -276 -287 -304 -319 -323 -337 -353 -361 -373 -380 -395 -408 -423 -424 -436 -451 0
-4 -20 -32 -41 -57 -60 -79 -86 -95 -104 -125 -132 -145 -151 -167 -175 -185 -199 -212 -227 -238 -252 -255 -265 -284 -287 -304 -319 -323 -342 -346 -365 -368 -379 -398 -406 -423 -424 -445 -452 0
-2 -20 -33 -42 -56 -63 -72 -81 -101 -108 -127 -130 -144 -155 -170 -175 -195 -201 -209 -226 -236 -251 -256 -268 -282 -294 -306 -320 -323 -333 -354 -356 -370 -383 -394 -402 -419 -429 -439 -447 0
-2 -20 -29 -44 -52 -60 -73 -91 -93 -108 -125 -132 -141 -160 -170 -175 -185 -202 -214 -223 -241 -248 -254 -267 -282 -295 -300 -318 -323 -340 -344 -359 -376 -389 -398 -405 -419 -427 -440 -448 0
-2 -20 -27 -39 -51 -64 -73 -81 -96 -108 -127 -136 -148 -159 -170 -175 -189 -207 -211 -221 -231 -248 -259 -267 -286 -294 -299 -320 -332 -335 -345 -355 -369 -386 -394 -401 -414 -432 -444 -456 0
-12 -20 -32 -38 -52 -67 -73 -91 -94 -107 -122 -132 -140 -154 -170 -176 -188 -199 -214 -220 -231 -247 -257 -270 -284 -297 -303 -320 -325 -336 -347 -355 -374 -378 -399 -405 -413 -434 -440 -455 0
-9 -20 -33 -38 -47 -66 -73 -91 -103 -109 -116 -131 -139 -153 -163 -181 -189 -201 -217 -230 -231 -247 -257 -274 -282 -291 -303 -312 -324 -335 -349 -365 -367 -379 -396 -403 -423 -428 -442 -452 0
-7 -20 -33 -36 -48 -66 -71 -91 -96 -114 -122 -129 -145 -152 -163 -176 -193 -203 -215 -220 -241 -247 -257 -272 -285 -297 -303 -311 -324 -340 -352 -366 -369 -383 -393 -410 -418 -426 -440 -447 0
-3 -20 -34 -46 -51 -60 -78 -82 -97 -109 -121 -128 -145 -159 -164 -181 -189 -197 -217 -227 -234 -252 -254 -275 -279 -293 -303 -312 -323 -334 -345 -363 -373 -379 -395 -411 -414 -431 -441 -449 0
-3 -20 -35 -44 -56 -60 -73 -81 -94 -110 -119 -132 -147 -157 -162 -178 -187 -199 -217 -226 -236 -251 -254 -274 -286 -294 -303 -312 -331 -336 -354 -357 -368 -378 -394 -404 -421 -429 -435 -451 0
-7 -20 -29 -37 -48 -64 -78 -92 -101 -113 -115 -129 -142 -152 -167 -174 -194 -207 -210 -223 -236 -250 -258 -267 -286 -293 -303 -311 -326 -341 -345 -366 -376 -385 -393 -402 -417 -432 -441 -451 0
-1 -20 -27 -45 -51 -68 -70 -88 -96 -114 -121 -135 -142 -156 -166 -181 -189 -208 -215 -222 -232 -247 -261 -266 -286 -287 -304 -314 -323 -342 -350 -361 -376 -378 -400 -406 -414 -430 -442 -456 0
-5 -20 -25 -39 -54 -67 -70 -91 -100 -114 -118 -133 -144 -150 -166 -178 -184 -200 -218 -221 -235 -243 -264 -272 -279 -289 -308 -314 -332 -336 -351 -356 -373 -386 -399 -411 -420 -433 -444 -448 0
-8 -20 -34 -42 -54 -67 -70 -81 -94 -114 -120 -132 -141 -154 -166 -183 -187 -204 -218 -223 -240 -243 -257 -272 -276 -288 -307 -314 -332 -337 -350 -361 -370 -381 -390 -408 -421 -432 -440 -448 0
-5 -20 -33 -40 -57 -61 -79 -82 -96 -111 -115 -133 -140 -157 -162 -180 -191 -202 -219 -227 -241 -242 -256 -273 -280 -296 -300 -314 -330 -334 -348 -361 -369 -385 -395 -402 -422 -426 -445 -451 0
-3 -20 -25 -45 -56 -61 -69 -84 -101 -108 -127 -133 -144 -157 -172 -178 -187 -207 -214 -226 -231 -252 -261 -268 -279 -295 -300 -314 -328 -342 -350 -356 -376 -386 -391 -409 -419 -429 -436 -455 0
-9 -20 -27 -37 -49 -68 -80 -81 -94 -106 -121 -136 -142 -159 -163 -180 -187 -202 -212 -230 -240 -243 -254 -267 -284 -296 -300 -314 -325 -341 -354 -357 -374 -386 -399 -410 -412 -431 -435 -456 0
-4 -20 -32 -40 -56 -63 -72 -81 -98 -110 -127 -129 -147 -152 -165 -180 -194 -197 -214 -223 -232 -248 -262 -275 -282 -298 -307 -314 -324 -334 -349 -359 -375 -380 -390 -403 -421 -428 -443 -451 0
-7 -20 -33 -38 -47 -66 -79 -87 -93 -110 -116 -130 -142 -160 -163 -173 -194 -202 -214 -222 -241 -247 -261 -270 -277 -291 -302 -314 -325 -340 -345 -366 -367 -381 -398 -405 -422 -431 -436 -454 0
-6 -20 -32 -40 -56 -67 -70 -92 -94 -108 -122 -128 -145 -153 -171 -174 -184 -202 -211 -225 -236 -250 -263 -270 -279 -298 -308 -315 -327 -336 -353 -361 -374 -387 -392 -405 -413 -430 -442 -455 0
-5 -20 -35 -37 -50 -67 -72 -82 -101 -110 -117 -128 -148 -157 -167 -174 -194 -203 -209 -222 -234 -251 -264 -272 -277 -298 -304 -319 -327 -336 -350 -364 -368 -379 -391 -406 -417 -430 -439 -446 0
-6 -20 -26 -45 -50 -59 -79 -92 -100 -110 -116 -135 -139 -153 -161 -178 -193 -206 -211 -225 -235 -249 -263 -275 -279 -291 -302 -319 -327 -335 -346 -366 -376 -382 -390 -403 -416 -429 -444 -450 0
-8 -20 -32 -39 -47 -67 -69 -88 -98 -113 -127 -130 -142 -151 -166 -180 -184 -200 -218 -221 -233 -243 -263 -270 -279 -289 -306 -311 -327 -336 -346 -364 -374 -384 -392 -407 -421 -424 -444 -456 0
-9 -20 -27 -39 -47 -62 -78 -92 -93 -105 -118 -137 -142 -159 -164 -174 -189 -200 -218 -229 -238 -242 -264 -266 -279 -295 -300 -311 -327 -340 -353 -364 -373 -388 -399 -411 -420 -425 -440 -454 0
-1 -20 -32 -42 -47 -61 -73 -91 -103 -108 -120 -130 -147 -157 -167 -181 -186 -206 -211 -224 -236 -244 -263 -266 -286 -293 -300 -311 -327 -334 -353 -355 -369 -384 -391 -403 -413 -433 -436 -453 0
-2 -20 -32 -39 -50 -63 -79 -90 -103 -110 -119 -128 -141 -155 -166 -176 -185 -206 -219 -230 -233 -242 -258 -270 -284 -295 -302 -311 -327 -334 -346 -365 -375 -387 -396 -402 -413 -434 -444 -448 0
-3 -20 -24 -44 -50 -63 -71 -91 -94 -112 -120 -132 -145 -160 -172 -178 -187 -199 -217 -227 -235 -245 -254 -274 -281 -295 -309 -311 -327 -337 -348 -362 -367 -386 -397 -406 -416 -426 -441 -455 0
-8 -20 -35 -44 -55 -60 -72 -88 -95 -107 -119 -137 -139 -151 -161 -178 -186 -199 -217 -225 -234 -251 -259 -274 -277 -291 -299 -312 -327 -336 -347 -357 -374 -380 -396 -401 -421 -428 -435 -451 0
-2 -20 -34 -37 -49 -62 -77 -84 -93 -108 -127 -133 -147 -157 -167 -174 -193 -203 -209 -222 -241 -250 -258 -268 -285 -298 -300 -319 -327 -340 -344 -364 -367 -384 -398 -401 -414 -431 -440 -456 0
-6 -20 -33 -40 -51 -64 -70 -83 -102 -105 -124 -128 -142 -160 -172 -173 -189 -206 -215 -225 -236 -245 -256 -268 -285 -288 -306 -310 -332 -338 -353 -359 -370 -382 -392 -408 -414 -428 -438 -453 0
-7 -20 -29 -44 -55 -64 -70 -92 -94 -113 -118 -131 -143 -150 -172 -181 -185 -202 -211 -222 -236 -247 -254 -272 -282 -293 -301 -319 -322 -338 -345 -362 -368 -379 -394 -410 -420 -430 -437 -447 0
-4 -20 -35 -36 -52 -68 -72 -82 -98 -112 -117 -135 -144 -157 -165 -183 -184 -199 -214 -228 -232 -250 -255 -274 -284 -294 -300 -321 -323 -338 -348 -364 -374 -388 -396 -409 -422 -430 -445 -451 0
-2 -20 -27 -46 -51 -61 -73 -81 -96 -110 -124 -137 -147 -154 -164 -180 -191 -200 -219 -226 -236 -242 -257 -275 -284 -295 -301 -320 -330 -338 -345 -355 -368 -380 -400 -401 -418 -433 -444 -449 0
-6 -20 -32 -41 -55 -58 -79 -86 -93 -110 -117 -130 -142 -160 -170 -173 -188 -203 -213 -222 -232 -246 -264 -270 -277 -295 -304 -310 -325 -336 -347 -360 -372 -382 -391 -403 -412 -434 -439 -449 0
-12 -20 -26 -44 -48 -63 -78 -91 -99 -107 -116 -133 -142 -156 -170 -176 -188 -197 -214 -228 -234 -242 -262 -267 -278 -294 -302 -320 -322 -335 -351 -360 -372 -386 -392 -408 -417 -424 -441 -455 0
-3 -20 -29 -45 -48 -66 -73 -81 -97 -109 -126 -129 -145 -160 -165 -183 -190 -204 -211 -220 -238 -242 -263 -269 -279 -295 -309 -318 -325 -335 -345 -360 -372 -378 -400 -408 -419 -432 -440 -449 0
-3 -20 -33 -40 -52 -68 -80 -87 -101 -104 -116 -131 -143 -156 -170 -183 -189 -198 -212 -224 -236 -243 -254 -273 -282 -296 -309 -317 -332 -336 -350 -360 -370 -383 -392 -411 -417 -434 -445 -453 0
-5 -21 -35 -44 -52 -62 -79 -83 -100 -109 -117 -128 -146 -151 -168 -176 -185 -198 -214 -225 -231 -247 -262 -274 -277 -288 -308 -319 -323 -334 -346 -361 -371 -386 -396 -402 -413 -427 -437 -447 0
-5 -21 -26 -46 -54 -63 -72 -81 -96 -105 -121 -134 -148 -158 -168 -173 -187 -201 -219 -222 -236 -251 -256 -266 -286 -289 -309 -310 -329 -334 -346 -366 -375 -381 -393 -411 -421 -432 -441 -449 0
-7 -21 -24 -43 -51 -68 -71 -88 -96 -105 -127 -135 -143 -152 -168 -174 -186 -199 -218 -226 -234 -252 -259 -266 -286 -289 -303 -317 -331 -343 -354 -358 -371 -387 -396 -401 -421 -426 -435 -451 0
-7 -21 -27 -36 -54 -64 -71 -82 -100 -106 -126 -130 -146 -160 -168 -176 -190 -198 -209 -221 -234 -243 -263 -268 -286 -297 -306 -321 -322 -337 -345 -357 -371 -384 -392 -402 -421 -431 -445 -453 0
-7 -21 -26 -44 -56 -60 -75 -89 -96 -104 -122 -129 -149 -154 -168 -176 -187 -203 -218 -229 -241 -243 -254 -268 -279 -297 -303 -313 -332 -340 -352 -359 -371 -381 -390 -404 -423 -431 -440 -447 0
-8 -21 -31 -36 -52 -66 -80 -84 -102 -108 -117 -132 -141 -151 -166 -179 -186 -200 -211 -220 -231 -244 -262 -274 -282 -290 -301 -315 -323 -343 -352 -358 -368 -387 -397 -410 -418 -426 -437 -449 0
-3 -21 -30 -38 -49 -63 -76 -86 -101 -105 -119 -128 -148 -160 -172 -179 -187 -202 -219 -227 -233 -242 -257 -269 -282 -297 -304 -314 -322 -336 -354 -357 -369 -379 -392 -407 -422 -429 -443 -447 0
-1 -21 -27 -46 -52 -62 -79 -85 -95 -107 -122 -134 -142 -159 -172 -182 -192 -198 -211 -227 -235 -244 -262 -269 -280 -290 -301 -317 -331 -336 -354 -363 -376 -386 -397 -406 -415 -432 -443 -453 0
-10 -21 -28 -44 -48 -63 -70 -81 -97 -114 -121 -137 -141 -151 -165 -177 -192 -208 -211 -221 -239 -248 -255 -267 -276 -297 -306 -313 -325 -335 -348 -358 -374 -383 -390 -406 -414 -426 -439 -448 0
-12 -21 -25 -41 -52 -62 -77 -85 -96 -108 -117 -134 -148 -155 -164 -182 -192 -200 -209 -228 -235 -243 -259 -273 -278 -289 -301 -316 -331 -343 -351 -360 -368 -384 -393 -411 -414 -424 -435 -453 0
-1 -21 -28 -43 -56 -59 -73 -87 -95 -110 -124 -138 -141 -155 -172 -176 -192 -204 -219 -223 -236 -251 -258 -269 -278 -297 -306 -313 -329 -337 -351 -357 -375 -381 -397 -404 -413 -428 -437 -449 0
-8 -21 -26 -38 -49 -64 -69 -89 -101 -107 -126 -129 -142 -160 -172 -177 -185 -205 -212 -222 -234 -246 -254 -274 -282 -298 -303 -319 -328 -333 -349 -365 -369 -384 -395 -410 -419 -427 -445 -447 0
-3 -21 -29 -36 -50 -60 -75 -92 -101 -108 -123 -129 -148 -156 -167 -183 -186 -205 -218 -229 -236 -243 -254 -269 -280 -296 -303 -313 -329 -336 -353 -366 -374 -388 -394 -403 -423 -432 -445 -450 0
-9 -21 -27 -43 -49 -62 -77 -82 -97 -106 -126 -138 -139 -153 -161 -181 -189 -205 -215 -229 -241 -246 -257 -269 -280 -287 -301 -319 -327 -343 -348 -361 -371 -381 -400 -407 -413 -433 -435 -453 0
-1 -21 -30 -38 -53 -61 -70 -86 -100 -113 -119 -135 -149 -153 -164 -181 -191 -205 -219 -227 -235 -244 -257 -275 -280 -296 -303 -313 -324 -340 -346 -365 -370 -389 -391 -411 -418 -424 -437 -446 0
-2 -21 -30 -43 -48 -61 -74 -81 -97 -113 -127 -130 -144 -159 -171 -182 -186 -205 -213 -221 -236 -246 -258 -269 -276 -295 -309 -313 -324 -335 -344 -360 -372 -388 -396 -407 -417 -432 -437 -449 0
-12 -21 -30 -43 -51 -61 -79 -82 -95 -111 -118 -131 -144 -155 -167 -181 -188 -205 -209 -229 -233 -244 -259 -266 -280 -293 -303 -315 -326 -343 -344 -363 -367 -379 -391 -411 -417 -432 -442 -449 0
-5 -21 -25 -41 -52 -65 -72 -81 -99 -113 -124 -130 -149 -152 -166 -176 -185 -205 -219 -230 -234 -245 -262 -270 -277 -288 -308 -317 -325 -339 -344 -360 -377 -386 -395 -408 -414 -429 -443 -449 0
-7 -21 -34 -46 -53 -63 -70 -81 -98 -105 -118 -133 -142 -159 -172 -181 -185 -205 -211 -226 -236 -245 -263 -265 -280 -287 -303 -313 -325 -340 -352 -363 -371 -383 -391 -409 -419 -429 -439 -446 0
-5 -21 -25 -39 -54 -62 -80 -91 -100 -106 -123 -130 -139 -158 -161 -177 -191 -205 -218 -222 -234 -253 -263 -269 -277 -289 -300 -310 -325 -340 -344 -366 -374 -384 -398 -410 -415 -427 -436 -452 0
-5 -21 -25 -40 -54 -61 -79 -92 -96 -110 -117 -128 -146 -157 -172 -177 -185 -202 -216 -222 -231 -252 -258 -270 -284 -287 -308 -321 -328 -334 -346 -365 -374 -382 -399 -402 -422 -431 -445 -449 0
-8 -21 -28 -42 -56 -65 -70 -92 -96 -108 -124 -128 -143 -151 -162 -177 -185 -200 -216 -225 -233 -252 -254 -270 -284 -287 -302 -320 -328 -334 -351 -365 -369 -383 -399 -411 -422 -429 -444 -449 0
-7 -21 -25 -41 -47 -65 -71 -92 -102 -110 -120 -128 -141 -159 -165 -174 -190 -207 -216 -223 -241 -252 -257 -266 -276 -290 -307 -313 -324 -334 -349 -365 -377 -380 -395 -406 -415 -431 -439 -449 0
-10 -21 -34 -37 -50 -66 -72 -82 -100 -114 -120 -128 -142 -152 -172 -175 -190 -199 -216 -226 -240 -245 -256 -269 -284 -298 -302 -319 -324 -339 -346 -364 -370 -384 -394 -405 -420 -424 -436 -456 0
-10 -21 -34 -38 -51 -58 -70 -92 -101 -108 -115 -132 -144 -153 -161 -177 -188 -200 -216 -226 -233 -253 -263 -267 -284 -296 -303 -319 -326 -336 -348 -357 -377 -383 -397 -401 -421 -427 -445 -450 0
-4 -21 -24 -40 -48 -65 -80 -82 -101 -110 -126 -132 -140 -157 -167 -182 -185 -203 -216 -230 -234 -246 -254 -266 -284 -290 -304 -319 -324 -337 -352 -357 -376 -382 -397 -410 -413 -427 -437 -449 0
-2 -21 -24 -40 -53 -60 -74 -85 -96 -110 -119 -137 -149 -159 -165 -173 -193 -199 -216 -227 -232 -252 -257 -275 -281 -290 -302 -321 -331 -337 -349 -355 -376 -380 -390 -405 -415 -434 -440 -455 0
-10 -21 -28 -46 -54 -60 -74 -81 -96 -113 -121 -129 -142 -152 -163 -176 -187 -208 -216 -227 -239 -243 -264 -267 -281 -292 -302 -311 -331 -340 -346 -365 -377 -381 -393 -407 -421 -431 -440 -456 0
-1 -21 -26 -43 -48 -61 -77 -91 -100 -107 -121 -131 -145 -160 -164 -175 -190 -202 -215 -229 -237 -253 -255 -267 -278 -297 -306 -312 -329 -333 -348 -357 -374 -384 -395 -404 -413 -433 -445 -454 0
-6 -21 -26 -44 -52 -58 -76 -87 -102 -114 -118 -131 -144 -150 -167 -177 -195 -198 -211 -225 -237 -251 -255 -265 -278 -296 -302 -317 -328 -335 -351 -360 -368 -382 -393 -411 -420 -429 -439 -450 0
-3 -21 -29 -36 -49 -65 -77 -88 -102 -108 -121 -138 -143 -151 -167 -175 -193 -201 -214 -222 -237 -252 -255 -268 -276 -288 -306 -310 -329 -343 -344 -359 -374 -382 -393 -403 -421 -431 -441 -453 0
-5 -21 -31 -46 -49 -63 -79 -82 -95 -111 -118 -133 -144 -150 -162 -173 -193 -202 -214 -228 -237 -247 -256 -269 -286 -288 -304 -314 -331 -333 -344 -366 -371 -385 -396 -405 -422 -431 -437 -447 0
-5 -21 -26 -36 -52 -61 -79 -89 -100 -114 -121 -135 -141 -151 -166 -175 -186 -202 -215 -229 -237 -251 -256 -265 -277 -289 -306 -316 -331 -335 -344 -359 -374 -387 -396 -407 -415 -431 -437 -453 0
-4 -21 -25 -42 -56 -61 -73 -84 -93 -106 -122 -134 -149 -159 -171 -177 -194 -200 -211 -226 -237 -243 -254 -269 -278 -287 -299 -317 -326 -337 -352 -360 -376 -384 -397 -405 -423 -427 -438 -453 0
-10 -21 -29 -39 -50 -66 -71 -84 -93 -106 -126 -129 -149 -153 -165 -174 -195 -207 -214 -229 -237 -246 -254 -269 -279 -293 -303 -311 -324 -343 -347 -366 -371 -378 -397 -411 -420 -432 -441 -448 0
-2 -21 -27 -43 -56 -63 -69 -85 -97 -110 -124 -130 -144 -160 -163 -178 -194 -200 -212 -226 -237 -249 -264 -265 -279 -290 -309 -315 -323 -336 -344 -363 -377 -386 -397 -405 -417 -429 -444 -449 0
-8 -21 -26 -38 -53 -68 -72 -88 -96 -104 -116 -138 -142 -159 -171 -177 -188 -200 -209 -229 -232 -243 -260 -268 -279 -298 -301 -317 -326 -343 -351 -360 -375 -385 -393 -411 -420 -426 -441 -448 0
-12 -21 -28 -41 -53 -58 -70 -86 -96 -111 -126 -133 -142 -155 -167 -173 -188 -203 -218 -221 -234 -246 -260 -274 -277 -295 -306 -316 -328 -337 -347 -355 -375 -378 -399 -411 -421 -425 -436 -448 0
-12 -21 -25 -38 -51 -65 -77 -85 -97 -110 -118 -137 -144 -152 -163 -181 -189 -204 -214 -222 -240 -247 -260 -266 -281 -289 -307 -316 -331 -334 -353 -360 -372 -388 -399 -406 -420 -427 -439 -451 0
-3 -21 -27 -40 -51 -58 -77 -88 -97 -104 -123 -137 -149 -156 -171 -173 -189 -204 -214 -225 -234 -252 -260 -267 -277 -296 -300 -321 -329 -338 -348 -356 -372 -378 -399 -408 -413 -425 -437 -454 0
-2 -21 -27 -44 -50 -65 -74 -91 -96 -108 -115 -132 -149 -158 -166 -173 -191 -200 -211 -229 -239 -253 -260 -267 -278 -287 -301 -317 -329 -343 -348 -364 -368 -378 -397 -401 -418 -430 -441 -448 0
-4 -21 -28 -43 -51 -64 -77 -91 -99 -106 -127 -129 -143 -150 -161 -176 -195 -207 -211 -220 -234 -249 -260 -270 -281 -296 -305 -321 -325 -334 -347 -363 -372 -387 -397 -406 -415 -430 -443 -456 0
-8 -21 -30 -43 -49 -66 -71 -82 -102 -106 -120 -130 -149 -150 -162 -181 -185 -201 -215 -227 -241 -246 -254 -271 -280 -296 -300 -313 -327 -340 -348 -356 -369 -384 -391 -404 -422 -430 -445 -453 0
-9 -21 -26 -36 -48 -62 -76 -92 -101 -108 -116 -130 -148 -156 -171 -176 -186 -201 -215 -229 -231 -243 -256 -271 -280 -296 -299 -313 -327 -339 -353 -366 -374 -388 -394 -409 -418 -430 -445 -454 0
-3 -21 -30 -43 -51 -66 -69 -84 -102 -108 -116 -132 -144 -160 -172 -182 -186 -200 -211 -225 -235 -249 -254 -271 -282 -298 -304 -317 -327 -336 -353 -363 -368 -388 -390 -407 -417 -429 -442 -446 0
-5 -21 -28 -41 -53 -68 -73 -88 -94 -111 -117 -130 -149 -150 -165 -178 -185 -196 -212 -230 -239 -243 -259 -271 -279 -298 -304 -312 -329 -336 -347 -356 -375 -389 -396 -402 -412 -431 -438 -456 0
-12 -21 -27 -40 -54 -59 -75 -91 -94 -109 -122 -134 -140 -153 -164 -173 -191 -202 -214 -222 -240 -247 -256 -271 -284 -296 -309 -316 -328 -336 -346 -360 -374 -388 -399 -402 -422 -430 -441 -451 0
-8 -22 -28 -37 -54 -60 -69 -90 -103 -110 -123 -129 -140 -154 -162 -178 -190 -205 -218 -225 -231 -253 -258 -268 -283 -297 -302 -318 -328 -337 -345 -363 -367 -383 -391 -404 -418 -432 -442 -447 0
-10 -22 -28 -44 -48 -63 -80 -81 -94 -107 -121 -136 -140 -154 -169 -176 -186 -197 -212 -227 -234 -246 -262 -265 -286 -287 -302 -318 -325 -339 -344 -365 -372 -389 -398 -402 -412 -426 -443 -449 0
-8 -22 -33 -39 -53 -60 -77 -82 -103 -104 -118 -133 -140 -154 -166 -178 -195 -197 -209 -224 -237 -251 -261 -268 -279 -294 -305 -314 -326 -336 -348 -359 -368 -381 -397 -407 -420 -425 -439 -447 0
-12 -22 -33 -38 -49 -62 -74 -89 -101 -107 -119 -129 -140 -158 -162 -174 -184 -205 -215 -223 -236 -250 -258 -273 -281 -297 -305 -313 -328 -335 -349 -355 -373 -378 -395 -404 -419 -431 -441 -451 0
-5 -22 -31 -46 -54 -63 -78 -86 -93 -109 -118 -129 -140 -158 -169 -173 -188 -198 -210 -224 -232 -249 -262 -275 -282 -292 -309 -310 -325 -334 -345 -362 -370 -385 -394 -403 -414 -428 -440 -453 0
-1 -22 -29 -43 -49 -67 -73 -92 -98 -111 -118 -131 -140 -158 -162 -179 -185 -199 -212 -228 -239 -253 -259 -272 -280 -294 -305 -317 -325 -336 -347 -355 -368 -380 -399 -405 -416 -430 -440 -452 0
-2 -22 -31 -40 -51 -67 -72 -81 -98 -111 -127 -133 -141 -154 -164 -181 -195 -205 -209 -226 -236 -245 -258 -272 -282 -294 -305 -314 -325 -336 -348 -363 -368 -380 -399 -408 -423 -428 -445 -454 0
-11 -22 -25 -42 -57 -62 -74 -84 -93 -108 -117 -134 -141 -156 -171 -175 -184 -201 -213 -222 -232 -249 -255 -270 -283 -288 -299 -319 -328 -340 -350 -366 -376 -385 -396 -405 -423 -432 -445 -447 0
-11 -22 -31 -39 -47 -62 -71 -82 -103 -104 -120 -133 -141 -157 -162 -176 -191 -207 -214 -221 -234 -246 -261 -265 -286 -294 -299 -321 -325 -338 -345 -357 -371 -387 -396 -402 -419 -434 -441 -453 0
-5 -22 -29 -39 -50 -66 -69 -90 -95 -114 -123 -129 -141 -158 -169 -183 -190 -196 -215 -221 -234 -245 -255 -269 -284 -298 -300 -313 -329 -337 -350 -365 -374 -379 -400 -410 -415 -432 -443 -456 0
-12 -22 -28 -43 -48 -64 -78 -86 -94 -107 -122 -135 -142 -152 -163 -180 -189 -201 -215 -220 -237 -249 -258 -267 -284 -295 -305 -313 -328 -335 -346 -358 -373 -378 -399 -404 -422 -430 -444 -454 0
-7 -22 -27 -42 -57 -58 -74 -83 -93 -106 -123 -136 -142 -159 -161 -181 -192 -203 -210 -224 -235 -246 -257 -272 -286 -294 -306 -310 -325 -335 -345 -360 -371 -383 -391 -403 -423 -432 -442 -454 0
-3 -22 -35 -43 -55 -63 -69 -88 -94 -111 -121 -131 -143 -156 -167 -183 -188 -198 -214 -224 -237 -250 -254 -266 -284 -295 -309 -313 -330 -338 -348 -358 -371 -385 -398 -403 -416 -432 -437 -450 0
-3 -22 -33 -41 -53 -58 -72 -86 -103 -111 -119 -128 -143 -158 -172 -181 -191 -199 -217 -225 -234 -242 -259 -271 -279 -289 -306 -318 -329 -336 -344 -365 -369 -379 -396 -403 -417 -430 -436 -452 0
-12 -22 -30 -43 -55 -62 -74 -85 -94 -108 -117 -130 -143 -159 -161 -175 -186 -206 -211 -220 -235 -249 -260 -273 -281 -295 -299 -313 -325 -340 -353 -355 -373 -389 -395 -409 -417 -433 -436 -446 0
-1 -22 -29 -44 -57 -65 -70 -85 -97 -112 -118 -133 -144 -155 -166 -183 -191 -199 -216 -226 -232 -243 -261 -273 -280 -290 -307 -310 -332 -341 -347 -365 -372 -388 -397 -401 -422 -425 -439 -452 0
-5 -22 -31 -41 -47 -67 -72 -82 -101 -107 -127 -128 -144 -158 -161 -183 -191 -203 -217 -222 -234 -248 -262 -271 -277 -288 -307 -321 -328 -333 -350 -357 -371 -384 -391 -401 -422 -427 -439 -449 0
-5 -22 -24 -43 -50 -63 -78 -92 -94 -109 -124 -130 -145 -152 -167 -180 -186 -197 -212 -224 -237 -249 -256 -275 -284 -298 -305 -315 -327 -341 -346 -358 -374 -381 -390 -407 -414 -434 -436 -446 0
-8 -22 -35 -37 -49 -58 -78 -89 -101 -104 -117 -131 -145 -155 -171 -178 -190 -196 -210 -224 -233 -248 -261 -271 -278 -294 -305 -315 -327 -335 -346 -356 -374 -384 -390 -404 -414 -431 -441 -453 0
-7 -22 -35 -36 -47 -63 -77 -82 -96 -108 -123 -136 -145 -155 -165 -179 -190 -196 -215 -230 -233 -250 -262 -266 -278 -294 -305 -312 -327 -334 -348 -357 -372 -378 -397 -409 -414 -431 -441 -454 0
-3 -22 -25 -41 -57 -60 -78 -81 -99 -108 -123 -135 -145 -156 -172 -178 -186 -205 -213 -224 -236 -251 -254 -269 -283 -294 -304 -319 -327 -333 -345 -366 -368 -381 -398 -410 -412 -431 -445 -447 0
-11 -22 -25 -46 -47 -61 -71 -86 -100 -107 -115 -133 -146 -155 -164 -176 -190 -204 -218 -221 -231 -253 -258 -272 -277 -295 -306 -313 -322 -339 -346 -356 -373 -387 -394 -402 -420 -433 -444 -450 0
-9 -22 -24 -43 -49 -62 -70 -92 -98 -111 -116 -130 -147 -154 -162 -175 -192 -196 -218 -226 -233 -250 -264 -269 -282 -292 -301 -317 -330 -336 -353 -355 -377 -386 -392 -406 -417 -427 -445 -452 0
-4 -22 -31 -44 -49 -64 -73 -87 -93 -105 -120 -136 -149 -152 -172 -175 -189 -205 -217 -221 -233 -251 -259 -269 -282 -298 -299 -318 -329 -336 -353 -359 -370 -389 -394 -405 -420 -424 -444 -452 0
-8 -22 -27 -36 -53 -67 -72 -88 -101 -107 -119 -129 -149 -152 -172 -174 -190 -201 -215 -222 -234 -246 -262 -271 -283 -291 -300 -311 -332 -338 -349 -356 -376 -378 -391 -406 -419 -432 -445 -454 0
-1 -22 -31 -40 -54 -67 -75 -84 -96 -109 -117 -131 -149 -157 -167 -183 -186 -203 -211 -221 -239 -243 -260 -272 -280 -290 -304 -310 -332 -341 -346 -358 -376 -380 -390 -403 -423 -434 -440 -453 0
-11 -22 -30 -43 -50 -63 -69 -85 -94 -108 -117 -130 -149 -155 -166 -176 -185 -206 -211 -220 -241 -251 -254 -270 -280 -294 -303 -313 -322 -340 -354 -356 -369 -389 -395 -409 -414 -429 -435 -450 0
-9 -22 -31 -38 -55 -62 -69 -82 -101 -108 -117 -132 -149 -153 -171 -173 -189 -200 -215 -225 -233 -244 -260 -267 -283 -288 -304 -318 -327 -333 -353 -366 -369 -383 -393 -401 -418 -426 -437 -454 0
-1 -22 -30 -44 -55 -65 -70 -85 -99 -107 -122 -131 -149 -155 -172 -176 -191 -206 -211 -224 -236 -251 -260 -269 -278 -297 -301 -317 -327 -335 -347 -355 -373 -382 -392 -401 -416 -434 -438 -447 0
-2 -23 -33 -40 -48 -64 -79 -87 -101 -109 -118 -131 -146 -150 -165 -174 -191 -203 -216 -223 -239 -250 -264 -267 -281 -293 -305 -313 -328 -335 -350 -355 -368 -380 -390 -407 -419 -426 -440 -455 0
-10 -23 -27 -39 -50 -67 -74 -83 -94 -111 -117 -131 -148 -150 -162 -174 -192 -202 -218 -223 -234 -253 -259 -269 -283 -291 -307 -311 -322 -338 -352 -358 -368 -382 -397 -406 -415 -432 -442 -454 0
-6 -23 -26 -45 -51 -65 -73 -82 -101 -110 -118 -137 -142 -150 -166 -176 -185 -207 -216 -223 -241 -245 -255 -272 -282 -290 -306 -310 -331 -335 -350 -363 -369 -387 -395 -406 -420 -427 -444 -449 0
-6 -23 -29 -44 -52 -58 -73 -90 -97 -106 -118 -134 -148 -150 -164 -183 -193 -202 -215 -221 -238 -243 -259 -271 -279 -288 -305 -311 -327 -341 -352 -363 -369 -386 -397 -401 -416 -425 -436 -454 0
-6 -23 -26 -40 -55 -58 -77 -87 -93 -110 -123 -131 -148 -153 -167 -174 -193 -201 -214 -222 -237 -246 -264 -272 -285 -289 -309 -314 -329 -342 -351 -357 -367 -382 -399 -403 -416 -434 -445 -450 0
-9 -23 -31 -44 -47 -61 -78 -82 -99 -113 -119 -128 -143 -153 -165 -182 -188 -198 -216 -230 -239 -246 -256 -272 -282 -292 -301 -314 -328 -341 -345 -364 -376 -389 -392 -411 -417 -424 -436 -446 0
-8 -23 -28 -36 -47 -64 -78 -91 -97 -105 -123 -135 -143 -153 -169 -174 -188 -199 -215 -227 -234 -251 -264 -267 -285 -287 -302 -317 -329 -342 -351 -365 -370 -388 -399 -407 -415 -434 -440 -456 0
-9 -23 -32 -40 -47 -60 -78 -85 -97 -105 -126 -128 -146 -153 -164 -182 -189 -204 -217 -221 -239 -253 -260 -267 -280 -288 -306 -315 -329 -343 -352 -363 -369 -379 -399 -407 -417 -425 -438 -446 0
-9 -23 -25 -38 -53 -66 -70 -85 -93 -108 -121 -137 -147 -153 -164 -180 -193 -202 -216 -222 -241 -247 -256 -274 -282 -290 -301 -310 -331 -336 -349 -363 -373 -388 -399 -402 -422 -427 -439 -456 0
-5 -23 -31 -39 -54 -64 -70 -86 -94 -113 -122 -136 -139 -153 -168 -175 -193 -206 -213 -222 -236 -244 -263 -269 -286 -287 -309 -313 -328 -337 -350 -357 -371 -378 -399 -408 -421 -427 -436 -453 0
-6 -23 -25 -45 -51 -68 -73 -89 -95 -104 -124 -131 -145 -153 -169 -177 -185 -198 -218 -223 -235 -248 -263 -270 -286 -296 -304 -312 -327 -341 -353 -358 -372 -386 -400 -406 -419 -425 -442 -447 0
-5 -23 -25 -39 -51 -64 -69 -89 -101 -106 -121 -136 -148 -153 -166 -180 -192 -200 -213 -228 -239 -245 -256 -275 -285 -290 -302 -319 -331 -333 -348 -358 -369 -386 -400 -402 -415 -427 -438 -453 0
-5 -23 -34 -43 -54 -63 -72 -88 -94 -106 -125 -128 -144 -153 -167 -177 -195 -198 -217 -229 -232 -251 -260 -269 -280 -289 -308 -310 -327 -341 -349 -358 -374 -387 -398 -406 -417 -427 -442 -452 0
-2 -23 -34 -44 -52 -61 -74 -84 -96 -104 -123 -136 -144 -154 -170 -183 -193 -202 -216 -225 -236 -247 -257 -268 -282 -292 -300 -310 -330 -340 -348 -360 -375 -383 -397 -402 -413 -427 -439 -455 0
-6 -23 -30 -45 -53 -63 -69 -91 -101 -105 -117 -130 -144 -154 -162 -176 -188 -205 -217 -229 -241 -251 -259 -268 -282 -293 -303 -318 -322 -336 -351 -365 -368 -380 -393 -409 -420 -428 -435 -451 0
-9 -23 -33 -36 -50 -60 -76 -85 -101 -106 -118 -129 -148 -154 -164 -176 -186 -207 -215 -224 -241 -243 -260 -272 -285 -287 -305 -313 -327 -343 -352 -356 -369 -380 -400 -407 -418 -428 -438 -453 0
-10 -23 -26 -41 -49 -68 -78 -84 -101 -105 -121 -130 -139 -154 -166 -175 -192 -202 -210 -223 -240 -250 -257 -273 -286 -291 -299 -317 -329 -333 -347 -365 -369 -384 -395 -401 -416 -431 -443 -448 0
-10 -23 -33 -40 -48 -58 -77 -87 -93 -109 -117 -137 -141 -154 -171 -177 -192 -202 -212 -222 -234 -246 -255 -272 -285 -289 -300 -320 -325 -340 -344 -360 -376 -379 -395 -411 -414 -426 -445 -449 0
-11 -23 -26 -41 -52 -65 -72 -86 -98 -113 -116 -130 -139 -154 -166 -175 -194 -206 -211 -220 -235 -245 -262 -275 -282 -292 -299 -310 -325 -340 -348 -362 -376 -379 -398 -410 -418 -428 -443 -453 0
-7 -23 -25 -43 -56 -67 -70 -87 -101 -104 -119 -133 -141 -155 -168 -174 -187 -202 -219 -223 -236 -250 -255 -275 -284 -289 -305 -320 -327 -341 -353 -363 -368 -382 -391 -411 -415 -429 -439 -455 0
-7 -23 -24 -41 -47 -66 -71 -89 -102 -107 -125 -129 -145 -155 -167 -179 -190 -199 -210 -230 -238 -244 -262 -274 -280 -291 -309 -316 -331 -338 -349 -359 -367 -387 -396 -402 -415 -427 -441 -449 0
-2 -23 -31 -39 -56 -59 -77 -86 -100 -110 -125 -130 -139 -155 -168 -180 -188 -202 -218 -227 -233 -244 -264 -274 -280 -292 -304 -314 -326 -341 -344 -355 -369 -380 -390 -410 -415 -427 -437 -455 0
-8 -23 -31 -37 -49 -64 -77 -81 -102 -106 -119 -129 -147 -155 -169 -174 -187 -203 -219 -220 -233 -251 -264 -269 -282 -296 -309 -311 -330 -338 -351 -356 -371 -387 -393 -406 -412 -433 -443 -456 0
-7 -23 -34 -37 -51 -58 -76 -81 -97 -110 -117 -135 -147 -155 -165 -182 -195 -204 -214 -221 -239 -243 -260 -268 -283 -293 -307 -311 -326 -338 -346 -356 -373 -382 -399 -402 -420 -433 -443 -447 0
-3 -23 -29 -43 -50 -67 -75 -84 -101 -104 -126 -129 -142 -156 -165 -179 -190 -207 -217 -229 -241 -243 -257 -269 -282 -296 -300 -316 -323 -343 -350 -360 -372 -378 -400 -410 -419 -432 -443 -449 0
-2 -23 -32 -41 -52 -59 -76 -91 -96 -112 -121 -128 -143 -156 -166 -179 -194 -200 -218 -226 -232 -250 -257 -275 -282 -287 -303 -317 -329 -343 -348 -364 -368 -379 -396 -405 -423 -426 -435 -448 0
-2 -23 -33 -43 -51 -66 -75 -86 -102 -107 -119 -128 -143 -156 -166 -175 -189 -208 -217 -222 -232 -253 -260 -270 -284 -289 -299 -310 -331 -339 -353 -358 -373 -389 -398 -411 -412 -428 -439 -451 0
-2 -23 -29 -37 -48 -66 -73 -89 -97 -110 -125 -137 -139 -156 -166 -179 -191 -206 -219 -230 -235 -244 -262 -267 -280 -297 -302 -316 -327 -341 -345 -355 -372 -379 -399 -402 -412 -433 -435 -455 0
-11 -23 -29 -37 -52 -58 -70 -86 -93 -108 -120 -134 -148 -156 -165 -177 -193 -204 -212 -222 -240 -250 -256 -275 -277 -288 -303 -319 -323 -334 -350 -364 -367 -389 -397 -405 -414 -424 -436 -449 0
-2 -23 -31 -44 -48 -68 -72 -83 -99 -110 -115 -131 -147 -157 -167 -174 -193 -200 -216 -223 -236 -250 -257 -274 -286 -287 -305 -311 -327 -334 -353 -364 -373 -389 -394 -402 -416 -426 -437 -455 0
-3 -23 -28 -44 -52 -68 -73 -89 -98 -104 -119 -129 -147 -157 -169 -182 -190 -199 -210 -230 -235 -245 -262 -270 -280 -294 -305 -312 -331 -336 -351 -356 -372 -378 -390 -402 -423 -429 -443 -451 0
-4 -23 -26 -36 -55 -61 -75 -84 -94 -111 -126 -134 -144 -157 -168 -176 -193 -206 -210 -229 -232 -253 -259 -268 -280 -293 -303 -319 -329 -343 -350 -355 -368 -384 -395 -408 -416 -433 -438 -455 0
-4 -23 -30 -38 -55 -61 -73 -91 -95 -104 -124 -129 -146 -157 -163 -178 -195 -206 -216 -220 -235 -249 -263 -273 -280 -287 -299 -320 -330 -337 -353 -363 -370 -388 -396 -411 -420 -432 -442 -448 0
-4 -23 -24 -44 -49 -65 -73 -90 -95 -110 -120 -129 -148 -157 -167 -182 -190 -197 -218 -221 -241 -246 -260 -272 -280 -294 -307 -316 -327 -337 -345 -364 -370 -380 -396 -401 -421 -426 -438 -451 0
-5 -23 -24 -37 -54 -61 -75 -90 -94 -106 -121 -137 -146 -157 -168 -180 -195 -200 -219 -226 -236 -251 -256 -266 -279 -292 -300 -311 -328 -342 -346 -361 -373 -387 -393 -402 -420 -433 -442 -456 0
-6 -23 -30 -40 -54 -58 -70 -81 -96 -112 -126 -134 -142 -157 -167 -174 -186 -208 -216 -227 -239 -243 -261 -268 -286 -296 -304 -314 -330 -335 -349 -358 -376 -386 -400 -403 -421 -425 -442 -449 0
-2 -23 -34 -43 -55 -60 -77 -86 -100 -104 -118 -132 -142 -158 -170 -179 -190 -199 -218 -225 -234 -253 -256 -270 -279 -291 -302 -311 -325 -339 -345 -364 -372 -378 -399 -411 -417 -429 -439 -451 0
-2 -23 -34 -38 -51 -67 -72 -89 -96 -104 -121 -135 -142 -158 -163 -179 -193 -208 -214 -222 -241 -247 -261 -270 -281 -291 -302 -316 -322 -340 -346 -357 -375 -378 -399 -406 -421 -431 -441 -454 0
-3 -23 -31 -44 -50 -60 -78 -87 -102 -109 -116 -131 -139 -158 -162 -183 -192 -199 -217 -225 -236 -247 -262 -270 -285 -292 -302 -312 -328 -333 -345 -357 -376 -380 -400 -403 -418 -428 -438 -456 0
-6 -23 -33 -41 -53 -58 -70 -86 -96 -108 -124 -137 -139 -158 -166 -183 -191 -205 -219 -221 -233 -250 -262 -267 -277 -288 -305 -312 -328 -335 -349 -355 -373 -378 -390 -405 -414 -427 -444 -448 0
-6 -23 -29 -44 -55 -65 -69 -82 -95 -108 -121 -137 -141 -158 -164 -183 -191 -198 -214 -229 -239 -244 -261 -271 -277 -288 -307 -312 -331 -340 -350 -357 -371 -385 -391 -401 -416 -434 -443 -448 0
-7 -23 -34 -41 -55 -65 -69 -82 -101 -106 -118 -131 -143 -158 -169 -183 -185 -203 -210 -223 -234 -252 -262 -267 -282 -292 -300 -317 -331 -337 -350 -355 -370 -384 -395 -401 -421 -430 -436 -448 0
-7 -23 -26 -41 -53 -58 -71 -84 -102 -112 -115 -130 -145 -159 -170 -175 -195 -205 -210 -227 -235 -244 -262 -268 -279 -293 -301 -318 -323 -339 -351 -365 -368 -384 -398 -404 -415 -431 -436 -448 0
-3 -23 -33 -41 -49 -64 -69 -86 -94 -113 -120 -134 -142 -159 -171 -175 -192 -206 -210 -223 -235 -249 -263 -267 -281 -294 -308 -316 -326 -335 -346 -355 -372 -381 -393 -407 -420 -425 -442 -447 0
-6 -23 -26 -43 -55 -58 -73 -91 -93 -108 -122 -133 -141 -159 -166 -179 -195 -206 -211 -222 -235 -244 -262 -266 -285 -290 -302 -320 -323 -334 -353 -359 -372 -384 -398 -403 -423 -433 -436 -450 0
-2 -23 -27 -42 -53 -67 -72 -86 -100 -104 -118 -131 -148 -159 -163 -180 -189 -203 -218 -222 -234 -252 -260 -275 -281 -296 -301 -319 -323 -339 -350 -360 -368 -381 -390 -411 -417 -433 -439 -455 0
11 0
13 0
27 0
39 0
52 0
65 0
79 0
92 0
100 0
106 0
118 0
131 0
144 0
151 0
163 0
175 0
189 0
204 0
212 0
229 0
239 0
249 0
261 0
267 0
276 0
292 0
300 0
315 0
323 0
340 0
350 0
356 0
376 0
386 0
399 0
410 0
413 0
429 0
436 0
452 0
