p cnf 456 10155
1 2 3 4 5 6 7 8 9 10 11 0
-1 -2 0
-1 -3 0
-1 -4 0
-1 -5 0
-1 -6 0
-1 -7 0
-1 -8 0
-1 -9 0
-1 -10 0
-1 -11 0
-2 -3 0
-2 -4 0
-2 -5 0
-2 -6 0
-2 -7 0
-2 -8 0
-2 -9 0
-2 -10 0
-2 -11 0
-3 -4 0
-3 -5 0
-3 -6 0
-3 -7 0
-3 -8 0
-3 -9 0
-3 -10 0
-3 -11 0
-4 -5 0
-4 -6 0
-4 -7 0
-4 -8 0
-4 -9 0
-4 -10 0
-4 -11 0
-5 -6 0
-5 -7 0
-5 -8 0
-5 -9 0
-5 -10 0
-5 -11 0
-6 -7 0
-6 -8 0
-6 -9 0
-6 -10 0
-6 -11 0
-7 -8 0
-7 -9 0
-7 -10 0
-7 -11 0
-8 -9 0
-8 -10 0
-8 -11 0
-9 -10 0
-9 -11 0
-10 -11 0
12 13 14 15 16 17 18 19 20 21 22 0
-12 -13 0
-12 -14 0
-12 -15 0
-12 -16 0
-12 -17 0
-12 -18 0
-12 -19 0
-12 -20 0
-12 -21 0
-12 -22 0
-13 -14 0
-13 -15 0
-13 -16 0
-13 -17 0
-13 -18 0
-13 -19 0
-13 -20 0
-13 -21 0
-13 -22 0
-14 -15 0
-14 -16 0
-14 -17 0
-14 -18 0
-14 -19 0
-14 -20 0
-14 -21 0
-14 -22 0
-15 -16 0
-15 -17 0
-15 -18 0
-15 -19 0
-15 -20 0
-15 -21 0
-15 -22 0
-16 -17 0
-16 -18 0
-16 -19 0
-16 -20 0
-16 -21 0
-16 -22 0
-17 -18 0
-17 -19 0
-17 -20 0
-17 -21 0
-17 -22 0
-18 -19 0
-18 -20 0
-18 -21 0
-18 -22 0
-19 -20 0
-19 -21 0
-19 -22 0
-20 -21 0
-20 -22 0
-21 -22 0
23 24 25 26 27 28 29 30 31 32 33 34 0
-23 -24 0
-23 -25 0
-23 -26 0
-23 -27 0
-23 -28 0
-23 -29 0
-23 -30 0
-23 -31 0
-23 -32 0
-23 -33 0
-23 -34 0
-24 -25 0
-24 -26 0
-24 -27 0
-24 -28 0
-24 -29 0
-24 -30 0
-24 -31 0
-24 -32 0
-24 -33 0
-24 -34 0
-25 -26 0
-25 -27 0
-25 -28 0
-25 -29 0
-25 -30 0
-25 -31 0
-25 -32 0
-25 -33 0
-25 -34 0
-26 -27 0
-26 -28 0
-26 -29 0
-26 -30 0
-26 -31 0
-26 -32 0
-26 -33 0
-26 -34 0
-27 -28 0
-27 -29 0
-27 -30 0
-27 -31 0
-27 -32 0
-27 -33 0
-27 -34 0
-28 -29 0
-28 -30 0
-28 -31 0
-28 -32 0
-28 -33 0
-28 -34 0
-29 -30 0
-29 -31 0
-29 -32 0
-29 -33 0
-29 -34 0
-30 -31 0
-30 -32 0
-30 -33 0
-30 -34 0
-31 -32 0
-31 -33 0
-31 -34 0
-32 -33 0
-32 -34 0
-33 -34 0
35 36 37 38 39 40 41 42 43 44 45 0
-35 -36 0
-35 -37 0
-35 -38 0
-35 -39 0
-35 -40 0
-35 -41 0
-35 -42 0
-35 -43 0
-35 -44 0
-35 -45 0
-36 -37 0
-36 -38 0
-36 -39 0
-36 -40 0
-36 -41 0
-36 -42 0
-36 -43 0
-36 -44 0
-36 -45 0
-37 -38 0
-37 -39 0
-37 -40 0
-37 -41 0
-37 -42 0
-37 -43 0
-37 -44 0
-37 -45 0
-38 -39 0
-38 -40 0
-38 -41 0
-38 -42 0
-38 -43 0
-38 -44 0
-38 -45 0
-39 -40 0
-39 -41 0
-39 -42 0
-39 -43 0
-39 -44 0
-39 -45 0
-40 -41 0
-40 -42 0
-40 -43 0
-40 -44 0
-40 -45 0
-41 -42 0
-41 -43 0
-41 -44 0
-41 -45 0
-42 -43 0
-42 -44 0
-42 -45 0
-43 -44 0
-43 -45 0
-44 -45 0
46 47 48 49 50 51 52 53 54 55 56 0
-46 -47 0
-46 -48 0
-46 -49 0
-46 -50 0
-46 -51 0
-46 -52 0
-46 -53 0
-46 -54 0
-46 -55 0
-46 -56 0
-47 -48 0
-47 -49 0
-47 -50 0
-47 -51 0
-47 -52 0
-47 -53 0
-47 -54 0
-47 -55 0
-47 -56 0
-48 -49 0
-48 -50 0
-48 -51 0
-48 -52 0
-48 -53 0
-48 -54 0
-48 -55 0
-48 -56 0
-49 -50 0
-49 -51 0
-49 -52 0
-49 -53 0
-49 -54 0
-49 -55 0
-49 -56 0
-50 -51 0
-50 -52 0
-50 -53 0
-50 -54 0
-50 -55 0
-50 -56 0
-51 -52 0
-51 -53 0
-51 -54 0
-51 -55 0
-51 -56 0
-52 -53 0
-52 -54 0
-52 -55 0
-52 -56 0
-53 -54 0
-53 -55 0
-53 -56 0
-54 -55 0
-54 -56 0
-55 -56 0
57 58 59 60 61 62 63 64 65 66 67 68 0
-57 -58 0
-57 -59 0
-57 -60 0
-57 -61 0
-57 -62 0
-57 -63 0
-57 -64 0
-57 -65 0
-57 -66 0
-57 -67 0
-57 -68 0
-58 -59 0
-58 -60 0
-58 -61 0
-58 -62 0
-58 -63 0
-58 -64 0
-58 -65 0
-58 -66 0
-58 -67 0
-58 -68 0
-59 -60 0
-59 -61 0
-59 -62 0
-59 -63 0
-59 -64 0
-59 -65 0
-59 -66 0
-59 -67 0
-59 -68 0
-60 -61 0
-60 -62 0
-60 -63 0
-60 -64 0
-60 -65 0
-60 -66 0
-60 -67 0
-60 -68 0
-61 -62 0
-61 -63 0
-61 -64 0
-61 -65 0
-61 -66 0
-61 -67 0
-61 -68 0
-62 -63 0
-62 -64 0
-62 -65 0
-62 -66 0
-62 -67 0
-62 -68 0
-63 -64 0
-63 -65 0
-63 -66 0
-63 -67 0
-63 -68 0
-64 -65 0
-64 -66 0
-64 -67 0
-64 -68 0
-65 -66 0
-65 -67 0
-65 -68 0
-66 -67 0
-66 -68 0
-67 -68 0
69 70 71 72 73 74 75 76 77 78 79 0
-69 -70 0
-69 -71 0
-69 -72 0
-69 -73 0
-69 -74 0
-69 -75 0
-69 -76 0
-69 -77 0
-69 -78 0
-69 -79 0
-70 -71 0
-70 -72 0
-70 -73 0
-70 -74 0
-70 -75 0
-70 -76 0
-70 -77 0
-70 -78 0
-70 -79 0
-71 -72 0
-71 -73 0
-71 -74 0
-71 -75 0
-71 -76 0
-71 -77 0
-71 -78 0
-71 -79 0
-72 -73 0
-72 -74 0
-72 -75 0
-72 -76 0
-72 -77 0
-72 -78 0
-72 -79 0
-73 -74 0
-73 -75 0
-73 -76 0
-73 -77 0
-73 -78 0
-73 -79 0
-74 -75 0
-74 -76 0
-74 -77 0
-74 -78 0
-74 -79 0
-75 -76 0
-75 -77 0
-75 -78 0
-75 -79 0
-76 -77 0
-76 -78 0
-76 -79 0
-77 -78 0
-77 -79 0
-78 -79 0
80 81 82 83 84 85 86 87 88 89 90 0
-80 -81 0
-80 -82 0
-80 -83 0
-80 -84 0
-80 -85 0
-80 -86 0
-80 -87 0
-80 -88 0
-80 -89 0
-80 -90 0
-81 -82 0
-81 -83 0
-81 -84 0
-81 -85 0
-81 -86 0
-81 -87 0
-81 -88 0
-81 -89 0
-81 -90 0
-82 -83 0
-82 -84 0
-82 -85 0
-82 -86 0
-82 -87 0
-82 -88 0
-82 -89 0
-82 -90 0
-83 -84 0
-83 -85 0
-83 -86 0
-83 -87 0
-83 -88 0
-83 -89 0
-83 -90 0
-84 -85 0
-84 -86 0
-84 -87 0
-84 -88 0
-84 -89 0
-84 -90 0
-85 -86 0
-85 -87 0
-85 -88 0
-85 -89 0
-85 -90 0
-86 -87 0
-86 -88 0
-86 -89 0
-86 -90 0
-87 -88 0
-87 -89 0
-87 -90 0
-88 -89 0
-88 -90 0
-89 -90 0
91 92 93 94 95 96 97 98 99 100 101 102 0
-91 -92 0
-91 -93 0
-91 -94 0
-91 -95 0
-91 -96 0
-91 -97 0
-91 -98 0
-91 -99 0
-91 -100 0
-91 -101 0
-91 -102 0
-92 -93 0
-92 -94 0
-92 -95 0
-92 -96 0
-92 -97 0
-92 -98 0
-92 -99 0
-92 -100 0
-92 -101 0
-92 -102 0
-93 -94 0
-93 -95 0
-93 -96 0
-93 -97 0
-93 -98 0
-93 -99 0
-93 -100 0
-93 -101 0
-93 -102 0
-94 -95 0
-94 -96 0
-94 -97 0
-94 -98 0
-94 -99 0
-94 -100 0
-94 -101 0
-94 -102 0
-95 -96 0
-95 -97 0
-95 -98 0
-95 -99 0
-95 -100 0
-95 -101 0
-95 -102 0
-96 -97 0
-96 -98 0
-96 -99 0
-96 -100 0
-96 -101 0
-96 -102 0
-97 -98 0
-97 -99 0
-97 -100 0
-97 -101 0
-97 -102 0
-98 -99 0
-98 -100 0
-98 -101 0
-98 -102 0
-99 -100 0
-99 -101 0
-99 -102 0
-100 -101 0
-100 -102 0
-101 -102 0
103 104 105 106 107 108 109 110 111 112 113 114 0
-103 -104 0
-103 -105 0
-103 -106 0
-103 -107 0
-103 -108 0
-103 -109 0
-103 -110 0
-103 -111 0
-103 -112 0
-103 -113 0
-103 -114 0
-104 -105 0
-104 -106 0
-104 -107 0
-104 -108 0
-104 -109 0
-104 -110 0
-104 -111 0
-104 -112 0
-104 -113 0
-104 -114 0
-105 -106 0
-105 -107 0
-105 -108 0
-105 -109 0
-105 -110 0
-105 -111 0
-105 -112 0
-105 -113 0
-105 -114 0
-106 -107 0
-106 -108 0
-106 -109 0
-106 -110 0
-106 -111 0
-106 -112 0
-106 -113 0
-106 -114 0
-107 -108 0
-107 -109 0
-107 -110 0
-107 -111 0
-107 -112 0
-107 -113 0
-107 -114 0
-108 -109 0
-108 -110 0
-108 -111 0
-108 -112 0
-108 -113 0
-108 -114 0
-109 -110 0
-109 -111 0
-109 -112 0
-109 -113 0
-109 -114 0
-110 -111 0
-110 -112 0
-110 -113 0
-110 -114 0
-111 -112 0
-111 -113 0
-111 -114 0
-112 -113 0
-112 -114 0
-113 -114 0
115 116 117 118 119 120 121 122 123 124 125 0
-115 -116 0
-115 -117 0
-115 -118 0
-115 -119 0
-115 -120 0
-115 -121 0
-115 -122 0
-115 -123 0
-115 -124 0
-115 -125 0
-116 -117 0
-116 -118 0
-116 -119 0
-116 -120 0
-116 -121 0
-116 -122 0
-116 -123 0
-116 -124 0
-116 -125 0
-117 -118 0
-117 -119 0
-117 -120 0
-117 -121 0
-117 -122 0
-117 -123 0
-117 -124 0
-117 -125 0
-118 -119 0
-118 -120 0
-118 -121 0
-118 -122 0
-118 -123 0
-118 -124 0
-118 -125 0
-119 -120 0
-119 -121 0
-119 -122 0
-119 -123 0
-119 -124 0
-119 -125 0
-120 -121 0
-120 -122 0
-120 -123 0
-120 -124 0
-120 -125 0
-121 -122 0
-121 -123 0
-121 -124 0
-121 -125 0
-122 -123 0
-122 -124 0
-122 -125 0
-123 -124 0
-123 -125 0
-124 -125 0
126 127 128 129 130 131 132 133 134 135 136 0
-126 -127 0
-126 -128 0
-126 -129 0
-126 -130 0
-126 -131 0
-126 -132 0
-126 -133 0
-126 -134 0
-126 -135 0
-126 -136 0
-127 -128 0
-127 -129 0
-127 -130 0
-127 -131 0
-127 -132 0
-127 -133 0
-127 -134 0
-127 -135 0
-127 -136 0
-128 -129 0
-128 -130 0
-128 -131 0
-128 -132 0
-128 -133 0
-128 -134 0
-128 -135 0
-128 -136 0
-129 -130 0
-129 -131 0
-129 -132 0
-129 -133 0
-129 -134 0
-129 -135 0
-129 -136 0
-130 -131 0
-130 -132 0
-130 -133 0
-130 -134 0
-130 -135 0
-130 -136 0
-131 -132 0
-131 -133 0
-131 -134 0
-131 -135 0
-131 -136 0
-132 -133 0
-132 -134 0
-132 -135 0
-132 -136 0
-133 -134 0
-133 -135 0
-133 -136 0
-134 -135 0
-134 -136 0
-135 -136 0
137 138 139 140 141 142 143 144 145 146 147 0
-137 -138 0
-137 -139 0
-137 -140 0
-137 -141 0
-137 -142 0
-137 -143 0
-137 -144 0
-137 -145 0
-137 -146 0
-137 -147 0
-138 -139 0
-138 -140 0
-138 -141 0
-138 -142 0
-138 -143 0
-138 -144 0
-138 -145 0
-138 -146 0
-138 -147 0
-139 -140 0
-139 -141 0
-139 -142 0
-139 -143 0
-139 -144 0
-139 -145 0
-139 -146 0
-139 -147 0
-140 -141 0
-140 -142 0
-140 -143 0
-140 -144 0
-140 -145 0
-140 -146 0
-140 -147 0
-141 -142 0
-141 -143 0
-141 -144 0
-141 -145 0
-141 -146 0
-141 -147 0
-142 -143 0
-142 -144 0
-142 -145 0
-142 -146 0
-142 -147 0
-143 -144 0
-143 -145 0
-143 -146 0
-143 -147 0
-144 -145 0
-144 -146 0
-144 -147 0
-145 -146 0
-145 -147 0
-146 -147 0
148 149 150 151 152 153 154 155 156 157 158 159 0
-148 -149 0
-148 -150 0
-148 -151 0
-148 -152 0
-148 -153 0
-148 -154 0
-148 -155 0
-148 -156 0
-148 -157 0
-148 -158 0
-148 -159 0
-149 -150 0
-149 -151 0
-149 -152 0
-149 -153 0
-149 -154 0
-149 -155 0
-149 -156 0
-149 -157 0
-149 -158 0
-149 -159 0
-150 -151 0
-150 -152 0
-150 -153 0
-150 -154 0
-150 -155 0
-150 -156 0
-150 -157 0
-150 -158 0
-150 -159 0
-151 -152 0
-151 -153 0
-151 -154 0
-151 -155 0
-151 -156 0
-151 -157 0
-151 -158 0
-151 -159 0
-152 -153 0
-152 -154 0
-152 -155 0
-152 -156 0
-152 -157 0
-152 -158 0
-152 -159 0
-153 -154 0
-153 -155 0
-153 -156 0
-153 -157 0
-153 -158 0
-153 -159 0
-154 -155 0
-154 -156 0
-154 -157 0
-154 -158 0
-154 -159 0
-155 -156 0
-155 -157 0
-155 -158 0
-155 -159 0
-156 -157 0
-156 -158 0
-156 -159 0
-157 -158 0
-157 -159 0
-158 -159 0
160 161 162 163 164 165 166 167 168 169 170 0
-160 -161 0
-160 -162 0
-160 -163 0
-160 -164 0
-160 -165 0
-160 -166 0
-160 -167 0
-160 -168 0
-160 -169 0
-160 -170 0
-161 -162 0
-161 -163 0
-161 -164 0
-161 -165 0
-161 -166 0
-161 -167 0
-161 -168 0
-161 -169 0
-161 -170 0
-162 -163 0
-162 -164 0
-162 -165 0
-162 -166 0
-162 -167 0
-162 -168 0
-162 -169 0
-162 -170 0
-163 -164 0
-163 -165 0
-163 -166 0
-163 -167 0
-163 -168 0
-163 -169 0
-163 -170 0
-164 -165 0
-164 -166 0
-164 -167 0
-164 -168 0
-164 -169 0
-164 -170 0
-165 -166 0
-165 -167 0
-165 -168 0
-165 -169 0
-165 -170 0
-166 -167 0
-166 -168 0
-166 -169 0
-166 -170 0
-167 -168 0
-167 -169 0
-167 -170 0
-168 -169 0
-168 -170 0
-169 -170 0
171 172 173 174 175 176 177 178 179 180 181 182 0
-171 -172 0
-171 -173 0
-171 -174 0
-171 -175 0
-171 -176 0
-171 -177 0
-171 -178 0
-171 -179 0
-171 -180 0
-171 -181 0
-171 -182 0
-172 -173 0
-172 -174 0
-172 -175 0
-172 -176 0
-172 -177 0
-172 -178 0
-172 -179 0
-172 -180 0
-172 -181 0
-172 -182 0
-173 -174 0
-173 -175 0
-173 -176 0
-173 -177 0
-173 -178 0
-173 -179 0
-173 -180 0
-173 -181 0
-173 -182 0
-174 -175 0
-174 -176 0
-174 -177 0
-174 -178 0
-174 -179 0
-174 -180 0
-174 -181 0
-174 -182 0
-175 -176 0
-175 -177 0
-175 -178 0
-175 -179 0
-175 -180 0
-175 -181 0
-175 -182 0
-176 -177 0
-176 -178 0
-176 -179 0
-176 -180 0
-176 -181 0
-176 -182 0
-177 -178 0
-177 -179 0
-177 -180 0
-177 -181 0
-177 -182 0
-178 -179 0
-178 -180 0
-178 -181 0
-178 -182 0
-179 -180 0
-179 -181 0
-179 -182 0
-180 -181 0
-180 -182 0
-181 -182 0
183 184 185 186 187 188 189 190 191 192 193 194 0
-183 -184 0
-183 -185 0
-183 -186 0
-183 -187 0
-183 -188 0
-183 -189 0
-183 -190 0
-183 -191 0
-183 -192 0
-183 -193 0
-183 -194 0
-184 -185 0
-184 -186 0
-184 -187 0
-184 -188 0
-184 -189 0
-184 -190 0
-184 -191 0
-184 -192 0
-184 -193 0
-184 -194 0
-185 -186 0
-185 -187 0
-185 -188 0
-185 -189 0
-185 -190 0
-185 -191 0
-185 -192 0
-185 -193 0
-185 -194 0
-186 -187 0
-186 -188 0
-186 -189 0
-186 -190 0
-186 -191 0
-186 -192 0
-186 -193 0
-186 -194 0
-187 -188 0
-187 -189 0
-187 -190 0
-187 -191 0
-187 -192 0
-187 -193 0
-187 -194 0
-188 -189 0
-188 -190 0
-188 -191 0
-188 -192 0
-188 -193 0
-188 -194 0
-189 -190 0
-189 -191 0
-189 -192 0
-189 -193 0
-189 -194 0
-190 -191 0
-190 -192 0
-190 -193 0
-190 -194 0
-191 -192 0
-191 -193 0
-191 -194 0
-192 -193 0
-192 -194 0
-193 -194 0
195 196 197 198 199 200 201 202 203 204 205 206 0
-195 -196 0
-195 -197 0
-195 -198 0
-195 -199 0
-195 -200 0
-195 -201 0
-195 -202 0
-195 -203 0
-195 -204 0
-195 -205 0
-195 -206 0
-196 -197 0
-196 -198 0
-196 -199 0
-196 -200 0
-196 -201 0
-196 -202 0
-196 -203 0
-196 -204 0
-196 -205 0
-196 -206 0
-197 -198 0
-197 -199 0
-197 -200 0
-197 -201 0
-197 -202 0
-197 -203 0
-197 -204 0
-197 -205 0
-197 -206 0
-198 -199 0
-198 -200 0
-198 -201 0
-198 -202 0
-198 -203 0
-198 -204 0
-198 -205 0
-198 -206 0
-199 -200 0
-199 -201 0
-199 -202 0
-199 -203 0
-199 -204 0
-199 -205 0
-199 -206 0
-200 -201 0
-200 -202 0
-200 -203 0
-200 -204 0
-200 -205 0
-200 -206 0
-201 -202 0
-201 -203 0
-201 -204 0
-201 -205 0
-201 -206 0
-202 -203 0
-202 -204 0
-202 -205 0
-202 -206 0
-203 -204 0
-203 -205 0
-203 -206 0
-204 -205 0
-204 -206 0
-205 -206 0
207 208 209 210 211 212 213 214 215 216 217 0
-207 -208 0
-207 -209 0
-207 -210 0
-207 -211 0
-207 -212 0
-207 -213 0
-207 -214 0
-207 -215 0
-207 -216 0
-207 -217 0
-208 -209 0
-208 -210 0
-208 -211 0
-208 -212 0
-208 -213 0
-208 -214 0
-208 -215 0
-208 -216 0
-208 -217 0
-209 -210 0
-209 -211 0
-209 -212 0
-209 -213 0
-209 -214 0
-209 -215 0
-209 -216 0
-209 -217 0
-210 -211 0
-210 -212 0
-210 -213 0
-210 -214 0
-210 -215 0
-210 -216 0
-210 -217 0
-211 -212 0
-211 -213 0
-211 -214 0
-211 -215 0
-211 -216 0
-211 -217 0
-212 -213 0
-212 -214 0
-212 -215 0
-212 -216 0
-212 -217 0
-213 -214 0
-213 -215 0
-213 -216 0
-213 -217 0
-214 -215 0
-214 -216 0
-214 -217 0
-215 -216 0
-215 -217 0
-216 -217 0
218 219 220 221 222 223 224 225 226 227 228 229 0
-218 -219 0
-218 -220 0
-218 -221 0
-218 -222 0
-218 -223 0
-218 -224 0
-218 -225 0
-218 -226 0
-218 -227 0
-218 -228 0
-218 -229 0
-219 -220 0
-219 -221 0
-219 -222 0
-219 -223 0
-219 -224 0
-219 -225 0
-219 -226 0
-219 -227 0
-219 -228 0
-219 -229 0
-220 -221 0
-220 -222 0
-220 -223 0
-220 -224 0
-220 -225 0
-220 -226 0
-220 -227 0
-220 -228 0
-220 -229 0
-221 -222 0
-221 -223 0
-221 -224 0
-221 -225 0
-221 -226 0
-221 -227 0
-221 -228 0
-221 -229 0
-222 -223 0
-222 -224 0
-222 -225 0
-222 -226 0
-222 -227 0
-222 -228 0
-222 -229 0
-223 -224 0
-223 -225 0
-223 -226 0
-223 -227 0
-223 -228 0
-223 -229 0
-224 -225 0
-224 -226 0
-224 -227 0
-224 -228 0
-224 -229 0
-225 -226 0
-225 -227 0
-225 -228 0
-225 -229 0
-226 -227 0
-226 -228 0
-226 -229 0
-227 -228 0
-227 -229 0
-228 -229 0
230 231 232 233 234 235 236 237 238 239 240 0
-230 -231 0
-230 -232 0
-230 -233 0
-230 -234 0
-230 -235 0
-230 -236 0
-230 -237 0
-230 -238 0
-230 -239 0
-230 -240 0
-231 -232 0
-231 -233 0
-231 -234 0
-231 -235 0
-231 -236 0
-231 -237 0
-231 -238 0
-231 -239 0
-231 -240 0
-232 -233 0
-232 -234 0
-232 -235 0
-232 -236 0
-232 -237 0
-232 -238 0
-232 -239 0
-232 -240 0
-233 -234 0
-233 -235 0
-233 -236 0
-233 -237 0
-233 -238 0
-233 -239 0
-233 -240 0
-234 -235 0
-234 -236 0
-234 -237 0
-234 -238 0
-234 -239 0
-234 -240 0
-235 -236 0
-235 -237 0
-235 -238 0
-235 -239 0
-235 -240 0
-236 -237 0
-236 -238 0
-236 -239 0
-236 -240 0
-237 -238 0
-237 -239 0
-237 -240 0
-238 -239 0
-238 -240 0
-239 -240 0
241 242 243 244 245 246 247 248 249 250 251 252 0
-241 -242 0
-241 -243 0
-241 -244 0
-241 -245 0
-241 -246 0
-241 -247 0
-241 -248 0
-241 -249 0
-241 -250 0
-241 -251 0
-241 -252 0
-242 -243 0
-242 -244 0
-242 -245 0
-242 -246 0
-242 -247 0
-242 -248 0
-242 -249 0
-242 -250 0
-242 -251 0
-242 -252 0
-243 -244 0
-243 -245 0
-243 -246 0
-243 -247 0
-243 -248 0
-243 -249 0
-243 -250 0
-243 -251 0
-243 -252 0
-244 -245 0
-244 -246 0
-244 -247 0
-244 -248 0
-244 -249 0
-244 -250 0
-244 -251 0
-244 -252 0
-245 -246 0
-245 -247 0
-245 -248 0
-245 -249 0
-245 -250 0
-245 -251 0
-245 -252 0
-246 -247 0
-246 -248 0
-246 -249 0
-246 -250 0
-246 -251 0
-246 -252 0
-247 -248 0
-247 -249 0
-247 -250 0
-247 -251 0
-247 -252 0
-248 -249 0
-248 -250 0
-248 -251 0
-248 -252 0
-249 -250 0
-249 -251 0
-249 -252 0
-250 -251 0
-250 -252 0
-251 -252 0
253 254 255 256 257 258 259 260 261 262 263 0
-253 -254 0
-253 -255 0
-253 -256 0
-253 -257 0
-253 -258 0
-253 -259 0
-253 -260 0
-253 -261 0
-253 -262 0
-253 -263 0
-254 -255 0
-254 -256 0
-254 -257 0
-254 -258 0
-254 -259 0
-254 -260 0
-254 -261 0
-254 -262 0
-254 -263 0
-255 -256 0
-255 -257 0
-255 -258 0
-255 -259 0
-255 -260 0
-255 -261 0
-255 -262 0
-255 -263 0
-256 -257 0
-256 -258 0
-256 -259 0
-256 -260 0
-256 -261 0
-256 -262 0
-256 -263 0
-257 -258 0
-257 -259 0
-257 -260 0
-257 -261 0
-257 -262 0
-257 -263 0
-258 -259 0
-258 -260 0
-258 -261 0
-258 -262 0
-258 -263 0
-259 -260 0
-259 -261 0
-259 -262 0
-259 -263 0
-260 -261 0
-260 -262 0
-260 -263 0
-261 -262 0
-261 -263 0
-262 -263 0
264 265 266 267 268 269 270 271 272 273 274 0
-264 -265 0
-264 -266 0
-264 -267 0
-264 -268 0
-264 -269 0
-264 -270 0
-264 -271 0
-264 -272 0
-264 -273 0
-264 -274 0
-265 -266 0
-265 -267 0
-265 -268 0
-265 -269 0
-265 -270 0
-265 -271 0
-265 -272 0
-265 -273 0
-265 -274 0
-266 -267 0
-266 -268 0
-266 -269 0
-266 -270 0
-266 -271 0
-266 -272 0
-266 -273 0
-266 -274 0
-267 -268 0
-267 -269 0
-267 -270 0
-267 -271 0
-267 -272 0
-267 -273 0
-267 -274 0
-268 -269 0
-268 -270 0
-268 -271 0
-268 -272 0
-268 -273 0
-268 -274 0
-269 -270 0
-269 -271 0
-269 -272 0
-269 -273 0
-269 -274 0
-270 -271 0
-270 -272 0
-270 -273 0
-270 -274 0
-271 -272 0
-271 -273 0
-271 -274 0
-272 -273 0
-272 -274 0
-273 -274 0
275 276 277 278 279 280 281 282 283 284 285 0
-275 -276 0
-275 -277 0
-275 -278 0
-275 -279 0
-275 -280 0
-275 -281 0
-275 -282 0
-275 -283 0
-275 -284 0
-275 -285 0
-276 -277 0
-276 -278 0
-276 -279 0
-276 -280 0
-276 -281 0
-276 -282 0
-276 -283 0
-276 -284 0
-276 -285 0
-277 -278 0
-277 -279 0
-277 -280 0
-277 -281 0
-277 -282 0
-277 -283 0
-277 -284 0
-277 -285 0
-278 -279 0
-278 -280 0
-278 -281 0
-278 -282 0
-278 -283 0
-278 -284 0
-278 -285 0
-279 -280 0
-279 -281 0
-279 -282 0
-279 -283 0
-279 -284 0
-279 -285 0
-280 -281 0
-280 -282 0
-280 -283 0
-280 -284 0
-280 -285 0
-281 -282 0
-281 -283 0
-281 -284 0
-281 -285 0
-282 -283 0
-282 -284 0
-282 -285 0
-283 -284 0
-283 -285 0
-284 -285 0
286 287 288 289 290 291 292 293 294 295 296 297 0
-286 -287 0
-286 -288 0
-286 -289 0
-286 -290 0
-286 -291 0
-286 -292 0
-286 -293 0
-286 -294 0
-286 -295 0
-286 -296 0
-286 -297 0
-287 -288 0
-287 -289 0
-287 -290 0
-287 -291 0
-287 -292 0
-287 -293 0
-287 -294 0
-287 -295 0
-287 -296 0
-287 -297 0
-288 -289 0
-288 -290 0
-288 -291 0
-288 -292 0
-288 -293 0
-288 -294 0
-288 -295 0
-288 -296 0
-288 -297 0
-289 -290 0
-289 -291 0
-289 -292 0
-289 -293 0
-289 -294 0
-289 -295 0
-289 -296 0
-289 -297 0
-290 -291 0
-290 -292 0
-290 -293 0
-290 -294 0
-290 -295 0
-290 -296 0
-290 -297 0
-291 -292 0
-291 -293 0
-291 -294 0
-291 -295 0
-291 -296 0
-291 -297 0
-292 -293 0
-292 -294 0
-292 -295 0
-292 -296 0
-292 -297 0
-293 -294 0
-293 -295 0
-293 -296 0
-293 -297 0
-294 -295 0
-294 -296 0
-294 -297 0
-295 -296 0
-295 -297 0
-296 -297 0
298 299 300 301 302 303 304 305 306 307 308 0
-298 -299 0
-298 -300 0
-298 -301 0
-298 -302 0
-298 -303 0
-298 -304 0
-298 -305 0
-298 -306 0
-298 -307 0
-298 -308 0
-299 -300 0
-299 -301 0
-299 -302 0
-299 -303 0
-299 -304 0
-299 -305 0
-299 -306 0
-299 -307 0
-299 -308 0
-300 -301 0
-300 -302 0
-300 -303 0
-300 -304 0
-300 -305 0
-300 -306 0
-300 -307 0
-300 -308 0
-301 -302 0
-301 -303 0
-301 -304 0
-301 -305 0
-301 -306 0
-301 -307 0
-301 -308 0
-302 -303 0
-302 -304 0
-302 -305 0
-302 -306 0
-302 -307 0
-302 -308 0
-303 -304 0
-303 -305 0
-303 -306 0
-303 -307 0
-303 -308 0
-304 -305 0
-304 -306 0
-304 -307 0
-304 -308 0
-305 -306 0
-305 -307 0
-305 -308 0
-306 -307 0
-306 -308 0
-307 -308 0
309 310 311 312 313 314 315 316 317 318 319 320 0
-309 -310 0
-309 -311 0
-309 -312 0
-309 -313 0
-309 -314 0
-309 -315 0
-309 -316 0
-309 -317 0
-309 -318 0
-309 -319 0
-309 -320 0
-310 -311 0
-310 -312 0
-310 -313 0
-310 -314 0
-310 -315 0
-310 -316 0
-310 -317 0
-310 -318 0
-310 -319 0
-310 -320 0
-311 -312 0
-311 -313 0
-311 -314 0
-311 -315 0
-311 -316 0
-311 -317 0
-311 -318 0
-311 -319 0
-311 -320 0
-312 -313 0
-312 -314 0
-312 -315 0
-312 -316 0
-312 -317 0
-312 -318 0
-312 -319 0
-312 -320 0
-313 -314 0
-313 -315 0
-313 -316 0
-313 -317 0
-313 -318 0
-313 -319 0
-313 -320 0
-314 -315 0
-314 -316 0
-314 -317 0
-314 -318 0
-314 -319 0
-314 -320 0
-315 -316 0
-315 -317 0
-315 -318 0
-315 -319 0
-315 -320 0
-316 -317 0
-316 -318 0
-316 -319 0
-316 -320 0
-317 -318 0
-317 -319 0
-317 -320 0
-318 -319 0
-318 -320 0
-319 -320 0
321 322 323 324 325 326 327 328 329 330 331 0
-321 -322 0
-321 -323 0
-321 -324 0
-321 -325 0
-321 -326 0
-321 -327 0
-321 -328 0
-321 -329 0
-321 -330 0
-321 -331 0
-322 -323 0
-322 -324 0
-322 -325 0
-322 -326 0
-322 -327 0
-322 -328 0
-322 -329 0
-322 -330 0
-322 -331 0
-323 -324 0
-323 -325 0
-323 -326 0
-323 -327 0
-323 -328 0
-323 -329 0
-323 -330 0
-323 -331 0
-324 -325 0
-324 -326 0
-324 -327 0
-324 -328 0
-324 -329 0
-324 -330 0
-324 -331 0
-325 -326 0
-325 -327 0
-325 -328 0
-325 -329 0
-325 -330 0
-325 -331 0
-326 -327 0
-326 -328 0
-326 -329 0
-326 -330 0
-326 -331 0
-327 -328 0
-327 -329 0
-327 -330 0
-327 -331 0
-328 -329 0
-328 -330 0
-328 -331 0
-329 -330 0
-329 -331 0
-330 -331 0
332 333 334 335 336 337 338 339 340 341 342 0
-332 -333 0
-332 -334 0
-332 -335 0
-332 -336 0
-332 -337 0
-332 -338 0
-332 -339 0
-332 -340 0
-332 -341 0
-332 -342 0
-333 -334 0
-333 -335 0
-333 -336 0
-333 -337 0
-333 -338 0
-333 -339 0
-333 -340 0
-333 -341 0
-333 -342 0
-334 -335 0
-334 -336 0
-334 -337 0
-334 -338 0
-334 -339 0
-334 -340 0
-334 -341 0
-334 -342 0
-335 -336 0
-335 -337 0
-335 -338 0
-335 -339 0
-335 -340 0
-335 -341 0
-335 -342 0
-336 -337 0
-336 -338 0
-336 -339 0
-336 -340 0
-336 -341 0
-336 -342 0
-337 -338 0
-337 -339 0
-337 -340 0
-337 -341 0
-337 -342 0
-338 -339 0
-338 -340 0
-338 -341 0
-338 -342 0
-339 -340 0
-339 -341 0
-339 -342 0
-340 -341 0
-340 -342 0
-341 -342 0
343 344 345 346 347 348 349 350 351 352 353 0
-343 -344 0
-343 -345 0
-343 -346 0
-343 -347 0
-343 -348 0
-343 -349 0
-343 -350 0
-343 -351 0
-343 -352 0
-343 -353 0
-344 -345 0
-344 -346 0
-344 -347 0
-344 -348 0
-344 -349 0
-344 -350 0
-344 -351 0
-344 -352 0
-344 -353 0
-345 -346 0
-345 -347 0
-345 -348 0
-345 -349 0
-345 -350 0
-345 -351 0
-345 -352 0
-345 -353 0
-346 -347 0
-346 -348 0
-346 -349 0
-346 -350 0
-346 -351 0
-346 -352 0
-346 -353 0
-347 -348 0
-347 -349 0
-347 -350 0
-347 -351 0
-347 -352 0
-347 -353 0
-348 -349 0
-348 -350 0
-348 -351 0
-348 -352 0
-348 -353 0
-349 -350 0
-349 -351 0
-349 -352 0
-349 -353 0
-350 -351 0
-350 -352 0
-350 -353 0
-351 -352 0
-351 -353 0
-352 -353 0
354 355 356 357 358 359 360 361 362 363 364 0
-354 -355 0
-354 -356 0
-354 -357 0
-354 -358 0
-354 -359 0
-354 -360 0
-354 -361 0
-354 -362 0
-354 -363 0
-354 -364 0
-355 -356 0
-355 -357 0
-355 -358 0
-355 -359 0
-355 -360 0
-355 -361 0
-355 -362 0
-355 -363 0
-355 -364 0
-356 -357 0
-356 -358 0
-356 -359 0
-356 -360 0
-356 -361 0
-356 -362 0
-356 -363 0
-356 -364 0
-357 -358 0
-357 -359 0
-357 -360 0
-357 -361 0
-357 -362 0
-357 -363 0
-357 -364 0
-358 -359 0
-358 -360 0
-358 -361 0
-358 -362 0
-358 -363 0
-358 -364 0
-359 -360 0
-359 -361 0
-359 -362 0
-359 -363 0
-359 -364 0
-360 -361 0
-360 -362 0
-360 -363 0
-360 -364 0
-361 -362 0
-361 -363 0
-361 -364 0
-362 -363 0
-362 -364 0
-363 -364 0
365 366 367 368 369 370 371 372 373 374 375 0
-365 -366 0
-365 -367 0
-365 -368 0
-365 -369 0
-365 -370 0
-365 -371 0
-365 -372 0
-365 -373 0
-365 -374 0
-365 -375 0
-366 -367 0
-366 -368 0
-366 -369 0
-366 -370 0
-366 -371 0
-366 -372 0
-366 -373 0
-366 -374 0
-366 -375 0
-367 -368 0
-367 -369 0
-367 -370 0
-367 -371 0
-367 -372 0
-367 -373 0
-367 -374 0
-367 -375 0
-368 -369 0
-368 -370 0
-368 -371 0
-368 -372 0
-368 -373 0
-368 -374 0
-368 -375 0
-369 -370 0
-369 -371 0
-369 -372 0
-369 -373 0
-369 -374 0
-369 -375 0
-370 -371 0
-370 -372 0
-370 -373 0
-370 -374 0
-370 -375 0
-371 -372 0
-371 -373 0
-371 -374 0
-371 -375 0
-372 -373 0
-372 -374 0
-372 -375 0
-373 -374 0
-373 -375 0
-374 -375 0
376 377 378 379 380 381 382 383 384 385 386 387 0
-376 -377 0
-376 -378 0
-376 -379 0
-376 -380 0
-376 -381 0
-376 -382 0
-376 -383 0
-376 -384 0
-376 -385 0
-376 -386 0
-376 -387 0
-377 -378 0
-377 -379 0
-377 -380 0
-377 -381 0
-377 -382 0
-377 -383 0
-377 -384 0
-377 -385 0
-377 -386 0
-377 -387 0
-378 -379 0
-378 -380 0
-378 -381 0
-378 -382 0
-378 -383 0
-378 -384 0
-378 -385 0
-378 -386 0
-378 -387 0
-379 -380 0
-379 -381 0
-379 -382 0
-379 -383 0
-379 -384 0
-379 -385 0
-379 -386 0
-379 -387 0
-380 -381 0
-380 -382 0
-380 -383 0
-380 -384 0
-380 -385 0
-380 -386 0
-380 -387 0
-381 -382 0
-381 -383 0
-381 -384 0
-381 -385 0
-381 -386 0
-381 -387 0
-382 -383 0
-382 -384 0
-382 -385 0
-382 -386 0
-382 -387 0
-383 -384 0
-383 -385 0
-383 -386 0
-383 -387 0
-384 -385 0
-384 -386 0
-384 -387 0
-385 -386 0
-385 -387 0
-386 -387 0
388 389 390 391 392 393 394 395 396 397 398 0
-388 -389 0
-388 -390 0
-388 -391 0
-388 -392 0
-388 -393 0
-388 -394 0
-388 -395 0
-388 -396 0
-388 -397 0
-388 -398 0
-389 -390 0
-389 -391 0
-389 -392 0
-389 -393 0
-389 -394 0
-389 -395 0
-389 -396 0
-389 -397 0
-389 -398 0
-390 -391 0
-390 -392 0
-390 -393 0
-390 -394 0
-390 -395 0
-390 -396 0
-390 -397 0
-390 -398 0
-391 -392 0
-391 -393 0
-391 -394 0
-391 -395 0
-391 -396 0
-391 -397 0
-391 -398 0
-392 -393 0
-392 -394 0
-392 -395 0
-392 -396 0
-392 -397 0
-392 -398 0
-393 -394 0
-393 -395 0
-393 -396 0
-393 -397 0
-393 -398 0
-394 -395 0
-394 -396 0
-394 -397 0
-394 -398 0
-395 -396 0
-395 -397 0
-395 -398 0
-396 -397 0
-396 -398 0
-397 -398 0
399 400 401 402 403 404 405 406 407 408 409 410 0
-399 -400 0
-399 -401 0
-399 -402 0
-399 -403 0
-399 -404 0
-399 -405 0
-399 -406 0
-399 -407 0
-399 -408 0
-399 -409 0
-399 -410 0
-400 -401 0
-400 -402 0
-400 -403 0
-400 -404 0
-400 -405 0
-400 -406 0
-400 -407 0
-400 -408 0
-400 -409 0
-400 -410 0
-401 -402 0
-401 -403 0
-401 -404 0
-401 -405 0
-401 -406 0
-401 -407 0
-401 -408 0
-401 -409 0
-401 -410 0
-402 -403 0
-402 -404 0
-402 -405 0
-402 -406 0
-402 -407 0
-402 -408 0
-402 -409 0
-402 -410 0
-403 -404 0
-403 -405 0
-403 -406 0
-403 -407 0
-403 -408 0
-403 -409 0
-403 -410 0
-404 -405 0
-404 -406 0
-404 -407 0
-404 -408 0
-404 -409 0
-404 -410 0
-405 -406 0
-405 -407 0
-405 -408 0
-405 -409 0
-405 -410 0
-406 -407 0
-406 -408 0
-406 -409 0
-406 -410 0
-407 -408 0
-407 -409 0
-407 -410 0
-408 -409 0
-408 -410 0
-409 -410 0
411 412 413 414 415 416 417 418 419 420 421 0
-411 -412 0
-411 -413 0
-411 -414 0
-411 -415 0
-411 -416 0
-411 -417 0
-411 -418 0
-411 -419 0
-411 -420 0
-411 -421 0
-412 -413 0
-412 -414 0
-412 -415 0
-412 -416 0
-412 -417 0
-412 -418 0
-412 -419 0
-412 -420 0
-412 -421 0
-413 -414 0
-413 -415 0
-413 -416 0
-413 -417 0
-413 -418 0
-413 -419 0
-413 -420 0
-413 -421 0
-414 -415 0
-414 -416 0
-414 -417 0
-414 -418 0
-414 -419 0
-414 -420 0
-414 -421 0
-415 -416 0
-415 -417 0
-415 -418 0
-415 -419 0
-415 -420 0
-415 -421 0
-416 -417 0
-416 -418 0
-416 -419 0
-416 -420 0
-416 -421 0
-417 -418 0
-417 -419 0
-417 -420 0
-417 -421 0
-418 -419 0
-418 -420 0
-418 -421 0
-419 -420 0
-419 -421 0
-420 -421 0
422 423 424 425 426 427 428 429 430 431 432 0
-422 -423 0
-422 -424 0
-422 -425 0
-422 -426 0
-422 -427 0
-422 -428 0
-422 -429 0
-422 -430 0
-422 -431 0
-422 -432 0
-423 -424 0
-423 -425 0
-423 -426 0
-423 -427 0
-423 -428 0
-423 -429 0
-423 -430 0
-423 -431 0
-423 -432 0
-424 -425 0
-424 -426 0
-424 -427 0
-424 -428 0
-424 -429 0
-424 -430 0
-424 -431 0
-424 -432 0
-425 -426 0
-425 -427 0
-425 -428 0
-425 -429 0
-425 -430 0
-425 -431 0
-425 -432 0
-426 -427 0
-426 -428 0
-426 -429 0
-426 -430 0
-426 -431 0
-426 -432 0
-427 -428 0
-427 -429 0
-427 -430 0
-427 -431 0
-427 -432 0
-428 -429 0
-428 -430 0
-428 -431 0
-428 -432 0
-429 -430 0
-429 -431 0
-429 -432 0
-430 -431 0
-430 -432 0
-431 -432 0
433 434 435 436 437 438 439 440 441 442 443 444 0
-433 -434 0
-433 -435 0
-433 -436 0
-433 -437 0
-433 -438 0
-433 -439 0
-433 -440 0
-433 -441 0
-433 -442 0
-433 -443 0
-433 -444 0
-434 -435 0
-434 -436 0
-434 -437 0
-434 -438 0
-434 -439 0
-434 -440 0
-434 -441 0
-434 -442 0
-434 -443 0
-434 -444 0
-435 -436 0
-435 -437 0
-435 -438 0
-435 -439 0
-435 -440 0
-435 -441 0
-435 -442 0
-435 -443 0
-435 -444 0
-436 -437 0
-436 -438 0
-436 -439 0
-436 -440 0
-436 -441 0
-436 -442 0
-436 -443 0
-436 -444 0
-437 -438 0
-437 -439 0
-437 -440 0
-437 -441 0
-437 -442 0
-437 -443 0
-437 -444 0
-438 -439 0
-438 -440 0
-438 -441 0
-438 -442 0
-438 -443 0
-438 -444 0
-439 -440 0
-439 -441 0
-439 -442 0
-439 -443 0
-439 -444 0
-440 -441 0
-440 -442 0
-440 -443 0
-440 -444 0
-441 -442 0
-441 -443 0
-441 -444 0
-442 -443 0
-442 -444 0
-443 -444 0
445 446 447 448 449 450 451 452 453 454 455 456 0
-445 -446 0
-445 -447 0
-445 -448 0
-445 -449 0
-445 -450 0
-445 -451 0
-445 -452 0
-445 -453 0
-445 -454 0
-445 -455 0
-445 -456 0
-446 -447 0
-446 -448 0
-446 -449 0
-446 -450 0
-446 -451 0
-446 -452 0
-446 -453 0
-446 -454 0
-446 -455 0
-446 -456 0
-447 -448 0
-447 -449 0
-447 -450 0
-447 -451 0
-447 -452 0
-447 -453 0
-447 -454 0
-447 -455 0
-447 -456 0
-448 -449 0
-448 -450 0
-448 -451 0
-448 -452 0
-448 -453 0
-448 -454 0
-448 -455 0
-448 -456 0
-449 -450 0
-449 -451 0
-449 -452 0
-449 -453 0
-449 -454 0
-449 -455 0
-449 -456 0
-450 -451 0
-450 -452 0
-450 -453 0
-450 -454 0
-450 -455 0
-450 -456 0
-451 -452 0
-451 -453 0
-451 -454 0
-451 -455 0
-451 -456 0
-452 -453 0
-452 -454 0
-452 -455 0
-452 -456 0
-453 -454 0
-453 -455 0
-453 -456 0
-454 -455 0
-454 -456 0
-455 -456 0
1 11 23 35 57 69 80 91 103 115 126 137 148 0
-1 -11 0
-1 -23 0
-1 -35 0
-1 -57 0
-1 -69 0
-1 -80 0
-1 -91 0
-1 -103 0
-1 -115 0
-1 -126 0
-1 -137 0
-1 -148 0
-11 -23 0
-11 -35 0
-11 -57 0
-11 -69 0
-11 -80 0
-11 -91 0
-11 -103 0
-11 -115 0
-11 -126 0
-11 -137 0
-11 -148 0
-23 -35 0
-23 -57 0
-23 -69 0
-23 -80 0
-23 -91 0
-23 -103 0
-23 -115 0
-23 -126 0
-23 -137 0
-23 -148 0
-35 -57 0
-35 -69 0
-35 -80 0
-35 -91 0
-35 -103 0
-35 -115 0
-35 -126 0
-35 -137 0
-35 -148 0
-57 -69 0
-57 -80 0
-57 -91 0
-57 -103 0
-57 -115 0
-57 -126 0
-57 -137 0
-57 -148 0
-69 -80 0
-69 -91 0
-69 -103 0
-69 -115 0
-69 -126 0
-69 -137 0
-69 -148 0
-80 -91 0
-80 -103 0
-80 -115 0
-80 -126 0
-80 -137 0
-80 -148 0
-91 -103 0
-91 -115 0
-91 -126 0
-91 -137 0
-91 -148 0
-103 -115 0
-103 -126 0
-103 -137 0
-103 -148 0
-115 -126 0
-115 -137 0
-115 -148 0
-126 -137 0
-126 -148 0
-137 -148 0
1 22 150 160 170 171 183 195 207 230 241 253 264 0
-1 -22 0
-1 -150 0
-1 -160 0
-1 -170 0
-1 -171 0
-1 -183 0
-1 -195 0
-1 -207 0
-1 -230 0
-1 -241 0
-1 -253 0
-1 -264 0
-22 -150 0
-22 -160 0
-22 -170 0
-22 -171 0
-22 -183 0
-22 -195 0
-22 -207 0
-22 -230 0
-22 -241 0
-22 -253 0
-22 -264 0
-150 -160 0
-150 -170 0
-150 -171 0
-150 -183 0
-150 -195 0
-150 -207 0
-150 -230 0
-150 -241 0
-150 -253 0
-150 -264 0
-160 -170 0
-160 -171 0
-160 -183 0
-160 -195 0
-160 -207 0
-160 -230 0
-160 -241 0
-160 -253 0
-160 -264 0
-170 -171 0
-170 -183 0
-170 -195 0
-170 -207 0
-170 -230 0
-170 -241 0
-170 -253 0
-170 -264 0
-171 -183 0
-171 -195 0
-171 -207 0
-171 -230 0
-171 -241 0
-171 -253 0
-171 -264 0
-183 -195 0
-183 -207 0
-183 -230 0
-183 -241 0
-183 -253 0
-183 -264 0
-195 -207 0
-195 -230 0
-195 -241 0
-195 -253 0
-195 -264 0
-207 -230 0
-207 -241 0
-207 -253 0
-207 -264 0
-230 -241 0
-230 -253 0
-230 -264 0
-241 -253 0
-241 -264 0
-253 -264 0
34 140 150 181 276 286 295 309 321 332 343 354 365 0
-34 -140 0
-34 -150 0
-34 -181 0
-34 -276 0
-34 -286 0
-34 -295 0
-34 -309 0
-34 -321 0
-34 -332 0
-34 -343 0
-34 -354 0
-34 -365 0
-140 -150 0
-140 -181 0
-140 -276 0
-140 -286 0
-140 -295 0
-140 -309 0
-140 -321 0
-140 -332 0
-140 -343 0
-140 -354 0
-140 -365 0
-150 -181 0
-150 -276 0
-150 -286 0
-150 -295 0
-150 -309 0
-150 -321 0
-150 -332 0
-150 -343 0
-150 -354 0
-150 -365 0
-181 -276 0
-181 -286 0
-181 -295 0
-181 -309 0
-181 -321 0
-181 -332 0
-181 -343 0
-181 -354 0
-181 -365 0
-276 -286 0
-276 -295 0
-276 -309 0
-276 -321 0
-276 -332 0
-276 -343 0
-276 -354 0
-276 -365 0
-286 -295 0
-286 -309 0
-286 -321 0
-286 -332 0
-286 -343 0
-286 -354 0
-286 -365 0
-295 -309 0
-295 -321 0
-295 -332 0
-295 -343 0
-295 -354 0
-295 -365 0
-309 -321 0
-309 -332 0
-309 -343 0
-309 -354 0
-309 -365 0
-321 -332 0
-321 -343 0
-321 -354 0
-321 -365 0
-332 -343 0
-332 -354 0
-332 -365 0
-343 -354 0
-343 -365 0
-354 -365 0
23 45 129 140 160 193 267 307 376 385 388 411 422 0
-23 -45 0
-23 -129 0
-23 -140 0
-23 -160 0
-23 -193 0
-23 -267 0
-23 -307 0
-23 -376 0
-23 -385 0
-23 -388 0
-23 -411 0
-23 -422 0
-45 -129 0
-45 -140 0
-45 -160 0
-45 -193 0
-45 -267 0
-45 -307 0
-45 -376 0
-45 -385 0
-45 -388 0
-45 -411 0
-45 -422 0
-129 -140 0
-129 -160 0
-129 -193 0
-129 -267 0
-129 -307 0
-129 -376 0
-129 -385 0
-129 -388 0
-129 -411 0
-129 -422 0
-140 -160 0
-140 -193 0
-140 -267 0
-140 -307 0
-140 -376 0
-140 -385 0
-140 -388 0
-140 -411 0
-140 -422 0
-160 -193 0
-160 -267 0
-160 -307 0
-160 -376 0
-160 -385 0
-160 -388 0
-160 -411 0
-160 -422 0
-193 -267 0
-193 -307 0
-193 -376 0
-193 -385 0
-193 -388 0
-193 -411 0
-193 -422 0
-267 -307 0
-267 -376 0
-267 -385 0
-267 -388 0
-267 -411 0
-267 -422 0
-307 -376 0
-307 -385 0
-307 -388 0
-307 -411 0
-307 -422 0
-376 -385 0
-376 -388 0
-376 -411 0
-376 -422 0
-385 -388 0
-385 -411 0
-385 -422 0
-388 -411 0
-388 -422 0
-411 -422 0
35 56 119 129 171 255 276 319 357 423 433 442 445 0
-35 -56 0
-35 -119 0
-35 -129 0
-35 -171 0
-35 -255 0
-35 -276 0
-35 -319 0
-35 -357 0
-35 -423 0
-35 -433 0
-35 -442 0
-35 -445 0
-56 -119 0
-56 -129 0
-56 -171 0
-56 -255 0
-56 -276 0
-56 -319 0
-56 -357 0
-56 -423 0
-56 -433 0
-56 -442 0
-56 -445 0
-119 -129 0
-119 -171 0
-119 -255 0
-119 -276 0
-119 -319 0
-119 -357 0
-119 -423 0
-119 -433 0
-119 -442 0
-119 -445 0
-129 -171 0
-129 -255 0
-129 -276 0
-129 -319 0
-129 -357 0
-129 -423 0
-129 -433 0
-129 -442 0
-129 -445 0
-171 -255 0
-171 -276 0
-171 -319 0
-171 -357 0
-171 -423 0
-171 -433 0
-171 -442 0
-171 -445 0
-255 -276 0
-255 -319 0
-255 -357 0
-255 -423 0
-255 -433 0
-255 -442 0
-255 -445 0
-276 -319 0
-276 -357 0
-276 -423 0
-276 -433 0
-276 -442 0
-276 -445 0
-319 -357 0
-319 -423 0
-319 -433 0
-319 -442 0
-319 -445 0
-357 -423 0
-357 -433 0
-357 -442 0
-357 -445 0
-423 -433 0
-423 -442 0
-423 -445 0
-433 -442 0
-433 -445 0
-442 -445 0
68 108 119 183 216 246 267 286 330 346 407 416 450 0
-68 -108 0
-68 -119 0
-68 -183 0
-68 -216 0
-68 -246 0
-68 -267 0
-68 -286 0
-68 -330 0
-68 -346 0
-68 -407 0
-68 -416 0
-68 -450 0
-108 -119 0
-108 -183 0
-108 -216 0
-108 -246 0
-108 -267 0
-108 -286 0
-108 -330 0
-108 -346 0
-108 -407 0
-108 -416 0
-108 -450 0
-119 -183 0
-119 -216 0
-119 -246 0
-119 -267 0
-119 -286 0
-119 -330 0
-119 -346 0
-119 -407 0
-119 -416 0
-119 -450 0
-183 -216 0
-183 -246 0
-183 -267 0
-183 -286 0
-183 -330 0
-183 -346 0
-183 -407 0
-183 -416 0
-183 -450 0
-216 -246 0
-216 -267 0
-216 -286 0
-216 -330 0
-216 -346 0
-216 -407 0
-216 -416 0
-216 -450 0
-246 -267 0
-246 -286 0
-246 -330 0
-246 -346 0
-246 -407 0
-246 -416 0
-246 -450 0
-267 -286 0
-267 -330 0
-267 -346 0
-267 -407 0
-267 -416 0
-267 -450 0
-286 -330 0
-286 -346 0
-286 -407 0
-286 -416 0
-286 -450 0
-330 -346 0
-330 -407 0
-330 -416 0
-330 -450 0
-346 -407 0
-346 -416 0
-346 -450 0
-407 -416 0
-407 -450 0
-416 -450 0
57 79 97 108 195 229 233 255 337 341 402 419 438 0
-57 -79 0
-57 -97 0
-57 -108 0
-57 -195 0
-57 -229 0
-57 -233 0
-57 -255 0
-57 -337 0
-57 -341 0
-57 -402 0
-57 -419 0
-57 -438 0
-79 -97 0
-79 -108 0
-79 -195 0
-79 -229 0
-79 -233 0
-79 -255 0
-79 -337 0
-79 -341 0
-79 -402 0
-79 -419 0
-79 -438 0
-97 -108 0
-97 -195 0
-97 -229 0
-97 -233 0
-97 -255 0
-97 -337 0
-97 -341 0
-97 -402 0
-97 -419 0
-97 -438 0
-108 -195 0
-108 -229 0
-108 -233 0
-108 -255 0
-108 -337 0
-108 -341 0
-108 -402 0
-108 -419 0
-108 -438 0
-195 -229 0
-195 -233 0
-195 -255 0
-195 -337 0
-195 -341 0
-195 -402 0
-195 -419 0
-195 -438 0
-229 -233 0
-229 -255 0
-229 -337 0
-229 -341 0
-229 -402 0
-229 -419 0
-229 -438 0
-233 -255 0
-233 -337 0
-233 -341 0
-233 -402 0
-233 -419 0
-233 -438 0
-255 -337 0
-255 -341 0
-255 -402 0
-255 -419 0
-255 -438 0
-337 -341 0
-337 -402 0
-337 -419 0
-337 -438 0
-341 -402 0
-341 -419 0
-341 -438 0
-402 -419 0
-402 -438 0
-419 -438 0
69 86 97 207 224 239 246 309 351 357 376 395 429 0
-69 -86 0
-69 -97 0
-69 -207 0
-69 -224 0
-69 -239 0
-69 -246 0
-69 -309 0
-69 -351 0
-69 -357 0
-69 -376 0
-69 -395 0
-69 -429 0
-86 -97 0
-86 -207 0
-86 -224 0
-86 -239 0
-86 -246 0
-86 -309 0
-86 -351 0
-86 -357 0
-86 -376 0
-86 -395 0
-86 -429 0
-97 -207 0
-97 -224 0
-97 -239 0
-97 -246 0
-97 -309 0
-97 -351 0
-97 -357 0
-97 -376 0
-97 -395 0
-97 -429 0
-207 -224 0
-207 -239 0
-207 -246 0
-207 -309 0
-207 -351 0
-207 -357 0
-207 -376 0
-207 -395 0
-207 -429 0
-224 -239 0
-224 -246 0
-224 -309 0
-224 -351 0
-224 -357 0
-224 -376 0
-224 -395 0
-224 -429 0
-239 -246 0
-239 -309 0
-239 -351 0
-239 -357 0
-239 -376 0
-239 -395 0
-239 -429 0
-246 -309 0
-246 -351 0
-246 -357 0
-246 -376 0
-246 -395 0
-246 -429 0
-309 -351 0
-309 -357 0
-309 -376 0
-309 -395 0
-309 -429 0
-351 -357 0
-351 -376 0
-351 -395 0
-351 -429 0
-357 -376 0
-357 -395 0
-357 -429 0
-376 -395 0
-376 -429 0
-395 -429 0
75 80 86 102 211 233 251 315 321 346 362 388 423 0
-75 -80 0
-75 -86 0
-75 -102 0
-75 -211 0
-75 -233 0
-75 -251 0
-75 -315 0
-75 -321 0
-75 -346 0
-75 -362 0
-75 -388 0
-75 -423 0
-80 -86 0
-80 -102 0
-80 -211 0
-80 -233 0
-80 -251 0
-80 -315 0
-80 -321 0
-80 -346 0
-80 -362 0
-80 -388 0
-80 -423 0
-86 -102 0
-86 -211 0
-86 -233 0
-86 -251 0
-86 -315 0
-86 -321 0
-86 -346 0
-86 -362 0
-86 -388 0
-86 -423 0
-102 -211 0
-102 -233 0
-102 -251 0
-102 -315 0
-102 -321 0
-102 -346 0
-102 -362 0
-102 -388 0
-102 -423 0
-211 -233 0
-211 -251 0
-211 -315 0
-211 -321 0
-211 -346 0
-211 -362 0
-211 -388 0
-211 -423 0
-233 -251 0
-233 -315 0
-233 -321 0
-233 -346 0
-233 -362 0
-233 -388 0
-233 -423 0
-251 -315 0
-251 -321 0
-251 -346 0
-251 -362 0
-251 -388 0
-251 -423 0
-315 -321 0
-315 -346 0
-315 -362 0
-315 -388 0
-315 -423 0
-321 -346 0
-321 -362 0
-321 -388 0
-321 -423 0
-346 -362 0
-346 -388 0
-346 -423 0
-362 -388 0
-362 -423 0
-388 -423 0
75 91 114 203 224 230 262 303 332 337 373 416 433 0
-75 -91 0
-75 -114 0
-75 -203 0
-75 -224 0
-75 -230 0
-75 -262 0
-75 -303 0
-75 -332 0
-75 -337 0
-75 -373 0
-75 -416 0
-75 -433 0
-91 -114 0
-91 -203 0
-91 -224 0
-91 -230 0
-91 -262 0
-91 -303 0
-91 -332 0
-91 -337 0
-91 -373 0
-91 -416 0
-91 -433 0
-114 -203 0
-114 -224 0
-114 -230 0
-114 -262 0
-114 -303 0
-114 -332 0
-114 -337 0
-114 -373 0
-114 -416 0
-114 -433 0
-203 -224 0
-203 -230 0
-203 -262 0
-203 -303 0
-203 -332 0
-203 -337 0
-203 -373 0
-203 -416 0
-203 -433 0
-224 -230 0
-224 -262 0
-224 -303 0
-224 -332 0
-224 -337 0
-224 -373 0
-224 -416 0
-224 -433 0
-230 -262 0
-230 -303 0
-230 -332 0
-230 -337 0
-230 -373 0
-230 -416 0
-230 -433 0
-262 -303 0
-262 -332 0
-262 -337 0
-262 -373 0
-262 -416 0
-262 -433 0
-303 -332 0
-303 -337 0
-303 -373 0
-303 -416 0
-303 -433 0
-332 -337 0
-332 -373 0
-332 -416 0
-332 -433 0
-337 -373 0
-337 -416 0
-337 -433 0
-373 -416 0
-373 -433 0
-416 -433 0
53 103 125 190 211 241 273 292 343 402 411 445 450 0
-53 -103 0
-53 -125 0
-53 -190 0
-53 -211 0
-53 -241 0
-53 -273 0
-53 -292 0
-53 -343 0
-53 -402 0
-53 -411 0
-53 -445 0
-53 -450 0
-103 -125 0
-103 -190 0
-103 -211 0
-103 -241 0
-103 -273 0
-103 -292 0
-103 -343 0
-103 -402 0
-103 -411 0
-103 -445 0
-103 -450 0
-125 -190 0
-125 -211 0
-125 -241 0
-125 -273 0
-125 -292 0
-125 -343 0
-125 -402 0
-125 -411 0
-125 -445 0
-125 -450 0
-190 -211 0
-190 -241 0
-190 -273 0
-190 -292 0
-190 -343 0
-190 -402 0
-190 -411 0
-190 -445 0
-190 -450 0
-211 -241 0
-211 -273 0
-211 -292 0
-211 -343 0
-211 -402 0
-211 -411 0
-211 -445 0
-211 -450 0
-241 -273 0
-241 -292 0
-241 -343 0
-241 -402 0
-241 -411 0
-241 -445 0
-241 -450 0
-273 -292 0
-273 -343 0
-273 -402 0
-273 -411 0
-273 -445 0
-273 -450 0
-292 -343 0
-292 -402 0
-292 -411 0
-292 -445 0
-292 -450 0
-343 -402 0
-343 -411 0
-343 -445 0
-343 -450 0
-402 -411 0
-402 -445 0
-402 -450 0
-411 -445 0
-411 -450 0
-445 -450 0
43 53 115 136 203 253 284 315 354 395 422 438 442 0
-43 -53 0
-43 -115 0
-43 -136 0
-43 -203 0
-43 -253 0
-43 -284 0
-43 -315 0
-43 -354 0
-43 -395 0
-43 -422 0
-43 -438 0
-43 -442 0
-53 -115 0
-53 -136 0
-53 -203 0
-53 -253 0
-53 -284 0
-53 -315 0
-53 -354 0
-53 -395 0
-53 -422 0
-53 -438 0
-53 -442 0
-115 -136 0
-115 -203 0
-115 -253 0
-115 -284 0
-115 -315 0
-115 -354 0
-115 -395 0
-115 -422 0
-115 -438 0
-115 -442 0
-136 -203 0
-136 -253 0
-136 -284 0
-136 -315 0
-136 -354 0
-136 -395 0
-136 -422 0
-136 -438 0
-136 -442 0
-203 -253 0
-203 -284 0
-203 -315 0
-203 -354 0
-203 -395 0
-203 -422 0
-203 -438 0
-203 -442 0
-253 -284 0
-253 -315 0
-253 -354 0
-253 -395 0
-253 -422 0
-253 -438 0
-253 -442 0
-284 -315 0
-284 -354 0
-284 -395 0
-284 -422 0
-284 -438 0
-284 -442 0
-315 -354 0
-315 -395 0
-315 -422 0
-315 -438 0
-315 -442 0
-354 -395 0
-354 -422 0
-354 -438 0
-354 -442 0
-395 -422 0
-395 -438 0
-395 -442 0
-422 -438 0
-422 -442 0
-438 -442 0
32 43 126 147 168 190 264 303 365 385 407 419 429 0
-32 -43 0
-32 -126 0
-32 -147 0
-32 -168 0
-32 -190 0
-32 -264 0
-32 -303 0
-32 -365 0
-32 -385 0
-32 -407 0
-32 -419 0
-32 -429 0
-43 -126 0
-43 -147 0
-43 -168 0
-43 -190 0
-43 -264 0
-43 -303 0
-43 -365 0
-43 -385 0
-43 -407 0
-43 -419 0
-43 -429 0
-126 -147 0
-126 -168 0
-126 -190 0
-126 -264 0
-126 -303 0
-126 -365 0
-126 -385 0
-126 -407 0
-126 -419 0
-126 -429 0
-147 -168 0
-147 -190 0
-147 -264 0
-147 -303 0
-147 -365 0
-147 -385 0
-147 -407 0
-147 -419 0
-147 -429 0
-168 -190 0
-168 -264 0
-168 -303 0
-168 -365 0
-168 -385 0
-168 -407 0
-168 -419 0
-168 -429 0
-190 -264 0
-190 -303 0
-190 -365 0
-190 -385 0
-190 -407 0
-190 -419 0
-190 -429 0
-264 -303 0
-264 -365 0
-264 -385 0
-264 -407 0
-264 -419 0
-264 -429 0
-303 -365 0
-303 -385 0
-303 -407 0
-303 -419 0
-303 -429 0
-365 -385 0
-365 -407 0
-365 -419 0
-365 -429 0
-385 -407 0
-385 -419 0
-385 -429 0
-407 -419 0
-407 -429 0
-419 -429 0
21 32 137 159 292 295 307 319 330 341 351 362 373 0
-21 -32 0
-21 -137 0
-21 -159 0
-21 -292 0
-21 -295 0
-21 -307 0
-21 -319 0
-21 -330 0
-21 -341 0
-21 -351 0
-21 -362 0
-21 -373 0
-32 -137 0
-32 -159 0
-32 -292 0
-32 -295 0
-32 -307 0
-32 -319 0
-32 -330 0
-32 -341 0
-32 -351 0
-32 -362 0
-32 -373 0
-137 -159 0
-137 -292 0
-137 -295 0
-137 -307 0
-137 -319 0
-137 -330 0
-137 -341 0
-137 -351 0
-137 -362 0
-137 -373 0
-159 -292 0
-159 -295 0
-159 -307 0
-159 -319 0
-159 -330 0
-159 -341 0
-159 -351 0
-159 -362 0
-159 -373 0
-292 -295 0
-292 -307 0
-292 -319 0
-292 -330 0
-292 -341 0
-292 -351 0
-292 -362 0
-292 -373 0
-295 -307 0
-295 -319 0
-295 -330 0
-295 -341 0
-295 -351 0
-295 -362 0
-295 -373 0
-307 -319 0
-307 -330 0
-307 -341 0
-307 -351 0
-307 -362 0
-307 -373 0
-319 -330 0
-319 -341 0
-319 -351 0
-319 -362 0
-319 -373 0
-330 -341 0
-330 -351 0
-330 -362 0
-330 -373 0
-341 -351 0
-341 -362 0
-341 -373 0
-351 -362 0
-351 -373 0
-362 -373 0
21 148 168 170 181 193 216 229 239 251 262 273 284 0
-21 -148 0
-21 -168 0
-21 -170 0
-21 -181 0
-21 -193 0
-21 -216 0
-21 -229 0
-21 -239 0
-21 -251 0
-21 -262 0
-21 -273 0
-21 -284 0
-148 -168 0
-148 -170 0
-148 -181 0
-148 -193 0
-148 -216 0
-148 -229 0
-148 -239 0
-148 -251 0
-148 -262 0
-148 -273 0
-148 -284 0
-168 -170 0
-168 -181 0
-168 -193 0
-168 -216 0
-168 -229 0
-168 -239 0
-168 -251 0
-168 -262 0
-168 -273 0
-168 -284 0
-170 -181 0
-170 -193 0
-170 -216 0
-170 -229 0
-170 -239 0
-170 -251 0
-170 -262 0
-170 -273 0
-170 -284 0
-181 -193 0
-181 -216 0
-181 -229 0
-181 -239 0
-181 -251 0
-181 -262 0
-181 -273 0
-181 -284 0
-193 -216 0
-193 -229 0
-193 -239 0
-193 -251 0
-193 -262 0
-193 -273 0
-193 -284 0
-216 -229 0
-216 -239 0
-216 -251 0
-216 -262 0
-216 -273 0
-216 -284 0
-229 -239 0
-229 -251 0
-229 -262 0
-229 -273 0
-229 -284 0
-239 -251 0
-239 -262 0
-239 -273 0
-239 -284 0
-251 -262 0
-251 -273 0
-251 -284 0
-262 -273 0
-262 -284 0
-273 -284 0
11 22 34 45 56 68 79 102 114 125 136 147 159 0
-11 -22 0
-11 -34 0
-11 -45 0
-11 -56 0
-11 -68 0
-11 -79 0
-11 -102 0
-11 -114 0
-11 -125 0
-11 -136 0
-11 -147 0
-11 -159 0
-22 -34 0
-22 -45 0
-22 -56 0
-22 -68 0
-22 -79 0
-22 -102 0
-22 -114 0
-22 -125 0
-22 -136 0
-22 -147 0
-22 -159 0
-34 -45 0
-34 -56 0
-34 -68 0
-34 -79 0
-34 -102 0
-34 -114 0
-34 -125 0
-34 -136 0
-34 -147 0
-34 -159 0
-45 -56 0
-45 -68 0
-45 -79 0
-45 -102 0
-45 -114 0
-45 -125 0
-45 -136 0
-45 -147 0
-45 -159 0
-56 -68 0
-56 -79 0
-56 -102 0
-56 -114 0
-56 -125 0
-56 -136 0
-56 -147 0
-56 -159 0
-68 -79 0
-68 -102 0
-68 -114 0
-68 -125 0
-68 -136 0
-68 -147 0
-68 -159 0
-79 -102 0
-79 -114 0
-79 -125 0
-79 -136 0
-79 -147 0
-79 -159 0
-102 -114 0
-102 -125 0
-102 -136 0
-102 -147 0
-102 -159 0
-114 -125 0
-114 -136 0
-114 -147 0
-114 -159 0
-125 -136 0
-125 -147 0
-125 -159 0
-136 -147 0
-136 -159 0
-147 -159 0
1 12 24 46 58 81 92 104 116 138 149 0
-1 -12 0
-1 -24 0
-1 -46 0
-1 -58 0
-1 -81 0
-1 -92 0
-1 -104 0
-1 -116 0
-1 -138 0
-1 -149 0
-12 -24 0
-12 -46 0
-12 -58 0
-12 -81 0
-12 -92 0
-12 -104 0
-12 -116 0
-12 -138 0
-12 -149 0
-24 -46 0
-24 -58 0
-24 -81 0
-24 -92 0
-24 -104 0
-24 -116 0
-24 -138 0
-24 -149 0
-46 -58 0
-46 -81 0
-46 -92 0
-46 -104 0
-46 -116 0
-46 -138 0
-46 -149 0
-58 -81 0
-58 -92 0
-58 -104 0
-58 -116 0
-58 -138 0
-58 -149 0
-81 -92 0
-81 -104 0
-81 -116 0
-81 -138 0
-81 -149 0
-92 -104 0
-92 -116 0
-92 -138 0
-92 -149 0
-104 -116 0
-104 -138 0
-104 -149 0
-116 -138 0
-116 -149 0
-138 -149 0
12 23 141 182 296 298 310 333 344 355 366 0
-12 -23 0
-12 -141 0
-12 -182 0
-12 -296 0
-12 -298 0
-12 -310 0
-12 -333 0
-12 -344 0
-12 -355 0
-12 -366 0
-23 -141 0
-23 -182 0
-23 -296 0
-23 -298 0
-23 -310 0
-23 -333 0
-23 -344 0
-23 -355 0
-23 -366 0
-141 -182 0
-141 -296 0
-141 -298 0
-141 -310 0
-141 -333 0
-141 -344 0
-141 -355 0
-141 -366 0
-182 -296 0
-182 -298 0
-182 -310 0
-182 -333 0
-182 -344 0
-182 -355 0
-182 -366 0
-296 -298 0
-296 -310 0
-296 -333 0
-296 -344 0
-296 -355 0
-296 -366 0
-298 -310 0
-298 -333 0
-298 -344 0
-298 -355 0
-298 -366 0
-310 -333 0
-310 -344 0
-310 -355 0
-310 -366 0
-333 -344 0
-333 -355 0
-333 -366 0
-344 -355 0
-344 -366 0
-355 -366 0
24 35 141 194 268 368 377 386 389 399 412 0
-24 -35 0
-24 -141 0
-24 -194 0
-24 -268 0
-24 -368 0
-24 -377 0
-24 -386 0
-24 -389 0
-24 -399 0
-24 -412 0
-35 -141 0
-35 -194 0
-35 -268 0
-35 -368 0
-35 -377 0
-35 -386 0
-35 -389 0
-35 -399 0
-35 -412 0
-141 -194 0
-141 -268 0
-141 -368 0
-141 -377 0
-141 -386 0
-141 -389 0
-141 -399 0
-141 -412 0
-194 -268 0
-194 -368 0
-194 -377 0
-194 -386 0
-194 -389 0
-194 -399 0
-194 -412 0
-268 -368 0
-268 -377 0
-268 -386 0
-268 -389 0
-268 -399 0
-268 -412 0
-368 -377 0
-368 -386 0
-368 -389 0
-368 -399 0
-368 -412 0
-377 -386 0
-377 -389 0
-377 -399 0
-377 -412 0
-386 -389 0
-386 -399 0
-386 -412 0
-389 -399 0
-389 -412 0
-399 -412 0
46 57 109 217 247 268 331 347 408 417 451 455 0
-46 -57 0
-46 -109 0
-46 -217 0
-46 -247 0
-46 -268 0
-46 -331 0
-46 -347 0
-46 -408 0
-46 -417 0
-46 -451 0
-46 -455 0
-57 -109 0
-57 -217 0
-57 -247 0
-57 -268 0
-57 -331 0
-57 -347 0
-57 -408 0
-57 -417 0
-57 -451 0
-57 -455 0
-109 -217 0
-109 -247 0
-109 -268 0
-109 -331 0
-109 -347 0
-109 -408 0
-109 -417 0
-109 -451 0
-109 -455 0
-217 -247 0
-217 -268 0
-217 -331 0
-217 -347 0
-217 -408 0
-217 -417 0
-217 -451 0
-217 -455 0
-247 -268 0
-247 -331 0
-247 -347 0
-247 -408 0
-247 -417 0
-247 -451 0
-247 -455 0
-268 -331 0
-268 -347 0
-268 -408 0
-268 -417 0
-268 -451 0
-268 -455 0
-331 -347 0
-331 -408 0
-331 -417 0
-331 -451 0
-331 -455 0
-347 -408 0
-347 -417 0
-347 -451 0
-347 -455 0
-408 -417 0
-408 -451 0
-408 -455 0
-417 -451 0
-417 -455 0
-451 -455 0
58 69 98 109 234 298 342 368 403 420 439 0
-58 -69 0
-58 -98 0
-58 -109 0
-58 -234 0
-58 -298 0
-58 -342 0
-58 -368 0
-58 -403 0
-58 -420 0
-58 -439 0
-69 -98 0
-69 -109 0
-69 -234 0
-69 -298 0
-69 -342 0
-69 -368 0
-69 -403 0
-69 -420 0
-69 -439 0
-98 -109 0
-98 -234 0
-98 -298 0
-98 -342 0
-98 -368 0
-98 -403 0
-98 -420 0
-98 -439 0
-109 -234 0
-109 -298 0
-109 -342 0
-109 -368 0
-109 -403 0
-109 -420 0
-109 -439 0
-234 -298 0
-234 -342 0
-234 -368 0
-234 -403 0
-234 -420 0
-234 -439 0
-298 -342 0
-298 -368 0
-298 -403 0
-298 -420 0
-298 -439 0
-342 -368 0
-342 -403 0
-342 -420 0
-342 -439 0
-368 -403 0
-368 -420 0
-368 -439 0
-403 -420 0
-403 -439 0
-420 -439 0
80 87 98 225 240 247 310 326 352 377 430 0
-80 -87 0
-80 -98 0
-80 -225 0
-80 -240 0
-80 -247 0
-80 -310 0
-80 -326 0
-80 -352 0
-80 -377 0
-80 -430 0
-87 -98 0
-87 -225 0
-87 -240 0
-87 -247 0
-87 -310 0
-87 -326 0
-87 -352 0
-87 -377 0
-87 -430 0
-98 -225 0
-98 -240 0
-98 -247 0
-98 -310 0
-98 -326 0
-98 -352 0
-98 -377 0
-98 -430 0
-225 -240 0
-225 -247 0
-225 -310 0
-225 -326 0
-225 -352 0
-225 -377 0
-225 -430 0
-240 -247 0
-240 -310 0
-240 -326 0
-240 -352 0
-240 -377 0
-240 -430 0
-247 -310 0
-247 -326 0
-247 -352 0
-247 -377 0
-247 -430 0
-310 -326 0
-310 -352 0
-310 -377 0
-310 -430 0
-326 -352 0
-326 -377 0
-326 -430 0
-352 -377 0
-352 -430 0
-377 -430 0
81 87 91 212 234 252 316 347 363 382 389 0
-81 -87 0
-81 -91 0
-81 -212 0
-81 -234 0
-81 -252 0
-81 -316 0
-81 -347 0
-81 -363 0
-81 -382 0
-81 -389 0
-87 -91 0
-87 -212 0
-87 -234 0
-87 -252 0
-87 -316 0
-87 -347 0
-87 -363 0
-87 -382 0
-87 -389 0
-91 -212 0
-91 -234 0
-91 -252 0
-91 -316 0
-91 -347 0
-91 -363 0
-91 -382 0
-91 -389 0
-212 -234 0
-212 -252 0
-212 -316 0
-212 -347 0
-212 -363 0
-212 -382 0
-212 -389 0
-234 -252 0
-234 -316 0
-234 -347 0
-234 -363 0
-234 -382 0
-234 -389 0
-252 -316 0
-252 -347 0
-252 -363 0
-252 -382 0
-252 -389 0
-316 -347 0
-316 -363 0
-316 -382 0
-316 -389 0
-347 -363 0
-347 -382 0
-347 -389 0
-363 -382 0
-363 -389 0
-382 -389 0
64 92 103 204 225 263 304 333 374 399 417 0
-64 -92 0
-64 -103 0
-64 -204 0
-64 -225 0
-64 -263 0
-64 -304 0
-64 -333 0
-64 -374 0
-64 -399 0
-64 -417 0
-92 -103 0
-92 -204 0
-92 -225 0
-92 -263 0
-92 -304 0
-92 -333 0
-92 -374 0
-92 -399 0
-92 -417 0
-103 -204 0
-103 -225 0
-103 -263 0
-103 -304 0
-103 -333 0
-103 -374 0
-103 -399 0
-103 -417 0
-204 -225 0
-204 -263 0
-204 -304 0
-204 -333 0
-204 -374 0
-204 -399 0
-204 -417 0
-225 -263 0
-225 -304 0
-225 -333 0
-225 -374 0
-225 -399 0
-225 -417 0
-263 -304 0
-263 -333 0
-263 -374 0
-263 -399 0
-263 -417 0
-304 -333 0
-304 -374 0
-304 -399 0
-304 -417 0
-333 -374 0
-333 -399 0
-333 -417 0
-374 -399 0
-374 -417 0
-399 -417 0
54 64 104 115 212 274 293 326 344 403 412 451 0
-54 -64 0
-54 -104 0
-54 -115 0
-54 -212 0
-54 -274 0
-54 -293 0
-54 -326 0
-54 -344 0
-54 -403 0
-54 -412 0
-54 -451 0
-64 -104 0
-64 -115 0
-64 -212 0
-64 -274 0
-64 -293 0
-64 -326 0
-64 -344 0
-64 -403 0
-64 -412 0
-64 -451 0
-104 -115 0
-104 -212 0
-104 -274 0
-104 -293 0
-104 -326 0
-104 -344 0
-104 -403 0
-104 -412 0
-104 -451 0
-115 -212 0
-115 -274 0
-115 -293 0
-115 -326 0
-115 -344 0
-115 -403 0
-115 -412 0
-115 -451 0
-212 -274 0
-212 -293 0
-212 -326 0
-212 -344 0
-212 -403 0
-212 -412 0
-212 -451 0
-274 -293 0
-274 -326 0
-274 -344 0
-274 -403 0
-274 -412 0
-274 -451 0
-293 -326 0
-293 -344 0
-293 -403 0
-293 -412 0
-293 -451 0
-326 -344 0
-326 -403 0
-326 -412 0
-326 -451 0
-344 -403 0
-344 -412 0
-344 -451 0
-403 -412 0
-403 -451 0
-412 -451 0
44 54 116 126 180 204 285 316 355 439 455 0
-44 -54 0
-44 -116 0
-44 -126 0
-44 -180 0
-44 -204 0
-44 -285 0
-44 -316 0
-44 -355 0
-44 -439 0
-44 -455 0
-54 -116 0
-54 -126 0
-54 -180 0
-54 -204 0
-54 -285 0
-54 -316 0
-54 -355 0
-54 -439 0
-54 -455 0
-116 -126 0
-116 -180 0
-116 -204 0
-116 -285 0
-116 -316 0
-116 -355 0
-116 -439 0
-116 -455 0
-126 -180 0
-126 -204 0
-126 -285 0
-126 -316 0
-126 -355 0
-126 -439 0
-126 -455 0
-180 -204 0
-180 -285 0
-180 -316 0
-180 -355 0
-180 -439 0
-180 -455 0
-204 -285 0
-204 -316 0
-204 -355 0
-204 -439 0
-204 -455 0
-285 -316 0
-285 -355 0
-285 -439 0
-285 -455 0
-316 -355 0
-316 -439 0
-316 -455 0
-355 -439 0
-355 -455 0
-439 -455 0
33 44 137 169 304 366 382 386 408 420 430 0
-33 -44 0
-33 -137 0
-33 -169 0
-33 -304 0
-33 -366 0
-33 -382 0
-33 -386 0
-33 -408 0
-33 -420 0
-33 -430 0
-44 -137 0
-44 -169 0
-44 -304 0
-44 -366 0
-44 -382 0
-44 -386 0
-44 -408 0
-44 -420 0
-44 -430 0
-137 -169 0
-137 -304 0
-137 -366 0
-137 -382 0
-137 -386 0
-137 -408 0
-137 -420 0
-137 -430 0
-169 -304 0
-169 -366 0
-169 -382 0
-169 -386 0
-169 -408 0
-169 -420 0
-169 -430 0
-304 -366 0
-304 -382 0
-304 -386 0
-304 -408 0
-304 -420 0
-304 -430 0
-366 -382 0
-366 -386 0
-366 -408 0
-366 -420 0
-366 -430 0
-382 -386 0
-382 -408 0
-382 -420 0
-382 -430 0
-386 -408 0
-386 -420 0
-386 -430 0
-408 -420 0
-408 -430 0
-420 -430 0
33 138 148 180 293 296 331 342 352 363 374 0
-33 -138 0
-33 -148 0
-33 -180 0
-33 -293 0
-33 -296 0
-33 -331 0
-33 -342 0
-33 -352 0
-33 -363 0
-33 -374 0
-138 -148 0
-138 -180 0
-138 -293 0
-138 -296 0
-138 -331 0
-138 -342 0
-138 -352 0
-138 -363 0
-138 -374 0
-148 -180 0
-148 -293 0
-148 -296 0
-148 -331 0
-148 -342 0
-148 -352 0
-148 -363 0
-148 -374 0
-180 -293 0
-180 -296 0
-180 -331 0
-180 -342 0
-180 -352 0
-180 -363 0
-180 -374 0
-293 -296 0
-293 -331 0
-293 -342 0
-293 -352 0
-293 -363 0
-293 -374 0
-296 -331 0
-296 -342 0
-296 -352 0
-296 -363 0
-296 -374 0
-331 -342 0
-331 -352 0
-331 -363 0
-331 -374 0
-342 -352 0
-342 -363 0
-342 -374 0
-352 -363 0
-352 -374 0
-363 -374 0
11 149 169 182 194 217 240 252 263 274 285 0
-11 -149 0
-11 -169 0
-11 -182 0
-11 -194 0
-11 -217 0
-11 -240 0
-11 -252 0
-11 -263 0
-11 -274 0
-11 -285 0
-149 -169 0
-149 -182 0
-149 -194 0
-149 -217 0
-149 -240 0
-149 -252 0
-149 -263 0
-149 -274 0
-149 -285 0
-169 -182 0
-169 -194 0
-169 -217 0
-169 -240 0
-169 -252 0
-169 -263 0
-169 -274 0
-169 -285 0
-182 -194 0
-182 -217 0
-182 -240 0
-182 -252 0
-182 -263 0
-182 -274 0
-182 -285 0
-194 -217 0
-194 -240 0
-194 -252 0
-194 -263 0
-194 -274 0
-194 -285 0
-217 -240 0
-217 -252 0
-217 -263 0
-217 -274 0
-217 -285 0
-240 -252 0
-240 -263 0
-240 -274 0
-240 -285 0
-252 -263 0
-252 -274 0
-252 -285 0
-263 -274 0
-263 -285 0
-274 -285 0
2 13 25 47 70 82 93 105 127 139 150 0
-2 -13 0
-2 -25 0
-2 -47 0
-2 -70 0
-2 -82 0
-2 -93 0
-2 -105 0
-2 -127 0
-2 -139 0
-2 -150 0
-13 -25 0
-13 -47 0
-13 -70 0
-13 -82 0
-13 -93 0
-13 -105 0
-13 -127 0
-13 -139 0
-13 -150 0
-25 -47 0
-25 -70 0
-25 -82 0
-25 -93 0
-25 -105 0
-25 -127 0
-25 -139 0
-25 -150 0
-47 -70 0
-47 -82 0
-47 -93 0
-47 -105 0
-47 -127 0
-47 -139 0
-47 -150 0
-70 -82 0
-70 -93 0
-70 -105 0
-70 -127 0
-70 -139 0
-70 -150 0
-82 -93 0
-82 -105 0
-82 -127 0
-82 -139 0
-82 -150 0
-93 -105 0
-93 -127 0
-93 -139 0
-93 -150 0
-105 -127 0
-105 -139 0
-105 -150 0
-127 -139 0
-127 -150 0
-139 -150 0
2 12 151 160 161 184 218 231 242 265 275 0
-2 -12 0
-2 -151 0
-2 -160 0
-2 -161 0
-2 -184 0
-2 -218 0
-2 -231 0
-2 -242 0
-2 -265 0
-2 -275 0
-12 -151 0
-12 -160 0
-12 -161 0
-12 -184 0
-12 -218 0
-12 -231 0
-12 -242 0
-12 -265 0
-12 -275 0
-151 -160 0
-151 -161 0
-151 -184 0
-151 -218 0
-151 -231 0
-151 -242 0
-151 -265 0
-151 -275 0
-160 -161 0
-160 -184 0
-160 -218 0
-160 -231 0
-160 -242 0
-160 -265 0
-160 -275 0
-161 -184 0
-161 -218 0
-161 -231 0
-161 -242 0
-161 -265 0
-161 -275 0
-184 -218 0
-184 -231 0
-184 -242 0
-184 -265 0
-184 -275 0
-218 -231 0
-218 -242 0
-218 -265 0
-218 -275 0
-231 -242 0
-231 -265 0
-231 -275 0
-242 -265 0
-242 -275 0
-265 -275 0
13 24 142 151 171 277 287 297 311 322 334 0
-13 -24 0
-13 -142 0
-13 -151 0
-13 -171 0
-13 -277 0
-13 -287 0
-13 -297 0
-13 -311 0
-13 -322 0
-13 -334 0
-24 -142 0
-24 -151 0
-24 -171 0
-24 -277 0
-24 -287 0
-24 -297 0
-24 -311 0
-24 -322 0
-24 -334 0
-142 -151 0
-142 -171 0
-142 -277 0
-142 -287 0
-142 -297 0
-142 -311 0
-142 -322 0
-142 -334 0
-151 -171 0
-151 -277 0
-151 -287 0
-151 -297 0
-151 -311 0
-151 -322 0
-151 -334 0
-171 -277 0
-171 -287 0
-171 -297 0
-171 -311 0
-171 -322 0
-171 -334 0
-277 -287 0
-277 -297 0
-277 -311 0
-277 -322 0
-277 -334 0
-287 -297 0
-287 -311 0
-287 -322 0
-287 -334 0
-297 -311 0
-297 -322 0
-297 -334 0
-311 -322 0
-311 -334 0
-322 -334 0
25 130 142 161 183 269 308 378 387 390 413 0
-25 -130 0
-25 -142 0
-25 -161 0
-25 -183 0
-25 -269 0
-25 -308 0
-25 -378 0
-25 -387 0
-25 -390 0
-25 -413 0
-130 -142 0
-130 -161 0
-130 -183 0
-130 -269 0
-130 -308 0
-130 -378 0
-130 -387 0
-130 -390 0
-130 -413 0
-142 -161 0
-142 -183 0
-142 -269 0
-142 -308 0
-142 -378 0
-142 -387 0
-142 -390 0
-142 -413 0
-161 -183 0
-161 -269 0
-161 -308 0
-161 -378 0
-161 -387 0
-161 -390 0
-161 -413 0
-183 -269 0
-183 -308 0
-183 -378 0
-183 -387 0
-183 -390 0
-183 -413 0
-269 -308 0
-269 -378 0
-269 -387 0
-269 -390 0
-269 -413 0
-308 -378 0
-308 -387 0
-308 -390 0
-308 -413 0
-378 -387 0
-378 -390 0
-378 -413 0
-387 -390 0
-387 -413 0
-390 -413 0
46 120 130 195 277 320 358 398 424 434 446 0
-46 -120 0
-46 -130 0
-46 -195 0
-46 -277 0
-46 -320 0
-46 -358 0
-46 -398 0
-46 -424 0
-46 -434 0
-46 -446 0
-120 -130 0
-120 -195 0
-120 -277 0
-120 -320 0
-120 -358 0
-120 -398 0
-120 -424 0
-120 -434 0
-120 -446 0
-130 -195 0
-130 -277 0
-130 -320 0
-130 -358 0
-130 -398 0
-130 -424 0
-130 -434 0
-130 -446 0
-195 -277 0
-195 -320 0
-195 -358 0
-195 -398 0
-195 -424 0
-195 -434 0
-195 -446 0
-277 -320 0
-277 -358 0
-277 -398 0
-277 -424 0
-277 -434 0
-277 -446 0
-320 -358 0
-320 -398 0
-320 -424 0
-320 -434 0
-320 -446 0
-358 -398 0
-358 -424 0
-358 -434 0
-358 -446 0
-398 -424 0
-398 -434 0
-398 -446 0
-424 -434 0
-424 -446 0
-434 -446 0
47 58 120 184 207 248 269 287 409 418 452 0
-47 -58 0
-47 -120 0
-47 -184 0
-47 -207 0
-47 -248 0
-47 -269 0
-47 -287 0
-47 -409 0
-47 -418 0
-47 -452 0
-58 -120 0
-58 -184 0
-58 -207 0
-58 -248 0
-58 -269 0
-58 -287 0
-58 -409 0
-58 -418 0
-58 -452 0
-120 -184 0
-120 -207 0
-120 -248 0
-120 -269 0
-120 -287 0
-120 -409 0
-120 -418 0
-120 -452 0
-184 -207 0
-184 -248 0
-184 -269 0
-184 -287 0
-184 -409 0
-184 -418 0
-184 -452 0
-207 -248 0
-207 -269 0
-207 -287 0
-207 -409 0
-207 -418 0
-207 -452 0
-248 -269 0
-248 -287 0
-248 -409 0
-248 -418 0
-248 -452 0
-269 -287 0
-269 -409 0
-269 -418 0
-269 -452 0
-287 -409 0
-287 -418 0
-287 -452 0
-409 -418 0
-409 -452 0
-418 -452 0
70 81 226 230 248 311 327 353 358 378 431 0
-70 -81 0
-70 -226 0
-70 -230 0
-70 -248 0
-70 -311 0
-70 -327 0
-70 -353 0
-70 -358 0
-70 -378 0
-70 -431 0
-81 -226 0
-81 -230 0
-81 -248 0
-81 -311 0
-81 -327 0
-81 -353 0
-81 -358 0
-81 -378 0
-81 -431 0
-226 -230 0
-226 -248 0
-226 -311 0
-226 -327 0
-226 -353 0
-226 -358 0
-226 -378 0
-226 -431 0
-230 -248 0
-230 -311 0
-230 -327 0
-230 -353 0
-230 -358 0
-230 -378 0
-230 -431 0
-248 -311 0
-248 -327 0
-248 -353 0
-248 -358 0
-248 -378 0
-248 -431 0
-311 -327 0
-311 -353 0
-311 -358 0
-311 -378 0
-311 -431 0
-327 -353 0
-327 -358 0
-327 -378 0
-327 -431 0
-353 -358 0
-353 -378 0
-353 -431 0
-358 -378 0
-358 -431 0
-378 -431 0
76 82 92 213 218 241 322 364 383 390 424 0
-76 -82 0
-76 -92 0
-76 -213 0
-76 -218 0
-76 -241 0
-76 -322 0
-76 -364 0
-76 -383 0
-76 -390 0
-76 -424 0
-82 -92 0
-82 -213 0
-82 -218 0
-82 -241 0
-82 -322 0
-82 -364 0
-82 -383 0
-82 -390 0
-82 -424 0
-92 -213 0
-92 -218 0
-92 -241 0
-92 -322 0
-92 -364 0
-92 -383 0
-92 -390 0
-92 -424 0
-213 -218 0
-213 -241 0
-213 -322 0
-213 -364 0
-213 -383 0
-213 -390 0
-213 -424 0
-218 -241 0
-218 -322 0
-218 -364 0
-218 -383 0
-218 -390 0
-218 -424 0
-241 -322 0
-241 -364 0
-241 -383 0
-241 -390 0
-241 -424 0
-322 -364 0
-322 -383 0
-322 -390 0
-322 -424 0
-364 -383 0
-364 -390 0
-364 -424 0
-383 -390 0
-383 -424 0
-390 -424 0
65 76 93 104 226 231 253 305 334 375 418 434 0
-65 -76 0
-65 -93 0
-65 -104 0
-65 -226 0
-65 -231 0
-65 -253 0
-65 -305 0
-65 -334 0
-65 -375 0
-65 -418 0
-65 -434 0
-76 -93 0
-76 -104 0
-76 -226 0
-76 -231 0
-76 -253 0
-76 -305 0
-76 -334 0
-76 -375 0
-76 -418 0
-76 -434 0
-93 -104 0
-93 -226 0
-93 -231 0
-93 -253 0
-93 -305 0
-93 -334 0
-93 -375 0
-93 -418 0
-93 -434 0
-104 -226 0
-104 -231 0
-104 -253 0
-104 -305 0
-104 -334 0
-104 -375 0
-104 -418 0
-104 -434 0
-226 -231 0
-226 -253 0
-226 -305 0
-226 -334 0
-226 -375 0
-226 -418 0
-226 -434 0
-231 -253 0
-231 -305 0
-231 -334 0
-231 -375 0
-231 -418 0
-231 -434 0
-253 -305 0
-253 -334 0
-253 -375 0
-253 -418 0
-253 -434 0
-305 -334 0
-305 -375 0
-305 -418 0
-305 -434 0
-334 -375 0
-334 -418 0
-334 -434 0
-375 -418 0
-375 -434 0
-418 -434 0
65 105 116 191 213 242 264 294 327 413 446 452 0
-65 -105 0
-65 -116 0
-65 -191 0
-65 -213 0
-65 -242 0
-65 -264 0
-65 -294 0
-65 -327 0
-65 -413 0
-65 -446 0
-65 -452 0
-105 -116 0
-105 -191 0
-105 -213 0
-105 -242 0
-105 -264 0
-105 -294 0
-105 -327 0
-105 -413 0
-105 -446 0
-105 -452 0
-116 -191 0
-116 -213 0
-116 -242 0
-116 -264 0
-116 -294 0
-116 -327 0
-116 -413 0
-116 -446 0
-116 -452 0
-191 -213 0
-191 -242 0
-191 -264 0
-191 -294 0
-191 -327 0
-191 -413 0
-191 -446 0
-191 -452 0
-213 -242 0
-213 -264 0
-213 -294 0
-213 -327 0
-213 -413 0
-213 -446 0
-213 -452 0
-242 -264 0
-242 -294 0
-242 -327 0
-242 -413 0
-242 -446 0
-242 -452 0
-264 -294 0
-264 -327 0
-264 -413 0
-264 -446 0
-264 -452 0
-294 -327 0
-294 -413 0
-294 -446 0
-294 -452 0
-327 -413 0
-327 -446 0
-327 -452 0
-413 -446 0
-413 -452 0
-446 -452 0
127 138 170 191 265 305 383 387 398 409 431 0
-127 -138 0
-127 -170 0
-127 -191 0
-127 -265 0
-127 -305 0
-127 -383 0
-127 -387 0
-127 -398 0
-127 -409 0
-127 -431 0
-138 -170 0
-138 -191 0
-138 -265 0
-138 -305 0
-138 -383 0
-138 -387 0
-138 -398 0
-138 -409 0
-138 -431 0
-170 -191 0
-170 -265 0
-170 -305 0
-170 -383 0
-170 -387 0
-170 -398 0
-170 -409 0
-170 -431 0
-191 -265 0
-191 -305 0
-191 -383 0
-191 -387 0
-191 -398 0
-191 -409 0
-191 -431 0
-265 -305 0
-265 -383 0
-265 -387 0
-265 -398 0
-265 -409 0
-265 -431 0
-305 -383 0
-305 -387 0
-305 -398 0
-305 -409 0
-305 -431 0
-383 -387 0
-383 -398 0
-383 -409 0
-383 -431 0
-387 -398 0
-387 -409 0
-387 -431 0
-398 -409 0
-398 -431 0
-409 -431 0
22 139 149 275 294 297 308 320 353 364 375 0
-22 -139 0
-22 -149 0
-22 -275 0
-22 -294 0
-22 -297 0
-22 -308 0
-22 -320 0
-22 -353 0
-22 -364 0
-22 -375 0
-139 -149 0
-139 -275 0
-139 -294 0
-139 -297 0
-139 -308 0
-139 -320 0
-139 -353 0
-139 -364 0
-139 -375 0
-149 -275 0
-149 -294 0
-149 -297 0
-149 -308 0
-149 -320 0
-149 -353 0
-149 -364 0
-149 -375 0
-275 -294 0
-275 -297 0
-275 -308 0
-275 -320 0
-275 -353 0
-275 -364 0
-275 -375 0
-294 -297 0
-294 -308 0
-294 -320 0
-294 -353 0
-294 -364 0
-294 -375 0
-297 -308 0
-297 -320 0
-297 -353 0
-297 -364 0
-297 -375 0
-308 -320 0
-308 -353 0
-308 -364 0
-308 -375 0
-320 -353 0
-320 -364 0
-320 -375 0
-353 -364 0
-353 -375 0
-364 -375 0
2 3 14 36 48 71 83 94 106 117 128 140 0
-2 -3 0
-2 -14 0
-2 -36 0
-2 -48 0
-2 -71 0
-2 -83 0
-2 -94 0
-2 -106 0
-2 -117 0
-2 -128 0
-2 -140 0
-3 -14 0
-3 -36 0
-3 -48 0
-3 -71 0
-3 -83 0
-3 -94 0
-3 -106 0
-3 -117 0
-3 -128 0
-3 -140 0
-14 -36 0
-14 -48 0
-14 -71 0
-14 -83 0
-14 -94 0
-14 -106 0
-14 -117 0
-14 -128 0
-14 -140 0
-36 -48 0
-36 -71 0
-36 -83 0
-36 -94 0
-36 -106 0
-36 -117 0
-36 -128 0
-36 -140 0
-48 -71 0
-48 -83 0
-48 -94 0
-48 -106 0
-48 -117 0
-48 -128 0
-48 -140 0
-71 -83 0
-71 -94 0
-71 -106 0
-71 -117 0
-71 -128 0
-71 -140 0
-83 -94 0
-83 -106 0
-83 -117 0
-83 -128 0
-83 -140 0
-94 -106 0
-94 -117 0
-94 -128 0
-94 -140 0
-106 -117 0
-106 -128 0
-106 -140 0
-117 -128 0
-117 -140 0
-128 -140 0
3 13 152 172 185 196 208 219 243 266 276 0
-3 -13 0
-3 -152 0
-3 -172 0
-3 -185 0
-3 -196 0
-3 -208 0
-3 -219 0
-3 -243 0
-3 -266 0
-3 -276 0
-13 -152 0
-13 -172 0
-13 -185 0
-13 -196 0
-13 -208 0
-13 -219 0
-13 -243 0
-13 -266 0
-13 -276 0
-152 -172 0
-152 -185 0
-152 -196 0
-152 -208 0
-152 -219 0
-152 -243 0
-152 -266 0
-152 -276 0
-172 -185 0
-172 -196 0
-172 -208 0
-172 -219 0
-172 -243 0
-172 -266 0
-172 -276 0
-185 -196 0
-185 -208 0
-185 -219 0
-185 -243 0
-185 -266 0
-185 -276 0
-196 -208 0
-196 -219 0
-196 -243 0
-196 -266 0
-196 -276 0
-208 -219 0
-208 -243 0
-208 -266 0
-208 -276 0
-219 -243 0
-219 -266 0
-219 -276 0
-243 -266 0
-243 -276 0
-266 -276 0
14 25 152 278 286 288 299 312 335 345 356 367 0
-14 -25 0
-14 -152 0
-14 -278 0
-14 -286 0
-14 -288 0
-14 -299 0
-14 -312 0
-14 -335 0
-14 -345 0
-14 -356 0
-14 -367 0
-25 -152 0
-25 -278 0
-25 -286 0
-25 -288 0
-25 -299 0
-25 -312 0
-25 -335 0
-25 -345 0
-25 -356 0
-25 -367 0
-152 -278 0
-152 -286 0
-152 -288 0
-152 -299 0
-152 -312 0
-152 -335 0
-152 -345 0
-152 -356 0
-152 -367 0
-278 -286 0
-278 -288 0
-278 -299 0
-278 -312 0
-278 -335 0
-278 -345 0
-278 -356 0
-278 -367 0
-286 -288 0
-286 -299 0
-286 -312 0
-286 -335 0
-286 -345 0
-286 -356 0
-286 -367 0
-288 -299 0
-288 -312 0
-288 -335 0
-288 -345 0
-288 -356 0
-288 -367 0
-299 -312 0
-299 -335 0
-299 -345 0
-299 -356 0
-299 -367 0
-312 -335 0
-312 -345 0
-312 -356 0
-312 -367 0
-335 -345 0
-335 -356 0
-335 -367 0
-345 -356 0
-345 -367 0
-356 -367 0
36 47 121 172 256 278 309 425 435 443 447 0
-36 -47 0
-36 -121 0
-36 -172 0
-36 -256 0
-36 -278 0
-36 -309 0
-36 -425 0
-36 -435 0
-36 -443 0
-36 -447 0
-47 -121 0
-47 -172 0
-47 -256 0
-47 -278 0
-47 -309 0
-47 -425 0
-47 -435 0
-47 -443 0
-47 -447 0
-121 -172 0
-121 -256 0
-121 -278 0
-121 -309 0
-121 -425 0
-121 -435 0
-121 -443 0
-121 -447 0
-172 -256 0
-172 -278 0
-172 -309 0
-172 -425 0
-172 -435 0
-172 -443 0
-172 -447 0
-256 -278 0
-256 -309 0
-256 -425 0
-256 -435 0
-256 -443 0
-256 -447 0
-278 -309 0
-278 -425 0
-278 -435 0
-278 -443 0
-278 -447 0
-309 -425 0
-309 -435 0
-309 -443 0
-309 -447 0
-425 -435 0
-425 -443 0
-425 -447 0
-435 -443 0
-435 -447 0
-443 -447 0
48 110 121 185 249 288 321 348 410 453 456 0
-48 -110 0
-48 -121 0
-48 -185 0
-48 -249 0
-48 -288 0
-48 -321 0
-48 -348 0
-48 -410 0
-48 -453 0
-48 -456 0
-110 -121 0
-110 -185 0
-110 -249 0
-110 -288 0
-110 -321 0
-110 -348 0
-110 -410 0
-110 -453 0
-110 -456 0
-121 -185 0
-121 -249 0
-121 -288 0
-121 -321 0
-121 -348 0
-121 -410 0
-121 -453 0
-121 -456 0
-185 -249 0
-185 -288 0
-185 -321 0
-185 -348 0
-185 -410 0
-185 -453 0
-185 -456 0
-249 -288 0
-249 -321 0
-249 -348 0
-249 -410 0
-249 -453 0
-249 -456 0
-288 -321 0
-288 -348 0
-288 -410 0
-288 -453 0
-288 -456 0
-321 -348 0
-321 -410 0
-321 -453 0
-321 -456 0
-348 -410 0
-348 -453 0
-348 -456 0
-410 -453 0
-410 -456 0
-453 -456 0
70 110 196 235 256 299 332 338 404 421 440 0
-70 -110 0
-70 -196 0
-70 -235 0
-70 -256 0
-70 -299 0
-70 -332 0
-70 -338 0
-70 -404 0
-70 -421 0
-70 -440 0
-110 -196 0
-110 -235 0
-110 -256 0
-110 -299 0
-110 -332 0
-110 -338 0
-110 -404 0
-110 -421 0
-110 -440 0
-196 -235 0
-196 -256 0
-196 -299 0
-196 -332 0
-196 -338 0
-196 -404 0
-196 -421 0
-196 -440 0
-235 -256 0
-235 -299 0
-235 -332 0
-235 -338 0
-235 -404 0
-235 -421 0
-235 -440 0
-256 -299 0
-256 -332 0
-256 -338 0
-256 -404 0
-256 -421 0
-256 -440 0
-299 -332 0
-299 -338 0
-299 -404 0
-299 -421 0
-299 -440 0
-332 -338 0
-332 -404 0
-332 -421 0
-332 -440 0
-338 -404 0
-338 -421 0
-338 -440 0
-404 -421 0
-404 -440 0
-421 -440 0
71 82 88 208 227 249 312 328 343 396 432 0
-71 -82 0
-71 -88 0
-71 -208 0
-71 -227 0
-71 -249 0
-71 -312 0
-71 -328 0
-71 -343 0
-71 -396 0
-71 -432 0
-82 -88 0
-82 -208 0
-82 -227 0
-82 -249 0
-82 -312 0
-82 -328 0
-82 -343 0
-82 -396 0
-82 -432 0
-88 -208 0
-88 -227 0
-88 -249 0
-88 -312 0
-88 -328 0
-88 -343 0
-88 -396 0
-88 -432 0
-208 -227 0
-208 -249 0
-208 -312 0
-208 -328 0
-208 -343 0
-208 -396 0
-208 -432 0
-227 -249 0
-227 -312 0
-227 -328 0
-227 -343 0
-227 -396 0
-227 -432 0
-249 -312 0
-249 -328 0
-249 -343 0
-249 -396 0
-249 -432 0
-312 -328 0
-312 -343 0
-312 -396 0
-312 -432 0
-328 -343 0
-328 -396 0
-328 -432 0
-343 -396 0
-343 -432 0
-396 -432 0
77 83 88 93 219 235 317 348 354 384 425 0
-77 -83 0
-77 -88 0
-77 -93 0
-77 -219 0
-77 -235 0
-77 -317 0
-77 -348 0
-77 -354 0
-77 -384 0
-77 -425 0
-83 -88 0
-83 -93 0
-83 -219 0
-83 -235 0
-83 -317 0
-83 -348 0
-83 -354 0
-83 -384 0
-83 -425 0
-88 -93 0
-88 -219 0
-88 -235 0
-88 -317 0
-88 -348 0
-88 -354 0
-88 -384 0
-88 -425 0
-93 -219 0
-93 -235 0
-93 -317 0
-93 -348 0
-93 -354 0
-93 -384 0
-93 -425 0
-219 -235 0
-219 -317 0
-219 -348 0
-219 -354 0
-219 -384 0
-219 -425 0
-235 -317 0
-235 -348 0
-235 -354 0
-235 -384 0
-235 -425 0
-317 -348 0
-317 -354 0
-317 -384 0
-317 -425 0
-348 -354 0
-348 -384 0
-348 -425 0
-354 -384 0
-354 -425 0
-384 -425 0
66 77 94 105 205 227 306 335 338 365 435 0
-66 -77 0
-66 -94 0
-66 -105 0
-66 -205 0
-66 -227 0
-66 -306 0
-66 -335 0
-66 -338 0
-66 -365 0
-66 -435 0
-77 -94 0
-77 -105 0
-77 -205 0
-77 -227 0
-77 -306 0
-77 -335 0
-77 -338 0
-77 -365 0
-77 -435 0
-94 -105 0
-94 -205 0
-94 -227 0
-94 -306 0
-94 -335 0
-94 -338 0
-94 -365 0
-94 -435 0
-105 -205 0
-105 -227 0
-105 -306 0
-105 -335 0
-105 -338 0
-105 -365 0
-105 -435 0
-205 -227 0
-205 -306 0
-205 -335 0
-205 -338 0
-205 -365 0
-205 -435 0
-227 -306 0
-227 -335 0
-227 -338 0
-227 -365 0
-227 -435 0
-306 -335 0
-306 -338 0
-306 -365 0
-306 -435 0
-335 -338 0
-335 -365 0
-335 -435 0
-338 -365 0
-338 -435 0
-365 -435 0
55 66 106 192 243 295 328 345 404 447 453 0
-55 -66 0
-55 -106 0
-55 -192 0
-55 -243 0
-55 -295 0
-55 -328 0
-55 -345 0
-55 -404 0
-55 -447 0
-55 -453 0
-66 -106 0
-66 -192 0
-66 -243 0
-66 -295 0
-66 -328 0
-66 -345 0
-66 -404 0
-66 -447 0
-66 -453 0
-106 -192 0
-106 -243 0
-106 -295 0
-106 -328 0
-106 -345 0
-106 -404 0
-106 -447 0
-106 -453 0
-192 -243 0
-192 -295 0
-192 -328 0
-192 -345 0
-192 -404 0
-192 -447 0
-192 -453 0
-243 -295 0
-243 -328 0
-243 -345 0
-243 -404 0
-243 -447 0
-243 -453 0
-295 -328 0
-295 -345 0
-295 -404 0
-295 -447 0
-295 -453 0
-328 -345 0
-328 -404 0
-328 -447 0
-328 -453 0
-345 -404 0
-345 -447 0
-345 -453 0
-404 -447 0
-404 -453 0
-447 -453 0
55 117 127 181 205 317 356 396 440 443 456 0
-55 -117 0
-55 -127 0
-55 -181 0
-55 -205 0
-55 -317 0
-55 -356 0
-55 -396 0
-55 -440 0
-55 -443 0
-55 -456 0
-117 -127 0
-117 -181 0
-117 -205 0
-117 -317 0
-117 -356 0
-117 -396 0
-117 -440 0
-117 -443 0
-117 -456 0
-127 -181 0
-127 -205 0
-127 -317 0
-127 -356 0
-127 -396 0
-127 -440 0
-127 -443 0
-127 -456 0
-181 -205 0
-181 -317 0
-181 -356 0
-181 -396 0
-181 -440 0
-181 -443 0
-181 -456 0
-205 -317 0
-205 -356 0
-205 -396 0
-205 -440 0
-205 -443 0
-205 -456 0
-317 -356 0
-317 -396 0
-317 -440 0
-317 -443 0
-317 -456 0
-356 -396 0
-356 -440 0
-356 -443 0
-356 -456 0
-396 -440 0
-396 -443 0
-396 -456 0
-440 -443 0
-440 -456 0
-443 -456 0
34 128 139 192 266 306 367 384 410 421 432 0
-34 -128 0
-34 -139 0
-34 -192 0
-34 -266 0
-34 -306 0
-34 -367 0
-34 -384 0
-34 -410 0
-34 -421 0
-34 -432 0
-128 -139 0
-128 -192 0
-128 -266 0
-128 -306 0
-128 -367 0
-128 -384 0
-128 -410 0
-128 -421 0
-128 -432 0
-139 -192 0
-139 -266 0
-139 -306 0
-139 -367 0
-139 -384 0
-139 -410 0
-139 -421 0
-139 -432 0
-192 -266 0
-192 -306 0
-192 -367 0
-192 -384 0
-192 -410 0
-192 -421 0
-192 -432 0
-266 -306 0
-266 -367 0
-266 -384 0
-266 -410 0
-266 -421 0
-266 -432 0
-306 -367 0
-306 -384 0
-306 -410 0
-306 -421 0
-306 -432 0
-367 -384 0
-367 -410 0
-367 -421 0
-367 -432 0
-384 -410 0
-384 -421 0
-384 -432 0
-410 -421 0
-410 -432 0
-421 -432 0
3 4 26 37 59 72 95 118 129 141 151 0
-3 -4 0
-3 -26 0
-3 -37 0
-3 -59 0
-3 -72 0
-3 -95 0
-3 -118 0
-3 -129 0
-3 -141 0
-3 -151 0
-4 -26 0
-4 -37 0
-4 -59 0
-4 -72 0
-4 -95 0
-4 -118 0
-4 -129 0
-4 -141 0
-4 -151 0
-26 -37 0
-26 -59 0
-26 -72 0
-26 -95 0
-26 -118 0
-26 -129 0
-26 -141 0
-26 -151 0
-37 -59 0
-37 -72 0
-37 -95 0
-37 -118 0
-37 -129 0
-37 -141 0
-37 -151 0
-59 -72 0
-59 -95 0
-59 -118 0
-59 -129 0
-59 -141 0
-59 -151 0
-72 -95 0
-72 -118 0
-72 -129 0
-72 -141 0
-72 -151 0
-95 -118 0
-95 -129 0
-95 -141 0
-95 -151 0
-118 -129 0
-118 -141 0
-118 -151 0
-129 -141 0
-129 -151 0
-141 -151 0
4 14 161 162 173 197 220 232 244 254 267 0
-4 -14 0
-4 -161 0
-4 -162 0
-4 -173 0
-4 -197 0
-4 -220 0
-4 -232 0
-4 -244 0
-4 -254 0
-4 -267 0
-14 -161 0
-14 -162 0
-14 -173 0
-14 -197 0
-14 -220 0
-14 -232 0
-14 -244 0
-14 -254 0
-14 -267 0
-161 -162 0
-161 -173 0
-161 -197 0
-161 -220 0
-161 -232 0
-161 -244 0
-161 -254 0
-161 -267 0
-162 -173 0
-162 -197 0
-162 -220 0
-162 -232 0
-162 -244 0
-162 -254 0
-162 -267 0
-173 -197 0
-173 -220 0
-173 -232 0
-173 -244 0
-173 -254 0
-173 -267 0
-197 -220 0
-197 -232 0
-197 -244 0
-197 -254 0
-197 -267 0
-220 -232 0
-220 -244 0
-220 -254 0
-220 -267 0
-232 -244 0
-232 -254 0
-232 -267 0
-244 -254 0
-244 -267 0
-254 -267 0
26 36 131 162 184 298 376 379 391 400 414 0
-26 -36 0
-26 -131 0
-26 -162 0
-26 -184 0
-26 -298 0
-26 -376 0
-26 -379 0
-26 -391 0
-26 -400 0
-26 -414 0
-36 -131 0
-36 -162 0
-36 -184 0
-36 -298 0
-36 -376 0
-36 -379 0
-36 -391 0
-36 -400 0
-36 -414 0
-131 -162 0
-131 -184 0
-131 -298 0
-131 -376 0
-131 -379 0
-131 -391 0
-131 -400 0
-131 -414 0
-162 -184 0
-162 -298 0
-162 -376 0
-162 -379 0
-162 -391 0
-162 -400 0
-162 -414 0
-184 -298 0
-184 -376 0
-184 -379 0
-184 -391 0
-184 -400 0
-184 -414 0
-298 -376 0
-298 -379 0
-298 -391 0
-298 -400 0
-298 -414 0
-376 -379 0
-376 -391 0
-376 -400 0
-376 -414 0
-379 -391 0
-379 -400 0
-379 -414 0
-391 -400 0
-391 -414 0
-400 -414 0
37 48 131 173 257 310 359 388 436 444 448 0
-37 -48 0
-37 -131 0
-37 -173 0
-37 -257 0
-37 -310 0
-37 -359 0
-37 -388 0
-37 -436 0
-37 -444 0
-37 -448 0
-48 -131 0
-48 -173 0
-48 -257 0
-48 -310 0
-48 -359 0
-48 -388 0
-48 -436 0
-48 -444 0
-48 -448 0
-131 -173 0
-131 -257 0
-131 -310 0
-131 -359 0
-131 -388 0
-131 -436 0
-131 -444 0
-131 -448 0
-173 -257 0
-173 -310 0
-173 -359 0
-173 -388 0
-173 -436 0
-173 -444 0
-173 -448 0
-257 -310 0
-257 -359 0
-257 -388 0
-257 -436 0
-257 -444 0
-257 -448 0
-310 -359 0
-310 -388 0
-310 -436 0
-310 -444 0
-310 -448 0
-359 -388 0
-359 -436 0
-359 -444 0
-359 -448 0
-388 -436 0
-388 -444 0
-388 -448 0
-436 -444 0
-436 -448 0
-444 -448 0
59 71 99 197 218 236 257 333 339 405 411 441 0
-59 -71 0
-59 -99 0
-59 -197 0
-59 -218 0
-59 -236 0
-59 -257 0
-59 -333 0
-59 -339 0
-59 -405 0
-59 -411 0
-59 -441 0
-71 -99 0
-71 -197 0
-71 -218 0
-71 -236 0
-71 -257 0
-71 -333 0
-71 -339 0
-71 -405 0
-71 -411 0
-71 -441 0
-99 -197 0
-99 -218 0
-99 -236 0
-99 -257 0
-99 -333 0
-99 -339 0
-99 -405 0
-99 -411 0
-99 -441 0
-197 -218 0
-197 -236 0
-197 -257 0
-197 -333 0
-197 -339 0
-197 -405 0
-197 -411 0
-197 -441 0
-218 -236 0
-218 -257 0
-218 -333 0
-218 -339 0
-218 -405 0
-218 -411 0
-218 -441 0
-236 -257 0
-236 -333 0
-236 -339 0
-236 -405 0
-236 -411 0
-236 -441 0
-257 -333 0
-257 -339 0
-257 -405 0
-257 -411 0
-257 -441 0
-333 -339 0
-333 -405 0
-333 -411 0
-333 -441 0
-339 -405 0
-339 -411 0
-339 -441 0
-405 -411 0
-405 -441 0
-411 -441 0
72 83 89 99 231 329 344 359 379 397 422 0
-72 -83 0
-72 -89 0
-72 -99 0
-72 -231 0
-72 -329 0
-72 -344 0
-72 -359 0
-72 -379 0
-72 -397 0
-72 -422 0
-83 -89 0
-83 -99 0
-83 -231 0
-83 -329 0
-83 -344 0
-83 -359 0
-83 -379 0
-83 -397 0
-83 -422 0
-89 -99 0
-89 -231 0
-89 -329 0
-89 -344 0
-89 -359 0
-89 -379 0
-89 -397 0
-89 -422 0
-99 -231 0
-99 -329 0
-99 -344 0
-99 -359 0
-99 -379 0
-99 -397 0
-99 -422 0
-231 -329 0
-231 -344 0
-231 -359 0
-231 -379 0
-231 -397 0
-231 -422 0
-329 -344 0
-329 -359 0
-329 -379 0
-329 -397 0
-329 -422 0
-344 -359 0
-344 -379 0
-344 -397 0
-344 -422 0
-359 -379 0
-359 -397 0
-359 -422 0
-379 -397 0
-379 -422 0
-397 -422 0
78 89 94 214 220 236 242 318 355 385 391 0
-78 -89 0
-78 -94 0
-78 -214 0
-78 -220 0
-78 -236 0
-78 -242 0
-78 -318 0
-78 -355 0
-78 -385 0
-78 -391 0
-89 -94 0
-89 -214 0
-89 -220 0
-89 -236 0
-89 -242 0
-89 -318 0
-89 -355 0
-89 -385 0
-89 -391 0
-94 -214 0
-94 -220 0
-94 -236 0
-94 -242 0
-94 -318 0
-94 -355 0
-94 -385 0
-94 -391 0
-214 -220 0
-214 -236 0
-214 -242 0
-214 -318 0
-214 -355 0
-214 -385 0
-214 -391 0
-220 -236 0
-220 -242 0
-220 -318 0
-220 -355 0
-220 -385 0
-220 -391 0
-236 -242 0
-236 -318 0
-236 -355 0
-236 -385 0
-236 -391 0
-242 -318 0
-242 -355 0
-242 -385 0
-242 -391 0
-318 -355 0
-318 -385 0
-318 -391 0
-355 -385 0
-355 -391 0
-385 -391 0
67 78 95 106 206 232 307 339 366 400 436 0
-67 -78 0
-67 -95 0
-67 -106 0
-67 -206 0
-67 -232 0
-67 -307 0
-67 -339 0
-67 -366 0
-67 -400 0
-67 -436 0
-78 -95 0
-78 -106 0
-78 -206 0
-78 -232 0
-78 -307 0
-78 -339 0
-78 -366 0
-78 -400 0
-78 -436 0
-95 -106 0
-95 -206 0
-95 -232 0
-95 -307 0
-95 -339 0
-95 -366 0
-95 -400 0
-95 -436 0
-106 -206 0
-106 -232 0
-106 -307 0
-106 -339 0
-106 -366 0
-106 -400 0
-106 -436 0
-206 -232 0
-206 -307 0
-206 -339 0
-206 -366 0
-206 -400 0
-206 -436 0
-232 -307 0
-232 -339 0
-232 -366 0
-232 -400 0
-232 -436 0
-307 -339 0
-307 -366 0
-307 -400 0
-307 -436 0
-339 -366 0
-339 -400 0
-339 -436 0
-366 -400 0
-366 -436 0
-400 -436 0
67 117 193 214 244 265 296 329 405 414 448 0
-67 -117 0
-67 -193 0
-67 -214 0
-67 -244 0
-67 -265 0
-67 -296 0
-67 -329 0
-67 -405 0
-67 -414 0
-67 -448 0
-117 -193 0
-117 -214 0
-117 -244 0
-117 -265 0
-117 -296 0
-117 -329 0
-117 -405 0
-117 -414 0
-117 -448 0
-193 -214 0
-193 -244 0
-193 -265 0
-193 -296 0
-193 -329 0
-193 -405 0
-193 -414 0
-193 -448 0
-214 -244 0
-214 -265 0
-214 -296 0
-214 -329 0
-214 -405 0
-214 -414 0
-214 -448 0
-244 -265 0
-244 -296 0
-244 -329 0
-244 -405 0
-244 -414 0
-244 -448 0
-265 -296 0
-265 -329 0
-265 -405 0
-265 -414 0
-265 -448 0
-296 -329 0
-296 -405 0
-296 -414 0
-296 -448 0
-329 -405 0
-329 -414 0
-329 -448 0
-405 -414 0
-405 -448 0
-414 -448 0
45 118 128 182 206 254 275 318 397 441 444 0
-45 -118 0
-45 -128 0
-45 -182 0
-45 -206 0
-45 -254 0
-45 -275 0
-45 -318 0
-45 -397 0
-45 -441 0
-45 -444 0
-118 -128 0
-118 -182 0
-118 -206 0
-118 -254 0
-118 -275 0
-118 -318 0
-118 -397 0
-118 -441 0
-118 -444 0
-128 -182 0
-128 -206 0
-128 -254 0
-128 -275 0
-128 -318 0
-128 -397 0
-128 -441 0
-128 -444 0
-182 -206 0
-182 -254 0
-182 -275 0
-182 -318 0
-182 -397 0
-182 -441 0
-182 -444 0
-206 -254 0
-206 -275 0
-206 -318 0
-206 -397 0
-206 -441 0
-206 -444 0
-254 -275 0
-254 -318 0
-254 -397 0
-254 -441 0
-254 -444 0
-275 -318 0
-275 -397 0
-275 -441 0
-275 -444 0
-318 -397 0
-318 -441 0
-318 -444 0
-397 -441 0
-397 -444 0
-441 -444 0
4 5 15 27 38 49 84 107 119 142 152 0
-4 -5 0
-4 -15 0
-4 -27 0
-4 -38 0
-4 -49 0
-4 -84 0
-4 -107 0
-4 -119 0
-4 -142 0
-4 -152 0
-5 -15 0
-5 -27 0
-5 -38 0
-5 -49 0
-5 -84 0
-5 -107 0
-5 -119 0
-5 -142 0
-5 -152 0
-15 -27 0
-15 -38 0
-15 -49 0
-15 -84 0
-15 -107 0
-15 -119 0
-15 -142 0
-15 -152 0
-27 -38 0
-27 -49 0
-27 -84 0
-27 -107 0
-27 -119 0
-27 -142 0
-27 -152 0
-38 -49 0
-38 -84 0
-38 -107 0
-38 -119 0
-38 -142 0
-38 -152 0
-49 -84 0
-49 -107 0
-49 -119 0
-49 -142 0
-49 -152 0
-84 -107 0
-84 -119 0
-84 -142 0
-84 -152 0
-107 -119 0
-107 -142 0
-107 -152 0
-119 -142 0
-119 -152 0
-142 -152 0
5 153 163 174 186 198 221 245 255 268 277 0
-5 -153 0
-5 -163 0
-5 -174 0
-5 -186 0
-5 -198 0
-5 -221 0
-5 -245 0
-5 -255 0
-5 -268 0
-5 -277 0
-153 -163 0
-153 -174 0
-153 -186 0
-153 -198 0
-153 -221 0
-153 -245 0
-153 -255 0
-153 -268 0
-153 -277 0
-163 -174 0
-163 -186 0
-163 -198 0
-163 -221 0
-163 -245 0
-163 -255 0
-163 -268 0
-163 -277 0
-174 -186 0
-174 -198 0
-174 -221 0
-174 -245 0
-174 -255 0
-174 -268 0
-174 -277 0
-186 -198 0
-186 -221 0
-186 -245 0
-186 -255 0
-186 -268 0
-186 -277 0
-198 -221 0
-198 -245 0
-198 -255 0
-198 -268 0
-198 -277 0
-221 -245 0
-221 -255 0
-221 -268 0
-221 -277 0
-245 -255 0
-245 -268 0
-245 -277 0
-255 -268 0
-255 -277 0
-268 -277 0
15 26 143 153 172 279 287 300 323 357 368 0
-15 -26 0
-15 -143 0
-15 -153 0
-15 -172 0
-15 -279 0
-15 -287 0
-15 -300 0
-15 -323 0
-15 -357 0
-15 -368 0
-26 -143 0
-26 -153 0
-26 -172 0
-26 -279 0
-26 -287 0
-26 -300 0
-26 -323 0
-26 -357 0
-26 -368 0
-143 -153 0
-143 -172 0
-143 -279 0
-143 -287 0
-143 -300 0
-143 -323 0
-143 -357 0
-143 -368 0
-153 -172 0
-153 -279 0
-153 -287 0
-153 -300 0
-153 -323 0
-153 -357 0
-153 -368 0
-172 -279 0
-172 -287 0
-172 -300 0
-172 -323 0
-172 -357 0
-172 -368 0
-279 -287 0
-279 -300 0
-279 -323 0
-279 -357 0
-279 -368 0
-287 -300 0
-287 -323 0
-287 -357 0
-287 -368 0
-300 -323 0
-300 -357 0
-300 -368 0
-323 -357 0
-323 -368 0
-357 -368 0
27 37 132 143 163 185 270 369 377 392 415 423 0
-27 -37 0
-27 -132 0
-27 -143 0
-27 -163 0
-27 -185 0
-27 -270 0
-27 -369 0
-27 -377 0
-27 -392 0
-27 -415 0
-27 -423 0
-37 -132 0
-37 -143 0
-37 -163 0
-37 -185 0
-37 -270 0
-37 -369 0
-37 -377 0
-37 -392 0
-37 -415 0
-37 -423 0
-132 -143 0
-132 -163 0
-132 -185 0
-132 -270 0
-132 -369 0
-132 -377 0
-132 -392 0
-132 -415 0
-132 -423 0
-143 -163 0
-143 -185 0
-143 -270 0
-143 -369 0
-143 -377 0
-143 -392 0
-143 -415 0
-143 -423 0
-163 -185 0
-163 -270 0
-163 -369 0
-163 -377 0
-163 -392 0
-163 -415 0
-163 -423 0
-185 -270 0
-185 -369 0
-185 -377 0
-185 -392 0
-185 -415 0
-185 -423 0
-270 -369 0
-270 -377 0
-270 -392 0
-270 -415 0
-270 -423 0
-369 -377 0
-369 -392 0
-369 -415 0
-369 -423 0
-377 -392 0
-377 -415 0
-377 -423 0
-392 -415 0
-392 -423 0
-415 -423 0
38 132 174 196 258 279 311 389 426 433 449 0
-38 -132 0
-38 -174 0
-38 -196 0
-38 -258 0
-38 -279 0
-38 -311 0
-38 -389 0
-38 -426 0
-38 -433 0
-38 -449 0
-132 -174 0
-132 -196 0
-132 -258 0
-132 -279 0
-132 -311 0
-132 -389 0
-132 -426 0
-132 -433 0
-132 -449 0
-174 -196 0
-174 -258 0
-174 -279 0
-174 -311 0
-174 -389 0
-174 -426 0
-174 -433 0
-174 -449 0
-196 -258 0
-196 -279 0
-196 -311 0
-196 -389 0
-196 -426 0
-196 -433 0
-196 -449 0
-258 -279 0
-258 -311 0
-258 -389 0
-258 -426 0
-258 -433 0
-258 -449 0
-279 -311 0
-279 -389 0
-279 -426 0
-279 -433 0
-279 -449 0
-311 -389 0
-311 -426 0
-311 -433 0
-311 -449 0
-389 -426 0
-389 -433 0
-389 -449 0
-426 -433 0
-426 -449 0
-433 -449 0
49 59 111 186 208 270 322 349 399 445 454 0
-49 -59 0
-49 -111 0
-49 -186 0
-49 -208 0
-49 -270 0
-49 -322 0
-49 -349 0
-49 -399 0
-49 -445 0
-49 -454 0
-59 -111 0
-59 -186 0
-59 -208 0
-59 -270 0
-59 -322 0
-59 -349 0
-59 -399 0
-59 -445 0
-59 -454 0
-111 -186 0
-111 -208 0
-111 -270 0
-111 -322 0
-111 -349 0
-111 -399 0
-111 -445 0
-111 -454 0
-186 -208 0
-186 -270 0
-186 -322 0
-186 -349 0
-186 -399 0
-186 -445 0
-186 -454 0
-208 -270 0
-208 -322 0
-208 -349 0
-208 -399 0
-208 -445 0
-208 -454 0
-270 -322 0
-270 -349 0
-270 -399 0
-270 -445 0
-270 -454 0
-322 -349 0
-322 -399 0
-322 -445 0
-322 -454 0
-349 -399 0
-349 -445 0
-349 -454 0
-399 -445 0
-399 -454 0
-445 -454 0
72 111 198 219 258 300 334 369 406 412 442 0
-72 -111 0
-72 -198 0
-72 -219 0
-72 -258 0
-72 -300 0
-72 -334 0
-72 -369 0
-72 -406 0
-72 -412 0
-72 -442 0
-111 -198 0
-111 -219 0
-111 -258 0
-111 -300 0
-111 -334 0
-111 -369 0
-111 -406 0
-111 -412 0
-111 -442 0
-198 -219 0
-198 -258 0
-198 -300 0
-198 -334 0
-198 -369 0
-198 -406 0
-198 -412 0
-198 -442 0
-219 -258 0
-219 -300 0
-219 -334 0
-219 -369 0
-219 -406 0
-219 -412 0
-219 -442 0
-258 -300 0
-258 -334 0
-258 -369 0
-258 -406 0
-258 -412 0
-258 -442 0
-300 -334 0
-300 -369 0
-300 -406 0
-300 -412 0
-300 -442 0
-334 -369 0
-334 -406 0
-334 -412 0
-334 -442 0
-369 -406 0
-369 -412 0
-369 -442 0
-406 -412 0
-406 -442 0
-412 -442 0
84 95 215 221 243 319 323 349 386 392 426 0
-84 -95 0
-84 -215 0
-84 -221 0
-84 -243 0
-84 -319 0
-84 -323 0
-84 -349 0
-84 -386 0
-84 -392 0
-84 -426 0
-95 -215 0
-95 -221 0
-95 -243 0
-95 -319 0
-95 -323 0
-95 -349 0
-95 -386 0
-95 -392 0
-95 -426 0
-215 -221 0
-215 -243 0
-215 -319 0
-215 -323 0
-215 -349 0
-215 -386 0
-215 -392 0
-215 -426 0
-221 -243 0
-221 -319 0
-221 -323 0
-221 -349 0
-221 -386 0
-221 -392 0
-221 -426 0
-243 -319 0
-243 -323 0
-243 -349 0
-243 -386 0
-243 -392 0
-243 -426 0
-319 -323 0
-319 -349 0
-319 -386 0
-319 -392 0
-319 -426 0
-323 -349 0
-323 -386 0
-323 -392 0
-323 -426 0
-349 -386 0
-349 -392 0
-349 -426 0
-386 -392 0
-386 -426 0
-392 -426 0
56 107 118 194 215 245 266 297 406 415 449 454 0
-56 -107 0
-56 -118 0
-56 -194 0
-56 -215 0
-56 -245 0
-56 -266 0
-56 -297 0
-56 -406 0
-56 -415 0
-56 -449 0
-56 -454 0
-107 -118 0
-107 -194 0
-107 -215 0
-107 -245 0
-107 -266 0
-107 -297 0
-107 -406 0
-107 -415 0
-107 -449 0
-107 -454 0
-118 -194 0
-118 -215 0
-118 -245 0
-118 -266 0
-118 -297 0
-118 -406 0
-118 -415 0
-118 -449 0
-118 -454 0
-194 -215 0
-194 -245 0
-194 -266 0
-194 -297 0
-194 -406 0
-194 -415 0
-194 -449 0
-194 -454 0
-215 -245 0
-215 -266 0
-215 -297 0
-215 -406 0
-215 -415 0
-215 -449 0
-215 -454 0
-245 -266 0
-245 -297 0
-245 -406 0
-245 -415 0
-245 -449 0
-245 -454 0
-266 -297 0
-266 -406 0
-266 -415 0
-266 -449 0
-266 -454 0
-297 -406 0
-297 -415 0
-297 -449 0
-297 -454 0
-406 -415 0
-406 -449 0
-406 -454 0
-415 -449 0
-415 -454 0
-449 -454 0
5 6 16 28 39 60 73 85 96 108 130 0
-5 -6 0
-5 -16 0
-5 -28 0
-5 -39 0
-5 -60 0
-5 -73 0
-5 -85 0
-5 -96 0
-5 -108 0
-5 -130 0
-6 -16 0
-6 -28 0
-6 -39 0
-6 -60 0
-6 -73 0
-6 -85 0
-6 -96 0
-6 -108 0
-6 -130 0
-16 -28 0
-16 -39 0
-16 -60 0
-16 -73 0
-16 -85 0
-16 -96 0
-16 -108 0
-16 -130 0
-28 -39 0
-28 -60 0
-28 -73 0
-28 -85 0
-28 -96 0
-28 -108 0
-28 -130 0
-39 -60 0
-39 -73 0
-39 -85 0
-39 -96 0
-39 -108 0
-39 -130 0
-60 -73 0
-60 -85 0
-60 -96 0
-60 -108 0
-60 -130 0
-73 -85 0
-73 -96 0
-73 -108 0
-73 -130 0
-85 -96 0
-85 -108 0
-85 -130 0
-96 -108 0
-96 -130 0
-108 -130 0
6 15 154 162 164 199 209 222 246 269 278 0
-6 -15 0
-6 -154 0
-6 -162 0
-6 -164 0
-6 -199 0
-6 -209 0
-6 -222 0
-6 -246 0
-6 -269 0
-6 -278 0
-15 -154 0
-15 -162 0
-15 -164 0
-15 -199 0
-15 -209 0
-15 -222 0
-15 -246 0
-15 -269 0
-15 -278 0
-154 -162 0
-154 -164 0
-154 -199 0
-154 -209 0
-154 -222 0
-154 -246 0
-154 -269 0
-154 -278 0
-162 -164 0
-162 -199 0
-162 -209 0
-162 -222 0
-162 -246 0
-162 -269 0
-162 -278 0
-164 -199 0
-164 -209 0
-164 -222 0
-164 -246 0
-164 -269 0
-164 -278 0
-199 -209 0
-199 -222 0
-199 -246 0
-199 -269 0
-199 -278 0
-209 -222 0
-209 -246 0
-209 -269 0
-209 -278 0
-222 -246 0
-222 -269 0
-222 -278 0
-246 -269 0
-246 -278 0
-269 -278 0
16 27 144 154 173 280 288 313 324 336 346 0
-16 -27 0
-16 -144 0
-16 -154 0
-16 -173 0
-16 -280 0
-16 -288 0
-16 -313 0
-16 -324 0
-16 -336 0
-16 -346 0
-27 -144 0
-27 -154 0
-27 -173 0
-27 -280 0
-27 -288 0
-27 -313 0
-27 -324 0
-27 -336 0
-27 -346 0
-144 -154 0
-144 -173 0
-144 -280 0
-144 -288 0
-144 -313 0
-144 -324 0
-144 -336 0
-144 -346 0
-154 -173 0
-154 -280 0
-154 -288 0
-154 -313 0
-154 -324 0
-154 -336 0
-154 -346 0
-173 -280 0
-173 -288 0
-173 -313 0
-173 -324 0
-173 -336 0
-173 -346 0
-280 -288 0
-280 -313 0
-280 -324 0
-280 -336 0
-280 -346 0
-288 -313 0
-288 -324 0
-288 -336 0
-288 -346 0
-313 -324 0
-313 -336 0
-313 -346 0
-324 -336 0
-324 -346 0
-336 -346 0
28 38 144 164 299 370 378 380 393 401 416 0
-28 -38 0
-28 -144 0
-28 -164 0
-28 -299 0
-28 -370 0
-28 -378 0
-28 -380 0
-28 -393 0
-28 -401 0
-28 -416 0
-38 -144 0
-38 -164 0
-38 -299 0
-38 -370 0
-38 -378 0
-38 -380 0
-38 -393 0
-38 -401 0
-38 -416 0
-144 -164 0
-144 -299 0
-144 -370 0
-144 -378 0
-144 -380 0
-144 -393 0
-144 -401 0
-144 -416 0
-164 -299 0
-164 -370 0
-164 -378 0
-164 -380 0
-164 -393 0
-164 -401 0
-164 -416 0
-299 -370 0
-299 -378 0
-299 -380 0
-299 -393 0
-299 -401 0
-299 -416 0
-370 -378 0
-370 -380 0
-370 -393 0
-370 -401 0
-370 -416 0
-378 -380 0
-378 -393 0
-378 -401 0
-378 -416 0
-380 -393 0
-380 -401 0
-380 -416 0
-393 -401 0
-393 -416 0
-401 -416 0
39 49 197 259 280 312 360 390 427 437 450 0
-39 -49 0
-39 -197 0
-39 -259 0
-39 -280 0
-39 -312 0
-39 -360 0
-39 -390 0
-39 -427 0
-39 -437 0
-39 -450 0
-49 -197 0
-49 -259 0
-49 -280 0
-49 -312 0
-49 -360 0
-49 -390 0
-49 -427 0
-49 -437 0
-49 -450 0
-197 -259 0
-197 -280 0
-197 -312 0
-197 -360 0
-197 -390 0
-197 -427 0
-197 -437 0
-197 -450 0
-259 -280 0
-259 -312 0
-259 -360 0
-259 -390 0
-259 -427 0
-259 -437 0
-259 -450 0
-280 -312 0
-280 -360 0
-280 -390 0
-280 -427 0
-280 -437 0
-280 -450 0
-312 -360 0
-312 -390 0
-312 -427 0
-312 -437 0
-312 -450 0
-360 -390 0
-360 -427 0
-360 -437 0
-360 -450 0
-390 -427 0
-390 -437 0
-390 -450 0
-427 -437 0
-427 -450 0
-437 -450 0
60 100 199 220 237 259 335 340 370 407 413 0
-60 -100 0
-60 -199 0
-60 -220 0
-60 -237 0
-60 -259 0
-60 -335 0
-60 -340 0
-60 -370 0
-60 -407 0
-60 -413 0
-100 -199 0
-100 -220 0
-100 -237 0
-100 -259 0
-100 -335 0
-100 -340 0
-100 -370 0
-100 -407 0
-100 -413 0
-199 -220 0
-199 -237 0
-199 -259 0
-199 -335 0
-199 -340 0
-199 -370 0
-199 -407 0
-199 -413 0
-220 -237 0
-220 -259 0
-220 -335 0
-220 -340 0
-220 -370 0
-220 -407 0
-220 -413 0
-237 -259 0
-237 -335 0
-237 -340 0
-237 -370 0
-237 -407 0
-237 -413 0
-259 -335 0
-259 -340 0
-259 -370 0
-259 -407 0
-259 -413 0
-335 -340 0
-335 -370 0
-335 -407 0
-335 -413 0
-340 -370 0
-340 -407 0
-340 -413 0
-370 -407 0
-370 -413 0
-407 -413 0
73 84 90 100 209 228 232 313 330 345 360 380 0
-73 -84 0
-73 -90 0
-73 -100 0
-73 -209 0
-73 -228 0
-73 -232 0
-73 -313 0
-73 -330 0
-73 -345 0
-73 -360 0
-73 -380 0
-84 -90 0
-84 -100 0
-84 -209 0
-84 -228 0
-84 -232 0
-84 -313 0
-84 -330 0
-84 -345 0
-84 -360 0
-84 -380 0
-90 -100 0
-90 -209 0
-90 -228 0
-90 -232 0
-90 -313 0
-90 -330 0
-90 -345 0
-90 -360 0
-90 -380 0
-100 -209 0
-100 -228 0
-100 -232 0
-100 -313 0
-100 -330 0
-100 -345 0
-100 -360 0
-100 -380 0
-209 -228 0
-209 -232 0
-209 -313 0
-209 -330 0
-209 -345 0
-209 -360 0
-209 -380 0
-228 -232 0
-228 -313 0
-228 -330 0
-228 -345 0
-228 -360 0
-228 -380 0
-232 -313 0
-232 -330 0
-232 -345 0
-232 -360 0
-232 -380 0
-313 -330 0
-313 -345 0
-313 -360 0
-313 -380 0
-330 -345 0
-330 -360 0
-330 -380 0
-345 -360 0
-345 -380 0
-360 -380 0
85 90 216 222 237 244 324 356 387 393 427 0
-85 -90 0
-85 -216 0
-85 -222 0
-85 -237 0
-85 -244 0
-85 -324 0
-85 -356 0
-85 -387 0
-85 -393 0
-85 -427 0
-90 -216 0
-90 -222 0
-90 -237 0
-90 -244 0
-90 -324 0
-90 -356 0
-90 -387 0
-90 -393 0
-90 -427 0
-216 -222 0
-216 -237 0
-216 -244 0
-216 -324 0
-216 -356 0
-216 -387 0
-216 -393 0
-216 -427 0
-222 -237 0
-222 -244 0
-222 -324 0
-222 -356 0
-222 -387 0
-222 -393 0
-222 -427 0
-237 -244 0
-237 -324 0
-237 -356 0
-237 -387 0
-237 -393 0
-237 -427 0
-244 -324 0
-244 -356 0
-244 -387 0
-244 -393 0
-244 -427 0
-324 -356 0
-324 -387 0
-324 -393 0
-324 -427 0
-356 -387 0
-356 -393 0
-356 -427 0
-387 -393 0
-387 -427 0
-393 -427 0
68 96 107 228 254 308 336 340 367 401 437 0
-68 -96 0
-68 -107 0
-68 -228 0
-68 -254 0
-68 -308 0
-68 -336 0
-68 -340 0
-68 -367 0
-68 -401 0
-68 -437 0
-96 -107 0
-96 -228 0
-96 -254 0
-96 -308 0
-96 -336 0
-96 -340 0
-96 -367 0
-96 -401 0
-96 -437 0
-107 -228 0
-107 -254 0
-107 -308 0
-107 -336 0
-107 -340 0
-107 -367 0
-107 -401 0
-107 -437 0
-228 -254 0
-228 -308 0
-228 -336 0
-228 -340 0
-228 -367 0
-228 -401 0
-228 -437 0
-254 -308 0
-254 -336 0
-254 -340 0
-254 -367 0
-254 -401 0
-254 -437 0
-308 -336 0
-308 -340 0
-308 -367 0
-308 -401 0
-308 -437 0
-336 -340 0
-336 -367 0
-336 -401 0
-336 -437 0
-340 -367 0
-340 -401 0
-340 -437 0
-367 -401 0
-367 -437 0
-401 -437 0
6 7 17 40 50 61 74 97 109 120 153 0
-6 -7 0
-6 -17 0
-6 -40 0
-6 -50 0
-6 -61 0
-6 -74 0
-6 -97 0
-6 -109 0
-6 -120 0
-6 -153 0
-7 -17 0
-7 -40 0
-7 -50 0
-7 -61 0
-7 -74 0
-7 -97 0
-7 -109 0
-7 -120 0
-7 -153 0
-17 -40 0
-17 -50 0
-17 -61 0
-17 -74 0
-17 -97 0
-17 -109 0
-17 -120 0
-17 -153 0
-40 -50 0
-40 -61 0
-40 -74 0
-40 -97 0
-40 -109 0
-40 -120 0
-40 -153 0
-50 -61 0
-50 -74 0
-50 -97 0
-50 -109 0
-50 -120 0
-50 -153 0
-61 -74 0
-61 -97 0
-61 -109 0
-61 -120 0
-61 -153 0
-74 -97 0
-74 -109 0
-74 -120 0
-74 -153 0
-97 -109 0
-97 -120 0
-97 -153 0
-109 -120 0
-109 -153 0
-120 -153 0
7 16 155 163 165 175 200 210 223 233 247 0
-7 -16 0
-7 -155 0
-7 -163 0
-7 -165 0
-7 -175 0
-7 -200 0
-7 -210 0
-7 -223 0
-7 -233 0
-7 -247 0
-16 -155 0
-16 -163 0
-16 -165 0
-16 -175 0
-16 -200 0
-16 -210 0
-16 -223 0
-16 -233 0
-16 -247 0
-155 -163 0
-155 -165 0
-155 -175 0
-155 -200 0
-155 -210 0
-155 -223 0
-155 -233 0
-155 -247 0
-163 -165 0
-163 -175 0
-163 -200 0
-163 -210 0
-163 -223 0
-163 -233 0
-163 -247 0
-165 -175 0
-165 -200 0
-165 -210 0
-165 -223 0
-165 -233 0
-165 -247 0
-175 -200 0
-175 -210 0
-175 -223 0
-175 -233 0
-175 -247 0
-200 -210 0
-200 -223 0
-200 -233 0
-200 -247 0
-210 -223 0
-210 -233 0
-210 -247 0
-223 -233 0
-223 -247 0
-233 -247 0
17 28 155 174 281 289 301 314 325 337 347 358 0
-17 -28 0
-17 -155 0
-17 -174 0
-17 -281 0
-17 -289 0
-17 -301 0
-17 -314 0
-17 -325 0
-17 -337 0
-17 -347 0
-17 -358 0
-28 -155 0
-28 -174 0
-28 -281 0
-28 -289 0
-28 -301 0
-28 -314 0
-28 -325 0
-28 -337 0
-28 -347 0
-28 -358 0
-155 -174 0
-155 -281 0
-155 -289 0
-155 -301 0
-155 -314 0
-155 -325 0
-155 -337 0
-155 -347 0
-155 -358 0
-174 -281 0
-174 -289 0
-174 -301 0
-174 -314 0
-174 -325 0
-174 -337 0
-174 -347 0
-174 -358 0
-281 -289 0
-281 -301 0
-281 -314 0
-281 -325 0
-281 -337 0
-281 -347 0
-281 -358 0
-289 -301 0
-289 -314 0
-289 -325 0
-289 -337 0
-289 -347 0
-289 -358 0
-301 -314 0
-301 -325 0
-301 -337 0
-301 -347 0
-301 -358 0
-314 -325 0
-314 -337 0
-314 -347 0
-314 -358 0
-325 -337 0
-325 -347 0
-325 -358 0
-337 -347 0
-337 -358 0
-347 -358 0
39 133 165 186 271 371 381 394 402 417 424 0
-39 -133 0
-39 -165 0
-39 -186 0
-39 -271 0
-39 -371 0
-39 -381 0
-39 -394 0
-39 -402 0
-39 -417 0
-39 -424 0
-133 -165 0
-133 -186 0
-133 -271 0
-133 -371 0
-133 -381 0
-133 -394 0
-133 -402 0
-133 -417 0
-133 -424 0
-165 -186 0
-165 -271 0
-165 -371 0
-165 -381 0
-165 -394 0
-165 -402 0
-165 -417 0
-165 -424 0
-186 -271 0
-186 -371 0
-186 -381 0
-186 -394 0
-186 -402 0
-186 -417 0
-186 -424 0
-271 -371 0
-271 -381 0
-271 -394 0
-271 -402 0
-271 -417 0
-271 -424 0
-371 -381 0
-371 -394 0
-371 -402 0
-371 -417 0
-371 -424 0
-381 -394 0
-381 -402 0
-381 -417 0
-381 -424 0
-394 -402 0
-394 -417 0
-394 -424 0
-402 -417 0
-402 -424 0
-417 -424 0
40 122 133 175 198 281 361 428 434 438 451 0
-40 -122 0
-40 -133 0
-40 -175 0
-40 -198 0
-40 -281 0
-40 -361 0
-40 -428 0
-40 -434 0
-40 -438 0
-40 -451 0
-122 -133 0
-122 -175 0
-122 -198 0
-122 -281 0
-122 -361 0
-122 -428 0
-122 -434 0
-122 -438 0
-122 -451 0
-133 -175 0
-133 -198 0
-133 -281 0
-133 -361 0
-133 -428 0
-133 -434 0
-133 -438 0
-133 -451 0
-175 -198 0
-175 -281 0
-175 -361 0
-175 -428 0
-175 -434 0
-175 -438 0
-175 -451 0
-198 -281 0
-198 -361 0
-198 -428 0
-198 -434 0
-198 -438 0
-198 -451 0
-281 -361 0
-281 -428 0
-281 -434 0
-281 -438 0
-281 -451 0
-361 -428 0
-361 -434 0
-361 -438 0
-361 -451 0
-428 -434 0
-428 -438 0
-428 -451 0
-434 -438 0
-434 -451 0
-438 -451 0
50 60 112 122 250 271 289 350 419 446 455 0
-50 -60 0
-50 -112 0
-50 -122 0
-50 -250 0
-50 -271 0
-50 -289 0
-50 -350 0
-50 -419 0
-50 -446 0
-50 -455 0
-60 -112 0
-60 -122 0
-60 -250 0
-60 -271 0
-60 -289 0
-60 -350 0
-60 -419 0
-60 -446 0
-60 -455 0
-112 -122 0
-112 -250 0
-112 -271 0
-112 -289 0
-112 -350 0
-112 -419 0
-112 -446 0
-112 -455 0
-122 -250 0
-122 -271 0
-122 -289 0
-122 -350 0
-122 -419 0
-122 -446 0
-122 -455 0
-250 -271 0
-250 -289 0
-250 -350 0
-250 -419 0
-250 -446 0
-250 -455 0
-271 -289 0
-271 -350 0
-271 -419 0
-271 -446 0
-271 -455 0
-289 -350 0
-289 -419 0
-289 -446 0
-289 -455 0
-350 -419 0
-350 -446 0
-350 -455 0
-419 -446 0
-419 -455 0
-446 -455 0
61 73 101 112 200 221 238 301 341 371 408 0
-61 -73 0
-61 -101 0
-61 -112 0
-61 -200 0
-61 -221 0
-61 -238 0
-61 -301 0
-61 -341 0
-61 -371 0
-61 -408 0
-73 -101 0
-73 -112 0
-73 -200 0
-73 -221 0
-73 -238 0
-73 -301 0
-73 -341 0
-73 -371 0
-73 -408 0
-101 -112 0
-101 -200 0
-101 -221 0
-101 -238 0
-101 -301 0
-101 -341 0
-101 -371 0
-101 -408 0
-112 -200 0
-112 -221 0
-112 -238 0
-112 -301 0
-112 -341 0
-112 -371 0
-112 -408 0
-200 -221 0
-200 -238 0
-200 -301 0
-200 -341 0
-200 -371 0
-200 -408 0
-221 -238 0
-221 -301 0
-221 -341 0
-221 -371 0
-221 -408 0
-238 -301 0
-238 -341 0
-238 -371 0
-238 -408 0
-301 -341 0
-301 -371 0
-301 -408 0
-341 -371 0
-341 -408 0
-371 -408 0
74 85 101 210 229 250 314 331 361 381 398 0
-74 -85 0
-74 -101 0
-74 -210 0
-74 -229 0
-74 -250 0
-74 -314 0
-74 -331 0
-74 -361 0
-74 -381 0
-74 -398 0
-85 -101 0
-85 -210 0
-85 -229 0
-85 -250 0
-85 -314 0
-85 -331 0
-85 -361 0
-85 -381 0
-85 -398 0
-101 -210 0
-101 -229 0
-101 -250 0
-101 -314 0
-101 -331 0
-101 -361 0
-101 -381 0
-101 -398 0
-210 -229 0
-210 -250 0
-210 -314 0
-210 -331 0
-210 -361 0
-210 -381 0
-210 -398 0
-229 -250 0
-229 -314 0
-229 -331 0
-229 -361 0
-229 -381 0
-229 -398 0
-250 -314 0
-250 -331 0
-250 -361 0
-250 -381 0
-250 -398 0
-314 -331 0
-314 -361 0
-314 -381 0
-314 -398 0
-331 -361 0
-331 -381 0
-331 -398 0
-361 -381 0
-361 -398 0
-381 -398 0
79 96 217 223 238 245 320 325 350 394 428 0
-79 -96 0
-79 -217 0
-79 -223 0
-79 -238 0
-79 -245 0
-79 -320 0
-79 -325 0
-79 -350 0
-79 -394 0
-79 -428 0
-96 -217 0
-96 -223 0
-96 -238 0
-96 -245 0
-96 -320 0
-96 -325 0
-96 -350 0
-96 -394 0
-96 -428 0
-217 -223 0
-217 -238 0
-217 -245 0
-217 -320 0
-217 -325 0
-217 -350 0
-217 -394 0
-217 -428 0
-223 -238 0
-223 -245 0
-223 -320 0
-223 -325 0
-223 -350 0
-223 -394 0
-223 -428 0
-238 -245 0
-238 -320 0
-238 -325 0
-238 -350 0
-238 -394 0
-238 -428 0
-245 -320 0
-245 -325 0
-245 -350 0
-245 -394 0
-245 -428 0
-320 -325 0
-320 -350 0
-320 -394 0
-320 -428 0
-325 -350 0
-325 -394 0
-325 -428 0
-350 -394 0
-350 -428 0
-394 -428 0
7 8 29 51 62 86 98 121 131 143 154 0
-7 -8 0
-7 -29 0
-7 -51 0
-7 -62 0
-7 -86 0
-7 -98 0
-7 -121 0
-7 -131 0
-7 -143 0
-7 -154 0
-8 -29 0
-8 -51 0
-8 -62 0
-8 -86 0
-8 -98 0
-8 -121 0
-8 -131 0
-8 -143 0
-8 -154 0
-29 -51 0
-29 -62 0
-29 -86 0
-29 -98 0
-29 -121 0
-29 -131 0
-29 -143 0
-29 -154 0
-51 -62 0
-51 -86 0
-51 -98 0
-51 -121 0
-51 -131 0
-51 -143 0
-51 -154 0
-62 -86 0
-62 -98 0
-62 -121 0
-62 -131 0
-62 -143 0
-62 -154 0
-86 -98 0
-86 -121 0
-86 -131 0
-86 -143 0
-86 -154 0
-98 -121 0
-98 -131 0
-98 -143 0
-98 -154 0
-121 -131 0
-121 -143 0
-121 -154 0
-131 -143 0
-131 -154 0
-143 -154 0
8 17 164 166 176 187 201 224 234 248 256 279 0
-8 -17 0
-8 -164 0
-8 -166 0
-8 -176 0
-8 -187 0
-8 -201 0
-8 -224 0
-8 -234 0
-8 -248 0
-8 -256 0
-8 -279 0
-17 -164 0
-17 -166 0
-17 -176 0
-17 -187 0
-17 -201 0
-17 -224 0
-17 -234 0
-17 -248 0
-17 -256 0
-17 -279 0
-164 -166 0
-164 -176 0
-164 -187 0
-164 -201 0
-164 -224 0
-164 -234 0
-164 -248 0
-164 -256 0
-164 -279 0
-166 -176 0
-166 -187 0
-166 -201 0
-166 -224 0
-166 -234 0
-166 -248 0
-166 -256 0
-166 -279 0
-176 -187 0
-176 -201 0
-176 -224 0
-176 -234 0
-176 -248 0
-176 -256 0
-176 -279 0
-187 -201 0
-187 -224 0
-187 -234 0
-187 -248 0
-187 -256 0
-187 -279 0
-201 -224 0
-201 -234 0
-201 -248 0
-201 -256 0
-201 -279 0
-224 -234 0
-224 -248 0
-224 -256 0
-224 -279 0
-234 -248 0
-234 -256 0
-234 -279 0
-248 -256 0
-248 -279 0
-256 -279 0
29 40 134 166 300 372 379 395 403 418 425 0
-29 -40 0
-29 -134 0
-29 -166 0
-29 -300 0
-29 -372 0
-29 -379 0
-29 -395 0
-29 -403 0
-29 -418 0
-29 -425 0
-40 -134 0
-40 -166 0
-40 -300 0
-40 -372 0
-40 -379 0
-40 -395 0
-40 -403 0
-40 -418 0
-40 -425 0
-134 -166 0
-134 -300 0
-134 -372 0
-134 -379 0
-134 -395 0
-134 -403 0
-134 -418 0
-134 -425 0
-166 -300 0
-166 -372 0
-166 -379 0
-166 -395 0
-166 -403 0
-166 -418 0
-166 -425 0
-300 -372 0
-300 -379 0
-300 -395 0
-300 -403 0
-300 -418 0
-300 -425 0
-372 -379 0
-372 -395 0
-372 -403 0
-372 -418 0
-372 -425 0
-379 -395 0
-379 -403 0
-379 -418 0
-379 -425 0
-395 -403 0
-395 -418 0
-395 -425 0
-403 -418 0
-403 -425 0
-418 -425 0
50 123 134 176 199 260 391 429 435 439 452 0
-50 -123 0
-50 -134 0
-50 -176 0
-50 -199 0
-50 -260 0
-50 -391 0
-50 -429 0
-50 -435 0
-50 -439 0
-50 -452 0
-123 -134 0
-123 -176 0
-123 -199 0
-123 -260 0
-123 -391 0
-123 -429 0
-123 -435 0
-123 -439 0
-123 -452 0
-134 -176 0
-134 -199 0
-134 -260 0
-134 -391 0
-134 -429 0
-134 -435 0
-134 -439 0
-134 -452 0
-176 -199 0
-176 -260 0
-176 -391 0
-176 -429 0
-176 -435 0
-176 -439 0
-176 -452 0
-199 -260 0
-199 -391 0
-199 -429 0
-199 -435 0
-199 -439 0
-199 -452 0
-260 -391 0
-260 -429 0
-260 -435 0
-260 -439 0
-260 -452 0
-391 -429 0
-391 -435 0
-391 -439 0
-391 -452 0
-429 -435 0
-429 -439 0
-429 -452 0
-435 -439 0
-435 -452 0
-439 -452 0
51 61 113 123 187 209 323 351 400 420 447 0
-51 -61 0
-51 -113 0
-51 -123 0
-51 -187 0
-51 -209 0
-51 -323 0
-51 -351 0
-51 -400 0
-51 -420 0
-51 -447 0
-61 -113 0
-61 -123 0
-61 -187 0
-61 -209 0
-61 -323 0
-61 -351 0
-61 -400 0
-61 -420 0
-61 -447 0
-113 -123 0
-113 -187 0
-113 -209 0
-113 -323 0
-113 -351 0
-113 -400 0
-113 -420 0
-113 -447 0
-123 -187 0
-123 -209 0
-123 -323 0
-123 -351 0
-123 -400 0
-123 -420 0
-123 -447 0
-187 -209 0
-187 -323 0
-187 -351 0
-187 -400 0
-187 -420 0
-187 -447 0
-209 -323 0
-209 -351 0
-209 -400 0
-209 -420 0
-209 -447 0
-323 -351 0
-323 -400 0
-323 -420 0
-323 -447 0
-351 -400 0
-351 -420 0
-351 -447 0
-400 -420 0
-400 -447 0
-420 -447 0
62 74 113 201 222 239 260 342 372 409 414 443 0
-62 -74 0
-62 -113 0
-62 -201 0
-62 -222 0
-62 -239 0
-62 -260 0
-62 -342 0
-62 -372 0
-62 -409 0
-62 -414 0
-62 -443 0
-74 -113 0
-74 -201 0
-74 -222 0
-74 -239 0
-74 -260 0
-74 -342 0
-74 -372 0
-74 -409 0
-74 -414 0
-74 -443 0
-113 -201 0
-113 -222 0
-113 -239 0
-113 -260 0
-113 -342 0
-113 -372 0
-113 -409 0
-113 -414 0
-113 -443 0
-201 -222 0
-201 -239 0
-201 -260 0
-201 -342 0
-201 -372 0
-201 -409 0
-201 -414 0
-201 -443 0
-222 -239 0
-222 -260 0
-222 -342 0
-222 -372 0
-222 -409 0
-222 -414 0
-222 -443 0
-239 -260 0
-239 -342 0
-239 -372 0
-239 -409 0
-239 -414 0
-239 -443 0
-260 -342 0
-260 -372 0
-260 -409 0
-260 -414 0
-260 -443 0
-342 -372 0
-342 -409 0
-342 -414 0
-342 -443 0
-372 -409 0
-372 -414 0
-372 -443 0
-409 -414 0
-409 -443 0
-414 -443 0
8 18 41 52 63 75 87 110 132 144 155 0
-8 -18 0
-8 -41 0
-8 -52 0
-8 -63 0
-8 -75 0
-8 -87 0
-8 -110 0
-8 -132 0
-8 -144 0
-8 -155 0
-18 -41 0
-18 -52 0
-18 -63 0
-18 -75 0
-18 -87 0
-18 -110 0
-18 -132 0
-18 -144 0
-18 -155 0
-41 -52 0
-41 -63 0
-41 -75 0
-41 -87 0
-41 -110 0
-41 -132 0
-41 -144 0
-41 -155 0
-52 -63 0
-52 -75 0
-52 -87 0
-52 -110 0
-52 -132 0
-52 -144 0
-52 -155 0
-63 -75 0
-63 -87 0
-63 -110 0
-63 -132 0
-63 -144 0
-63 -155 0
-75 -87 0
-75 -110 0
-75 -132 0
-75 -144 0
-75 -155 0
-87 -110 0
-87 -132 0
-87 -144 0
-87 -155 0
-110 -132 0
-110 -144 0
-110 -155 0
-132 -144 0
-132 -155 0
-144 -155 0
156 165 177 188 202 211 225 249 257 270 280 0
-156 -165 0
-156 -177 0
-156 -188 0
-156 -202 0
-156 -211 0
-156 -225 0
-156 -249 0
-156 -257 0
-156 -270 0
-156 -280 0
-165 -177 0
-165 -188 0
-165 -202 0
-165 -211 0
-165 -225 0
-165 -249 0
-165 -257 0
-165 -270 0
-165 -280 0
-177 -188 0
-177 -202 0
-177 -211 0
-177 -225 0
-177 -249 0
-177 -257 0
-177 -270 0
-177 -280 0
-188 -202 0
-188 -211 0
-188 -225 0
-188 -249 0
-188 -257 0
-188 -270 0
-188 -280 0
-202 -211 0
-202 -225 0
-202 -249 0
-202 -257 0
-202 -270 0
-202 -280 0
-211 -225 0
-211 -249 0
-211 -257 0
-211 -270 0
-211 -280 0
-225 -249 0
-225 -257 0
-225 -270 0
-225 -280 0
-249 -257 0
-249 -270 0
-249 -280 0
-257 -270 0
-257 -280 0
-270 -280 0
18 29 156 175 290 302 315 326 348 359 369 0
-18 -29 0
-18 -156 0
-18 -175 0
-18 -290 0
-18 -302 0
-18 -315 0
-18 -326 0
-18 -348 0
-18 -359 0
-18 -369 0
-29 -156 0
-29 -175 0
-29 -290 0
-29 -302 0
-29 -315 0
-29 -326 0
-29 -348 0
-29 -359 0
-29 -369 0
-156 -175 0
-156 -290 0
-156 -302 0
-156 -315 0
-156 -326 0
-156 -348 0
-156 -359 0
-156 -369 0
-175 -290 0
-175 -302 0
-175 -315 0
-175 -326 0
-175 -348 0
-175 -359 0
-175 -369 0
-290 -302 0
-290 -315 0
-290 -326 0
-290 -348 0
-290 -359 0
-290 -369 0
-302 -315 0
-302 -326 0
-302 -348 0
-302 -359 0
-302 -369 0
-315 -326 0
-315 -348 0
-315 -359 0
-315 -369 0
-326 -348 0
-326 -359 0
-326 -369 0
-348 -359 0
-348 -369 0
-359 -369 0
41 51 124 177 200 261 313 362 392 430 436 453 0
-41 -51 0
-41 -124 0
-41 -177 0
-41 -200 0
-41 -261 0
-41 -313 0
-41 -362 0
-41 -392 0
-41 -430 0
-41 -436 0
-41 -453 0
-51 -124 0
-51 -177 0
-51 -200 0
-51 -261 0
-51 -313 0
-51 -362 0
-51 -392 0
-51 -430 0
-51 -436 0
-51 -453 0
-124 -177 0
-124 -200 0
-124 -261 0
-124 -313 0
-124 -362 0
-124 -392 0
-124 -430 0
-124 -436 0
-124 -453 0
-177 -200 0
-177 -261 0
-177 -313 0
-177 -362 0
-177 -392 0
-177 -430 0
-177 -436 0
-177 -453 0
-200 -261 0
-200 -313 0
-200 -362 0
-200 -392 0
-200 -430 0
-200 -436 0
-200 -453 0
-261 -313 0
-261 -362 0
-261 -392 0
-261 -430 0
-261 -436 0
-261 -453 0
-313 -362 0
-313 -392 0
-313 -430 0
-313 -436 0
-313 -453 0
-362 -392 0
-362 -430 0
-362 -436 0
-362 -453 0
-392 -430 0
-392 -436 0
-392 -453 0
-430 -436 0
-430 -453 0
-436 -453 0
52 62 124 188 210 251 290 324 352 448 456 0
-52 -62 0
-52 -124 0
-52 -188 0
-52 -210 0
-52 -251 0
-52 -290 0
-52 -324 0
-52 -352 0
-52 -448 0
-52 -456 0
-62 -124 0
-62 -188 0
-62 -210 0
-62 -251 0
-62 -290 0
-62 -324 0
-62 -352 0
-62 -448 0
-62 -456 0
-124 -188 0
-124 -210 0
-124 -251 0
-124 -290 0
-124 -324 0
-124 -352 0
-124 -448 0
-124 -456 0
-188 -210 0
-188 -251 0
-188 -290 0
-188 -324 0
-188 -352 0
-188 -448 0
-188 -456 0
-210 -251 0
-210 -290 0
-210 -324 0
-210 -352 0
-210 -448 0
-210 -456 0
-251 -290 0
-251 -324 0
-251 -352 0
-251 -448 0
-251 -456 0
-290 -324 0
-290 -352 0
-290 -448 0
-290 -456 0
-324 -352 0
-324 -448 0
-324 -456 0
-352 -448 0
-352 -456 0
-448 -456 0
63 102 202 223 240 261 302 336 410 415 444 0
-63 -102 0
-63 -202 0
-63 -223 0
-63 -240 0
-63 -261 0
-63 -302 0
-63 -336 0
-63 -410 0
-63 -415 0
-63 -444 0
-102 -202 0
-102 -223 0
-102 -240 0
-102 -261 0
-102 -302 0
-102 -336 0
-102 -410 0
-102 -415 0
-102 -444 0
-202 -223 0
-202 -240 0
-202 -261 0
-202 -302 0
-202 -336 0
-202 -410 0
-202 -415 0
-202 -444 0
-223 -240 0
-223 -261 0
-223 -302 0
-223 -336 0
-223 -410 0
-223 -415 0
-223 -444 0
-240 -261 0
-240 -302 0
-240 -336 0
-240 -410 0
-240 -415 0
-240 -444 0
-261 -302 0
-261 -336 0
-261 -410 0
-261 -415 0
-261 -444 0
-302 -336 0
-302 -410 0
-302 -415 0
-302 -444 0
-336 -410 0
-336 -415 0
-336 -444 0
-410 -415 0
-410 -444 0
-415 -444 0
18 157 166 178 189 203 212 226 235 258 281 0
-18 -157 0
-18 -166 0
-18 -178 0
-18 -189 0
-18 -203 0
-18 -212 0
-18 -226 0
-18 -235 0
-18 -258 0
-18 -281 0
-157 -166 0
-157 -178 0
-157 -189 0
-157 -203 0
-157 -212 0
-157 -226 0
-157 -235 0
-157 -258 0
-157 -281 0
-166 -178 0
-166 -189 0
-166 -203 0
-166 -212 0
-166 -226 0
-166 -235 0
-166 -258 0
-166 -281 0
-178 -189 0
-178 -203 0
-178 -212 0
-178 -226 0
-178 -235 0
-178 -258 0
-178 -281 0
-189 -203 0
-189 -212 0
-189 -226 0
-189 -235 0
-189 -258 0
-189 -281 0
-203 -212 0
-203 -226 0
-203 -235 0
-203 -258 0
-203 -281 0
-212 -226 0
-212 -235 0
-212 -258 0
-212 -281 0
-226 -235 0
-226 -258 0
-226 -281 0
-235 -258 0
-235 -281 0
-258 -281 0
145 157 176 282 289 291 303 316 327 338 370 0
-145 -157 0
-145 -176 0
-145 -282 0
-145 -289 0
-145 -291 0
-145 -303 0
-145 -316 0
-145 -327 0
-145 -338 0
-145 -370 0
-157 -176 0
-157 -282 0
-157 -289 0
-157 -291 0
-157 -303 0
-157 -316 0
-157 -327 0
-157 -338 0
-157 -370 0
-176 -282 0
-176 -289 0
-176 -291 0
-176 -303 0
-176 -316 0
-176 -327 0
-176 -338 0
-176 -370 0
-282 -289 0
-282 -291 0
-282 -303 0
-282 -316 0
-282 -327 0
-282 -338 0
-282 -370 0
-289 -291 0
-289 -303 0
-289 -316 0
-289 -327 0
-289 -338 0
-289 -370 0
-291 -303 0
-291 -316 0
-291 -327 0
-291 -338 0
-291 -370 0
-303 -316 0
-303 -327 0
-303 -338 0
-303 -370 0
-316 -327 0
-316 -338 0
-316 -370 0
-327 -338 0
-327 -370 0
-338 -370 0
41 135 145 187 272 301 373 380 382 404 426 0
-41 -135 0
-41 -145 0
-41 -187 0
-41 -272 0
-41 -301 0
-41 -373 0
-41 -380 0
-41 -382 0
-41 -404 0
-41 -426 0
-135 -145 0
-135 -187 0
-135 -272 0
-135 -301 0
-135 -373 0
-135 -380 0
-135 -382 0
-135 -404 0
-135 -426 0
-145 -187 0
-145 -272 0
-145 -301 0
-145 -373 0
-145 -380 0
-145 -382 0
-145 -404 0
-145 -426 0
-187 -272 0
-187 -301 0
-187 -373 0
-187 -380 0
-187 -382 0
-187 -404 0
-187 -426 0
-272 -301 0
-272 -373 0
-272 -380 0
-272 -382 0
-272 -404 0
-272 -426 0
-301 -373 0
-301 -380 0
-301 -382 0
-301 -404 0
-301 -426 0
-373 -380 0
-373 -382 0
-373 -404 0
-373 -426 0
-380 -382 0
-380 -404 0
-380 -426 0
-382 -404 0
-382 -426 0
-404 -426 0
52 135 178 201 262 282 314 363 393 431 440 0
-52 -135 0
-52 -178 0
-52 -201 0
-52 -262 0
-52 -282 0
-52 -314 0
-52 -363 0
-52 -393 0
-52 -431 0
-52 -440 0
-135 -178 0
-135 -201 0
-135 -262 0
-135 -282 0
-135 -314 0
-135 -363 0
-135 -393 0
-135 -431 0
-135 -440 0
-178 -201 0
-178 -262 0
-178 -282 0
-178 -314 0
-178 -363 0
-178 -393 0
-178 -431 0
-178 -440 0
-201 -262 0
-201 -282 0
-201 -314 0
-201 -363 0
-201 -393 0
-201 -431 0
-201 -440 0
-262 -282 0
-262 -314 0
-262 -363 0
-262 -393 0
-262 -431 0
-262 -440 0
-282 -314 0
-282 -363 0
-282 -393 0
-282 -431 0
-282 -440 0
-314 -363 0
-314 -393 0
-314 -431 0
-314 -440 0
-363 -393 0
-363 -431 0
-363 -440 0
-393 -431 0
-393 -440 0
-431 -440 0
63 114 189 252 272 291 325 353 401 421 449 0
-63 -114 0
-63 -189 0
-63 -252 0
-63 -272 0
-63 -291 0
-63 -325 0
-63 -353 0
-63 -401 0
-63 -421 0
-63 -449 0
-114 -189 0
-114 -252 0
-114 -272 0
-114 -291 0
-114 -325 0
-114 -353 0
-114 -401 0
-114 -421 0
-114 -449 0
-189 -252 0
-189 -272 0
-189 -291 0
-189 -325 0
-189 -353 0
-189 -401 0
-189 -421 0
-189 -449 0
-252 -272 0
-252 -291 0
-252 -325 0
-252 -353 0
-252 -401 0
-252 -421 0
-252 -449 0
-272 -291 0
-272 -325 0
-272 -353 0
-272 -401 0
-272 -421 0
-272 -449 0
-291 -325 0
-291 -353 0
-291 -401 0
-291 -421 0
-291 -449 0
-325 -353 0
-325 -401 0
-325 -421 0
-325 -449 0
-353 -401 0
-353 -421 0
-353 -449 0
-401 -421 0
-401 -449 0
-421 -449 0
9 30 42 53 64 76 88 99 111 133 156 0
-9 -30 0
-9 -42 0
-9 -53 0
-9 -64 0
-9 -76 0
-9 -88 0
-9 -99 0
-9 -111 0
-9 -133 0
-9 -156 0
-30 -42 0
-30 -53 0
-30 -64 0
-30 -76 0
-30 -88 0
-30 -99 0
-30 -111 0
-30 -133 0
-30 -156 0
-42 -53 0
-42 -64 0
-42 -76 0
-42 -88 0
-42 -99 0
-42 -111 0
-42 -133 0
-42 -156 0
-53 -64 0
-53 -76 0
-53 -88 0
-53 -99 0
-53 -111 0
-53 -133 0
-53 -156 0
-64 -76 0
-64 -88 0
-64 -99 0
-64 -111 0
-64 -133 0
-64 -156 0
-76 -88 0
-76 -99 0
-76 -111 0
-76 -133 0
-76 -156 0
-88 -99 0
-88 -111 0
-88 -133 0
-88 -156 0
-99 -111 0
-99 -133 0
-99 -156 0
-111 -133 0
-111 -156 0
-133 -156 0
9 158 167 179 190 204 213 227 236 259 271 0
-9 -158 0
-9 -167 0
-9 -179 0
-9 -190 0
-9 -204 0
-9 -213 0
-9 -227 0
-9 -236 0
-9 -259 0
-9 -271 0
-158 -167 0
-158 -179 0
-158 -190 0
-158 -204 0
-158 -213 0
-158 -227 0
-158 -236 0
-158 -259 0
-158 -271 0
-167 -179 0
-167 -190 0
-167 -204 0
-167 -213 0
-167 -227 0
-167 -236 0
-167 -259 0
-167 -271 0
-179 -190 0
-179 -204 0
-179 -213 0
-179 -227 0
-179 -236 0
-179 -259 0
-179 -271 0
-190 -204 0
-190 -213 0
-190 -227 0
-190 -236 0
-190 -259 0
-190 -271 0
-204 -213 0
-204 -227 0
-204 -236 0
-204 -259 0
-204 -271 0
-213 -227 0
-213 -236 0
-213 -259 0
-213 -271 0
-227 -236 0
-227 -259 0
-227 -271 0
-236 -259 0
-236 -271 0
-259 -271 0
146 158 177 283 292 304 328 339 349 360 371 0
-146 -158 0
-146 -177 0
-146 -283 0
-146 -292 0
-146 -304 0
-146 -328 0
-146 -339 0
-146 -349 0
-146 -360 0
-146 -371 0
-158 -177 0
-158 -283 0
-158 -292 0
-158 -304 0
-158 -328 0
-158 -339 0
-158 -349 0
-158 -360 0
-158 -371 0
-177 -283 0
-177 -292 0
-177 -304 0
-177 -328 0
-177 -339 0
-177 -349 0
-177 -360 0
-177 -371 0
-283 -292 0
-283 -304 0
-283 -328 0
-283 -339 0
-283 -349 0
-283 -360 0
-283 -371 0
-292 -304 0
-292 -328 0
-292 -339 0
-292 -349 0
-292 -360 0
-292 -371 0
-304 -328 0
-304 -339 0
-304 -349 0
-304 -360 0
-304 -371 0
-328 -339 0
-328 -349 0
-328 -360 0
-328 -371 0
-339 -349 0
-339 -360 0
-339 -371 0
-349 -360 0
-349 -371 0
-360 -371 0
30 146 167 188 273 374 381 383 396 405 427 0
-30 -146 0
-30 -167 0
-30 -188 0
-30 -273 0
-30 -374 0
-30 -381 0
-30 -383 0
-30 -396 0
-30 -405 0
-30 -427 0
-146 -167 0
-146 -188 0
-146 -273 0
-146 -374 0
-146 -381 0
-146 -383 0
-146 -396 0
-146 -405 0
-146 -427 0
-167 -188 0
-167 -273 0
-167 -374 0
-167 -381 0
-167 -383 0
-167 -396 0
-167 -405 0
-167 -427 0
-188 -273 0
-188 -374 0
-188 -381 0
-188 -383 0
-188 -396 0
-188 -405 0
-188 -427 0
-273 -374 0
-273 -381 0
-273 -383 0
-273 -396 0
-273 -405 0
-273 -427 0
-374 -381 0
-374 -383 0
-374 -396 0
-374 -405 0
-374 -427 0
-381 -383 0
-381 -396 0
-381 -405 0
-381 -427 0
-383 -396 0
-383 -405 0
-383 -427 0
-396 -405 0
-396 -427 0
-405 -427 0
42 125 179 202 263 283 364 394 432 437 441 454 0
-42 -125 0
-42 -179 0
-42 -202 0
-42 -263 0
-42 -283 0
-42 -364 0
-42 -394 0
-42 -432 0
-42 -437 0
-42 -441 0
-42 -454 0
-125 -179 0
-125 -202 0
-125 -263 0
-125 -283 0
-125 -364 0
-125 -394 0
-125 -432 0
-125 -437 0
-125 -441 0
-125 -454 0
-179 -202 0
-179 -263 0
-179 -283 0
-179 -364 0
-179 -394 0
-179 -432 0
-179 -437 0
-179 -441 0
-179 -454 0
-202 -263 0
-202 -283 0
-202 -364 0
-202 -394 0
-202 -432 0
-202 -437 0
-202 -441 0
-202 -454 0
-263 -283 0
-263 -364 0
-263 -394 0
-263 -432 0
-263 -437 0
-263 -441 0
-263 -454 0
-283 -364 0
-283 -394 0
-283 -432 0
-283 -437 0
-283 -441 0
-283 -454 0
-364 -394 0
-364 -432 0
-364 -437 0
-364 -441 0
-364 -454 0
-394 -432 0
-394 -437 0
-394 -441 0
-394 -454 0
-432 -437 0
-432 -441 0
-432 -454 0
-437 -441 0
-437 -454 0
-441 -454 0
9 19 31 43 54 65 77 89 122 134 157 0
-9 -19 0
-9 -31 0
-9 -43 0
-9 -54 0
-9 -65 0
-9 -77 0
-9 -89 0
-9 -122 0
-9 -134 0
-9 -157 0
-19 -31 0
-19 -43 0
-19 -54 0
-19 -65 0
-19 -77 0
-19 -89 0
-19 -122 0
-19 -134 0
-19 -157 0
-31 -43 0
-31 -54 0
-31 -65 0
-31 -77 0
-31 -89 0
-31 -122 0
-31 -134 0
-31 -157 0
-43 -54 0
-43 -65 0
-43 -77 0
-43 -89 0
-43 -122 0
-43 -134 0
-43 -157 0
-54 -65 0
-54 -77 0
-54 -89 0
-54 -122 0
-54 -134 0
-54 -157 0
-65 -77 0
-65 -89 0
-65 -122 0
-65 -134 0
-65 -157 0
-77 -89 0
-77 -122 0
-77 -134 0
-77 -157 0
-89 -122 0
-89 -134 0
-89 -157 0
-122 -134 0
-122 -157 0
-134 -157 0
19 30 178 284 290 293 305 317 329 361 372 0
-19 -30 0
-19 -178 0
-19 -284 0
-19 -290 0
-19 -293 0
-19 -305 0
-19 -317 0
-19 -329 0
-19 -361 0
-19 -372 0
-30 -178 0
-30 -284 0
-30 -290 0
-30 -293 0
-30 -305 0
-30 -317 0
-30 -329 0
-30 -361 0
-30 -372 0
-178 -284 0
-178 -290 0
-178 -293 0
-178 -305 0
-178 -317 0
-178 -329 0
-178 -361 0
-178 -372 0
-284 -290 0
-284 -293 0
-284 -305 0
-284 -317 0
-284 -329 0
-284 -361 0
-284 -372 0
-290 -293 0
-290 -305 0
-290 -317 0
-290 -329 0
-290 -361 0
-290 -372 0
-293 -305 0
-293 -317 0
-293 -329 0
-293 -361 0
-293 -372 0
-305 -317 0
-305 -329 0
-305 -361 0
-305 -372 0
-317 -329 0
-317 -361 0
-317 -372 0
-329 -361 0
-329 -372 0
-361 -372 0
31 42 136 189 274 302 375 384 397 406 428 0
-31 -42 0
-31 -136 0
-31 -189 0
-31 -274 0
-31 -302 0
-31 -375 0
-31 -384 0
-31 -397 0
-31 -406 0
-31 -428 0
-42 -136 0
-42 -189 0
-42 -274 0
-42 -302 0
-42 -375 0
-42 -384 0
-42 -397 0
-42 -406 0
-42 -428 0
-136 -189 0
-136 -274 0
-136 -302 0
-136 -375 0
-136 -384 0
-136 -397 0
-136 -406 0
-136 -428 0
-189 -274 0
-189 -302 0
-189 -375 0
-189 -384 0
-189 -397 0
-189 -406 0
-189 -428 0
-274 -302 0
-274 -375 0
-274 -384 0
-274 -397 0
-274 -406 0
-274 -428 0
-302 -375 0
-302 -384 0
-302 -397 0
-302 -406 0
-302 -428 0
-375 -384 0
-375 -397 0
-375 -406 0
-375 -428 0
-384 -397 0
-384 -406 0
-384 -428 0
-397 -406 0
-397 -428 0
-406 -428 0
10 20 32 44 66 78 100 112 123 145 158 0
-10 -20 0
-10 -32 0
-10 -44 0
-10 -66 0
-10 -78 0
-10 -100 0
-10 -112 0
-10 -123 0
-10 -145 0
-10 -158 0
-20 -32 0
-20 -44 0
-20 -66 0
-20 -78 0
-20 -100 0
-20 -112 0
-20 -123 0
-20 -145 0
-20 -158 0
-32 -44 0
-32 -66 0
-32 -78 0
-32 -100 0
-32 -112 0
-32 -123 0
-32 -145 0
-32 -158 0
-44 -66 0
-44 -78 0
-44 -100 0
-44 -112 0
-44 -123 0
-44 -145 0
-44 -158 0
-66 -78 0
-66 -100 0
-66 -112 0
-66 -123 0
-66 -145 0
-66 -158 0
-78 -100 0
-78 -112 0
-78 -123 0
-78 -145 0
-78 -158 0
-100 -112 0
-100 -123 0
-100 -145 0
-100 -158 0
-112 -123 0
-112 -145 0
-112 -158 0
-123 -145 0
-123 -158 0
-145 -158 0
10 19 167 168 180 191 205 214 237 250 260 282 0
-10 -19 0
-10 -167 0
-10 -168 0
-10 -180 0
-10 -191 0
-10 -205 0
-10 -214 0
-10 -237 0
-10 -250 0
-10 -260 0
-10 -282 0
-19 -167 0
-19 -168 0
-19 -180 0
-19 -191 0
-19 -205 0
-19 -214 0
-19 -237 0
-19 -250 0
-19 -260 0
-19 -282 0
-167 -168 0
-167 -180 0
-167 -191 0
-167 -205 0
-167 -214 0
-167 -237 0
-167 -250 0
-167 -260 0
-167 -282 0
-168 -180 0
-168 -191 0
-168 -205 0
-168 -214 0
-168 -237 0
-168 -250 0
-168 -260 0
-168 -282 0
-180 -191 0
-180 -205 0
-180 -214 0
-180 -237 0
-180 -250 0
-180 -260 0
-180 -282 0
-191 -205 0
-191 -214 0
-191 -237 0
-191 -250 0
-191 -260 0
-191 -282 0
-205 -214 0
-205 -237 0
-205 -250 0
-205 -260 0
-205 -282 0
-214 -237 0
-214 -250 0
-214 -260 0
-214 -282 0
-237 -250 0
-237 -260 0
-237 -282 0
-250 -260 0
-250 -282 0
-260 -282 0
20 31 147 179 285 291 294 306 318 340 350 0
-20 -31 0
-20 -147 0
-20 -179 0
-20 -285 0
-20 -291 0
-20 -294 0
-20 -306 0
-20 -318 0
-20 -340 0
-20 -350 0
-31 -147 0
-31 -179 0
-31 -285 0
-31 -291 0
-31 -294 0
-31 -306 0
-31 -318 0
-31 -340 0
-31 -350 0
-147 -179 0
-147 -285 0
-147 -291 0
-147 -294 0
-147 -306 0
-147 -318 0
-147 -340 0
-147 -350 0
-179 -285 0
-179 -291 0
-179 -294 0
-179 -306 0
-179 -318 0
-179 -340 0
-179 -350 0
-285 -291 0
-285 -294 0
-285 -306 0
-285 -318 0
-285 -340 0
-285 -350 0
-291 -294 0
-291 -306 0
-291 -318 0
-291 -340 0
-291 -350 0
-294 -306 0
-294 -318 0
-294 -340 0
-294 -350 0
-306 -318 0
-306 -340 0
-306 -350 0
-318 -340 0
-318 -350 0
-340 -350 0
10 21 33 55 67 90 101 113 124 135 146 0
-10 -21 0
-10 -33 0
-10 -55 0
-10 -67 0
-10 -90 0
-10 -101 0
-10 -113 0
-10 -124 0
-10 -135 0
-10 -146 0
-21 -33 0
-21 -55 0
-21 -67 0
-21 -90 0
-21 -101 0
-21 -113 0
-21 -124 0
-21 -135 0
-21 -146 0
-33 -55 0
-33 -67 0
-33 -90 0
-33 -101 0
-33 -113 0
-33 -124 0
-33 -135 0
-33 -146 0
-55 -67 0
-55 -90 0
-55 -101 0
-55 -113 0
-55 -124 0
-55 -135 0
-55 -146 0
-67 -90 0
-67 -101 0
-67 -113 0
-67 -124 0
-67 -135 0
-67 -146 0
-90 -101 0
-90 -113 0
-90 -124 0
-90 -135 0
-90 -146 0
-101 -113 0
-101 -124 0
-101 -135 0
-101 -146 0
-113 -124 0
-113 -135 0
-113 -146 0
-124 -135 0
-124 -146 0
-135 -146 0
20 159 169 192 206 215 228 238 261 272 283 0
-20 -159 0
-20 -169 0
-20 -192 0
-20 -206 0
-20 -215 0
-20 -228 0
-20 -238 0
-20 -261 0
-20 -272 0
-20 -283 0
-159 -169 0
-159 -192 0
-159 -206 0
-159 -215 0
-159 -228 0
-159 -238 0
-159 -261 0
-159 -272 0
-159 -283 0
-169 -192 0
-169 -206 0
-169 -215 0
-169 -228 0
-169 -238 0
-169 -261 0
-169 -272 0
-169 -283 0
-192 -206 0
-192 -215 0
-192 -228 0
-192 -238 0
-192 -261 0
-192 -272 0
-192 -283 0
-206 -215 0
-206 -228 0
-206 -238 0
-206 -261 0
-206 -272 0
-206 -283 0
-215 -228 0
-215 -238 0
-215 -261 0
-215 -272 0
-215 -283 0
-228 -238 0
-228 -261 0
-228 -272 0
-228 -283 0
-238 -261 0
-238 -272 0
-238 -283 0
-261 -272 0
-261 -283 0
-272 -283 0
-1 -14 -29 -44 -56 -61 -76 -84 -96 -110 -122 -135 -139 -151 -163 -179 -191 -203 -208 -225 -239 -252 -261 -269 -279 -295 -298 -317 -331 -339 -346 -358 -370 -385 -397 -402 -412 -427 -435 -448 0
-1 -14 -32 -38 -52 -61 -77 -90 -96 -111 -121 -136 -139 -151 -163 -176 -191 -202 -215 -226 -239 -252 -259 -269 -276 -296 -304 -318 -326 -337 -346 -361 -368 -379 -396 -404 -411 -424 -436 -455 0
-1 -17 -31 -44 -47 -60 -76 -87 -102 -107 -117 -135 -143 -151 -165 -182 -191 -197 -209 -227 -239 -243 -258 -268 -283 -286 -303 -320 -324 -341 -348 -361 -374 -378 -391 -403 -421 -422 -436 -445 0
-1 -18 -31 -44 -50 -67 -76 -83 -102 -105 -119 -130 -143 -151 -162 -181 -186 -200 -217 -228 -234 -249 -259 -266 -282 -292 -299 -310 -324 -337 -353 -361 -374 -385 -395 -409 -412 -426 -441 -447 0
-1 -16 -33 -38 -51 -68 -74 -89 -93 -110 -117 -133 -145 -151 -167 -172 -192 -199 -212 -225 -232 -248 -262 -268 -285 -290 -298 -312 -325 -341 -349 -364 -365 -387 -395 -406 -411 -423 -444 -446 0
-1 -15 -28 -43 -52 -64 -79 -86 -94 -112 -120 -127 -146 -151 -165 -176 -193 -197 -213 -226 -237 -243 -261 -268 -285 -288 -308 -310 -330 -342 -343 -361 -369 -382 -397 -400 -421 -425 -433 -454 0
-1 -17 -25 -39 -53 -68 -77 -84 -98 -112 -117 -132 -146 -151 -168 -173 -189 -198 -213 -222 -233 -249 -261 -266 -285 -290 -307 -320 -331 -332 -344 -357 -370 -382 -391 -399 -418 -431 -441 -447 0
-1 -18 -30 -38 -54 -67 -70 -85 -94 -109 -123 -131 -147 -151 -163 -181 -191 -201 -211 -219 -238 -252 -259 -267 -278 -289 -308 -313 -328 -333 -352 -357 -373 -386 -397 -410 -418 -424 -438 -454 0
-1 -21 -30 -38 -54 -60 -79 -87 -93 -106 -120 -129 -145 -154 -161 -172 -191 -201 -210 -228 -236 -249 -263 -268 -281 -296 -306 -315 -322 -332 -353 -356 -371 -379 -392 -406 -420 -429 -444 -450 0
-1 -16 -32 -40 -52 -59 -77 -82 -102 -107 -121 -128 -146 -156 -161 -181 -189 -196 -214 -222 -238 -248 -263 -271 -277 -294 -305 -310 -331 -337 -345 -357 -370 -382 -392 -400 -412 -422 -439 -450 0
-1 -21 -31 -38 -52 -68 -73 -88 -95 -105 -117 -131 -145 -153 -161 -180 -194 -199 -211 -226 -234 -247 -261 -271 -276 -288 -304 -320 -322 -337 -344 -361 -369 -385 -395 -409 -421 -427 -441 -447 0
-1 -13 -27 -44 -51 -65 -73 -88 -95 -109 -117 -135 -147 -155 -161 -182 -192 -198 -212 -229 -237 -248 -257 -271 -278 -292 -302 -320 -321 -338 -352 -357 -372 -383 -391 -399 -416 -422 -437 -449 0
-1 -18 -32 -39 -50 -67 -77 -82 -99 -114 -118 -131 -140 -152 -161 -179 -192 -200 -217 -225 -237 -246 -256 -273 -277 -293 -300 -314 -327 -336 -349 -355 -375 -380 -389 -409 -420 -423 -438 -456 0
-1 -15 -28 -41 -47 -62 -72 -88 -97 -112 -117 -134 -146 -159 -161 -175 -185 -203 -216 -225 -234 -245 -259 -274 -282 -294 -305 -311 -331 -336 -345 -355 -365 -386 -388 -400 -421 -424 -441 -445 0
-1 -14 -30 -44 -49 -67 -74 -86 -93 -108 -122 -129 -144 -159 -168 -177 -184 -203 -209 -223 -236 -243 -263 -268 -279 -297 -301 -310 -327 -340 -343 -363 -369 -387 -397 -403 -421 -424 -435 -456 0
-1 -19 -29 -39 -52 -68 -70 -90 -99 -112 -117 -129 -142 -153 -164 -177 -184 -206 -213 -220 -233 -243 -258 -273 -285 -288 -303 -310 -325 -342 -351 -354 -375 -382 -398 -399 -415 -432 -435 -451 0
-1 -16 -25 -43 -51 -67 -72 -84 -97 -110 -125 -128 -145 -156 -164 -172 -184 -197 -216 -227 -238 -252 -260 -268 -281 -295 -304 -317 -322 -340 -352 -355 -375 -381 -388 -403 -415 -431 -433 -446 0
-1 -13 -28 -37 -49 -63 -76 -89 -98 -113 -125 -128 -145 -153 -167 -175 -184 -199 -212 -229 -238 -249 -256 -267 -285 -296 -308 -317 -324 -339 -345 -362 -365 -386 -395 -406 -417 -431 -433 -446 0
-1 -17 -34 -42 -48 -63 -78 -84 -93 -108 -124 -134 -141 -154 -168 -172 -184 -198 -212 -227 -238 -247 -254 -270 -285 -297 -304 -315 -329 -342 -351 -356 -370 -381 -390 -404 -411 -431 -433 -446 0
-1 -21 -34 -39 -53 -63 -70 -89 -97 -106 -118 -131 -142 -158 -166 -174 -188 -205 -208 -218 -238 -247 -263 -267 -278 -296 -303 -313 -323 -340 -348 -361 -375 -382 -393 -409 -412 -423 -439 -446 0
-1 -19 -32 -40 -49 -63 -79 -83 -98 -105 -118 -130 -146 -156 -163 -176 -192 -196 -212 -218 -239 -244 -263 -271 -278 -287 -301 -313 -331 -340 -343 -355 -375 -386 -388 -400 -416 -431 -442 -456 0
-1 -15 -28 -36 -55 -61 -78 -82 -98 -110 -122 -129 -147 -156 -163 -173 -189 -204 -217 -224 -231 -251 -261 -266 -282 -296 -308 -311 -330 -335 -349 -354 -372 -382 -398 -402 -412 -427 -441 -452 0
-1 -13 -31 -44 -52 -67 -74 -84 -94 -111 -118 -130 -143 -159 -168 -173 -187 -200 -217 -225 -231 -246 -255 -271 -281 -293 -298 -315 -328 -332 -353 -356 -370 -383 -389 -410 -411 -425 -437 -452 0
-1 -21 -30 -40 -56 -59 -70 -87 -96 -112 -121 -128 -142 -157 -163 -177 -190 -205 -209 -220 -231 -243 -263 -272 -279 -294 -302 -312 -331 -337 -346 -354 -366 -376 -393 -409 -412 -424 -439 -448 0
-1 -19 -33 -36 -52 -64 -72 -85 -102 -112 -120 -127 -143 -152 -166 -175 -194 -206 -209 -227 -239 -242 -255 -267 -280 -292 -303 -310 -322 -340 -347 -354 -375 -378 -394 -405 -421 -426 -439 -453 0
-1 -14 -34 -42 -49 -66 -73 -82 -95 -113 -121 -134 -144 -153 -165 -182 -190 -196 -216 -226 -234 -242 -261 -269 -282 -297 -304 -317 -325 -340 -352 -359 -373 -376 -398 -405 -412 -423 -438 -455 0
-1 -20 -30 -43 -48 -67 -74 -86 -93 -108 -125 -129 -144 -152 -165 -181 -194 -198 -212 -227 -237 -242 -254 -269 -279 -289 -302 -320 -322 -333 -352 -360 -373 -379 -392 -408 -421 -431 -439 -447 0
-1 -14 -28 -43 -55 -68 -70 -87 -97 -112 -118 -133 -142 -154 -169 -178 -193 -204 -210 -219 -237 -242 -257 -268 -279 -291 -302 -320 -321 -342 -344 -360 -373 -383 -392 -400 -418 -432 -435 -445 0
-1 -16 -25 -43 -49 -62 -76 -87 -100 -106 -120 -135 -141 -159 -164 -177 -189 -196 -216 -221 -236 -250 -254 -265 -285 -297 -300 -317 -327 -337 -343 -359 -374 -376 -394 -410 -420 -423 -435 -451 0
-1 -19 -29 -37 -50 -66 -76 -83 -102 -110 -124 -130 -139 -152 -169 -179 -186 -203 -209 -229 -234 -247 -254 -265 -280 -287 -301 -319 -327 -339 -343 -355 -374 -376 -393 -407 -412 -428 -443 -449 0
-1 -21 -28 -44 -56 -63 -71 -89 -95 -111 -120 -127 -142 -154 -163 -177 -187 -196 -213 -226 -238 -250 -263 -267 -275 -290 -303 -310 -321 -340 -345 -363 -368 -384 -395 -402 -414 -427 -435 -451 0
-1 -20 -25 -40 -53 -59 -73 -86 -94 -114 -119 -135 -144 -157 -162 -177 -193 -204 -210 -219 -237 -245 -256 -274 -275 -295 -305 -311 -323 -342 -347 -359 -366 -377 -396 -410 -419 -424 -437 -452 0
-1 -17 -29 -39 -47 -64 -77 -84 -101 -106 -125 -132 -141 -158 -168 -173 -189 -198 -217 -222 -233 -249 -261 -266 -275 -286 -305 -316 -322 -340 -352 -357 -373 -378 -391 -405 -420 -422 -440 -446 0
-1 -15 -30 -36 -51 -67 -77 -85 -100 -109 -125 -127 -141 -155 -169 -180 -185 -201 -212 -225 -236 -251 -255 -267 -275 -295 -303 -312 -322 -336 -350 -359 -371 -378 -395 -406 -421 -426 -434 -452 0
-1 -19 -29 -39 -48 -68 -75 -88 -95 -113 -120 -127 -145 -152 -162 -174 -192 -202 -210 -226 -236 -252 -256 -273 -275 -296 -304 -313 -322 -341 -350 -357 -365 -377 -393 -406 -413 -422 -439 -451 0
-1 -16 -30 -40 -48 -63 -79 -82 -100 -107 -124 -129 -143 -157 -169 -179 -186 -197 -214 -225 -239 -243 -256 -269 -275 -292 -301 -315 -331 -334 -344 -356 -365 -384 -389 -400 -416 -431 -439 -446 0
-1 -21 -26 -44 -51 -60 -75 -89 -97 -106 -119 -127 -147 -156 -167 -173 -189 -196 -210 -228 -234 -245 -263 -269 -275 -296 -301 -312 -327 -334 -349 -354 -372 -377 -393 -410 -411 -424 -435 -451 0
-2 -15 -32 -39 -52 -59 -77 -90 -98 -103 -120 -136 -138 -156 -166 -174 -194 -200 -213 -229 -230 -243 -260 -267 -283 -288 -308 -309 -329 -334 -350 -355 -370 -382 -396 -400 -421 -423 -444 -451 0
-2 -15 -30 -37 -56 -65 -74 -90 -98 -112 -115 -130 -144 -149 -170 -177 -192 -204 -214 -219 -233 -248 -254 -268 -281 -291 -302 -312 -322 -332 -351 -363 -366 -379 -394 -407 -411 -426 -435 -456 0
-2 -15 -33 -43 -52 -61 -69 -81 -96 -114 -121 -129 -145 -156 -166 -174 -183 -205 -215 -219 -233 -244 -259 -273 -285 -295 -299 -313 -322 -339 -344 -361 -375 -377 -391 -409 -417 -432 -444 -446 0
-2 -16 -33 -45 -51 -65 -78 -87 -99 -107 -120 -126 -141 -149 -162 -176 -183 -202 -208 -221 -235 -250 -259 -272 -284 -292 -306 -311 -321 -337 -345 -357 -369 -383 -393 -403 -417 -428 -443 -448 0
-2 -16 -23 -40 -51 -66 -76 -89 -95 -110 -125 -135 -142 -149 -164 -180 -188 -197 -208 -228 -230 -245 -258 -271 -284 -291 -304 -309 -326 -341 -347 -356 -368 -384 -398 -407 -414 -423 -444 -452 0
-2 -16 -30 -45 -54 -59 -74 -86 -92 -110 -123 -135 -137 -152 -164 -181 -192 -202 -214 -227 -232 -252 -253 -268 -281 -287 -298 -320 -327 -340 -352 -359 -371 -387 -392 -406 -419 -425 -433 -450 0
-2 -16 -23 -44 -50 -58 -76 -89 -101 -110 -118 -136 -143 -152 -167 -181 -187 -197 -211 -228 -240 -246 -258 -264 -277 -290 -306 -319 -328 -337 -353 -363 -370 -387 -394 -399 -414 -425 -436 -451 0
-2 -16 -24 -38 -52 -66 -72 -80 -101 -109 -122 -131 -147 -156 -167 -181 -187 -206 -208 -220 -235 -245 -253 -274 -278 -296 -304 -316 -330 -337 -353 -357 -372 -387 -392 -410 -411 -424 -437 -452 0
-2 -16 -29 -37 -54 -66 -79 -80 -101 -110 -120 -133 -138 -152 -168 -171 -188 -199 -213 -226 -232 -252 -261 -268 -279 -289 -308 -318 -329 -333 -349 -354 -373 -376 -393 -406 -420 -432 -443 -450 0
-2 -16 -31 -35 -50 -63 -79 -84 -101 -104 -118 -133 -143 -158 -169 -180 -187 -197 -208 -225 -230 -246 -258 -273 -277 -295 -298 -315 -329 -338 -347 -364 -367 -385 -393 -409 -413 -425 -436 -456 0
-2 -16 -30 -41 -55 -68 -74 -80 -100 -104 -122 -129 -143 -152 -170 -180 -190 -197 -217 -221 -234 -249 -258 -269 -283 -297 -302 -318 -327 -337 -351 -354 -366 -379 -393 -399 -421 -424 -435 -448 0
-2 -16 -30 -43 -52 -59 -78 -84 -102 -113 -120 -131 -137 -149 -170 -177 -185 -199 -213 -224 -238 -250 -255 -267 -281 -296 -306 -316 -326 -334 -343 -356 -368 -378 -397 -404 -417 -425 -437 -449 0
-2 -17 -29 -38 -52 -58 -78 -90 -99 -108 -115 -129 -147 -157 -162 -172 -186 -200 -215 -227 -230 -252 -260 -273 -280 -296 -304 -317 -321 -334 -351 -364 -367 -377 -398 -404 -413 -428 -444 -455 0
-2 -17 -33 -41 -54 -57 -72 -81 -96 -112 -121 -133 -142 -159 -163 -173 -193 -203 -211 -227 -240 -246 -260 -264 -276 -290 -298 -318 -323 -339 -345 -364 -370 -384 -398 -399 -418 -427 -440 -449 0
-2 -17 -31 -38 -52 -57 -78 -90 -96 -111 -125 -129 -138 -154 -165 -182 -183 -197 -213 -221 -235 -250 -261 -266 -284 -287 -304 -316 -321 -335 -353 -359 -373 -377 -396 -403 -414 -429 -434 -447 0
-2 -17 -29 -37 -53 -63 -79 -80 -92 -107 -123 -130 -146 -157 -169 -181 -186 -200 -214 -219 -232 -249 -259 -264 -278 -287 -306 -319 -324 -342 -344 -361 -375 -376 -389 -404 -416 -431 -441 -455 0
-2 -17 -29 -37 -46 -64 -73 -89 -91 -107 -125 -135 -144 -158 -170 -180 -186 -206 -210 -222 -240 -249 -258 -267 -276 -287 -298 -317 -327 -335 -350 -362 -375 -386 -390 -405 -421 -429 -438 -447 0
-2 -18 -23 -40 -54 -59 -73 -88 -98 -107 -124 -136 -138 -158 -168 -173 -185 -206 -211 -223 -230 -252 -255 -269 -279 -286 -306 -314 -329 -334 -351 -364 -370 -386 -391 -404 -417 -427 -443 -446 0
-2 -18 -28 -42 -51 -67 -72 -84 -97 -104 -122 -126 -145 -159 -162 -172 -194 -205 -216 -223 -234 -241 -259 -270 -277 -288 -308 -318 -328 -333 -352 -354 -372 -381 -388 -408 -421 -431 -433 -452 0
-2 -19 -28 -40 -49 -68 -78 -86 -92 -110 -124 -129 -137 -156 -163 -173 -190 -195 -209 -226 -240 -243 -262 -272 -279 -297 -298 -316 -331 -335 -350 -354 -371 -387 -397 -405 -412 -432 -443 -452 0
-2 -19 -27 -44 -51 -64 -75 -81 -96 -109 -125 -135 -141 -148 -164 -172 -192 -195 -210 -221 -240 -244 -257 -271 -281 -286 -307 -318 -322 -338 -348 -360 -375 -379 -396 -409 -413 -429 -442 -449 0
-2 -19 -23 -40 -52 -67 -79 -85 -99 -112 -118 -131 -138 -152 -164 -174 -190 -202 -212 -220 -239 -247 -253 -272 -285 -287 -308 -319 -327 -332 -346 -360 -369 -384 -396 -399 -420 -424 -435 -453 0
-2 -19 -24 -45 -50 -59 -76 -90 -98 -107 -115 -130 -144 -158 -169 -174 -187 -202 -210 -220 -235 -243 -262 -264 -278 -296 -306 -316 -321 -341 -353 -357 -369 -379 -396 -409 -417 -428 -436 -450 0
-2 -20 -26 -39 -54 -58 -76 -87 -97 -103 -124 -136 -142 -154 -163 -176 -194 -202 -216 -219 -236 -250 -254 -264 -281 -296 -307 -320 -321 -335 -349 -359 -372 -380 -396 -408 -421 -431 -433 -447 0
-2 -20 -23 -40 -52 -60 -72 -88 -101 -114 -116 -131 -142 -157 -163 -181 -190 -195 -214 -222 -240 -248 -254 -266 -280 -293 -299 -315 -330 -339 -347 -357 -375 -383 -394 -399 -420 -426 -435 -453 0
-2 -20 -34 -43 -49 -61 -76 -81 -95 -108 -124 -131 -144 -148 -167 -175 -189 -199 -207 -219 -240 -249 -254 -268 -279 -297 -304 -314 -329 -338 -345 -355 -373 -387 -394 -403 -411 -423 -443 -446 0
-2 -20 -26 -40 -49 -67 -76 -85 -98 -103 -116 -136 -144 -157 -170 -182 -188 -200 -209 -219 -236 -248 -260 -267 -277 -293 -308 -309 -328 -335 -347 -359 -373 -386 -394 -410 -419 -423 -440 -449 0
-2 -21 -26 -45 -51 -63 -69 -85 -100 -107 -120 -134 -138 -156 -167 -173 -186 -201 -212 -219 -238 -247 -263 -264 -278 -289 -306 -311 -329 -339 -343 -355 -375 -386 -390 -404 -416 -423 -438 -456 0
-2 -21 -34 -39 -53 -57 -74 -87 -100 -104 -122 -131 -141 -152 -163 -176 -191 -202 -215 -227 -230 -244 -258 -269 -285 -290 -301 -320 -322 -339 -346 -357 -374 -385 -397 -401 -420 -425 -440 -453 0
-2 -21 -23 -41 -53 -59 -77 -85 -97 -114 -123 -131 -142 -149 -164 -175 -192 -196 -212 -221 -232 -249 -259 -264 -282 -286 -304 -318 -329 -336 -352 -358 -368 -383 -394 -406 -418 -423 -443 -455 0
-2 -21 -34 -38 -52 -58 -74 -80 -99 -108 -123 -129 -143 -157 -162 -175 -190 -205 -215 -219 -230 -249 -256 -274 -277 -296 -305 -318 -325 -336 -345 -364 -371 -382 -395 -399 -413 -427 -436 -455 0
-2 -21 -26 -38 -52 -58 -74 -80 -99 -108 -125 -134 -145 -154 -169 -175 -191 -204 -212 -224 -232 -249 -253 -268 -276 -296 -308 -317 -322 -335 -350 -358 -371 -385 -392 -406 -421 -427 -444 -447 0
-2 -22 -24 -44 -55 -59 -76 -85 -91 -109 -119 -131 -144 -157 -167 -177 -185 -198 -215 -223 -232 -251 -263 -269 -279 -296 -301 -312 -326 -340 -351 -354 -372 -385 -397 -402 -421 -431 -435 -446 0
-2 -22 -31 -40 -55 -57 -72 -88 -96 -104 -121 -132 -145 -152 -165 -180 -194 -203 -209 -221 -234 -244 -259 -273 -283 -290 -307 -314 -322 -333 -346 -357 -365 -378 -391 -409 -421 -430 -444 -446 0
-2 -22 -27 -42 -54 -58 -75 -90 -96 -103 -121 -129 -145 -153 -166 -177 -192 -197 -210 -219 -240 -246 -260 -271 -284 -296 -299 -318 -322 -341 -347 -359 -365 -386 -396 -400 -413 -431 -434 -449 0
-2 -22 -32 -42 -55 -59 -74 -80 -92 -107 -122 -130 -143 -155 -167 -177 -193 -203 -217 -221 -232 -246 -256 -272 -276 -293 -306 -312 -324 -334 -348 -355 -370 -379 -389 -402 -420 -431 -444 -452 0
-3 -15 -28 -40 -52 -64 -69 -82 -101 -114 -123 -131 -138 -157 -165 -179 -183 -197 -217 -228 -237 -248 -255 -273 -275 -288 -307 -315 -329 -334 -349 -355 -365 -384 -389 -404 -415 -430 -443 -446 0
-3 -15 -34 -40 -52 -67 -73 -88 -98 -105 -123 -126 -138 -157 -163 -182 -184 -195 -211 -224 -236 -250 -261 -267 -284 -288 -304 -319 -322 -340 -347 -359 -375 -378 -394 -404 -412 -427 -443 -449 0
-3 -15 -24 -39 -51 -68 -78 -90 -97 -111 -122 -132 -139 -148 -161 -178 -190 -205 -210 -225 -234 -245 -253 -272 -285 -288 -302 -319 -328 -332 -344 -358 -370 -383 -388 -408 -414 -425 -441 -452 0
-3 -15 -23 -40 -55 -65 -78 -82 -99 -114 -121 -130 -144 -149 -170 -180 -184 -201 -212 -225 -233 -244 -259 -268 -283 -290 -301 -311 -330 -338 -350 -354 -367 -381 -392 -406 -420 -429 -444 -445 0
-3 -15 -31 -40 -47 -60 -79 -80 -99 -104 -124 -131 -144 -158 -163 -178 -193 -202 -215 -224 -232 -252 -260 -264 -275 -295 -301 -311 -331 -338 -348 -355 -367 -387 -396 -399 -420 -424 -442 -450 0
-3 -15 -25 -42 -55 -68 -77 -85 -100 -109 -121 -126 -144 -149 -170 -175 -188 -197 -212 -224 -231 -245 -261 -271 -282 -296 -304 -318 -322 -341 -343 -358 -372 -377 -388 -400 -421 -426 -442 -452 0
-3 -15 -34 -40 -51 -60 -77 -81 -101 -111 -115 -127 -145 -155 -167 -178 -184 -202 -217 -228 -239 -244 -256 -264 -277 -288 -307 -318 -328 -333 -352 -359 -375 -386 -390 -402 -416 -423 -439 -449 0
-3 -15 -33 -35 -53 -61 -78 -81 -93 -108 -121 -132 -147 -157 -165 -181 -192 -201 -207 -227 -240 -250 -254 -265 -277 -290 -299 -313 -325 -333 -349 -364 -373 -379 -388 -406 -413 -427 -439 -451 0
-3 -20 -27 -42 -50 -57 -73 -89 -102 -104 -124 -131 -139 -155 -167 -182 -187 -197 -216 -225 -230 -245 -258 -265 -278 -287 -307 -316 -328 -342 -348 -361 -365 -386 -395 -401 -413 -424 -440 -445 0
-3 -20 -27 -45 -55 -63 -77 -81 -96 -109 -121 -126 -139 -156 -166 -174 -183 -200 -209 -220 -231 -251 -263 -271 -282 -293 -299 -310 -322 -339 -343 -357 -373 -386 -398 -406 -414 -427 -438 -452 0
-3 -19 -27 -39 -50 -58 -75 -82 -99 -113 -125 -131 -145 -148 -164 -175 -188 -204 -212 -228 -240 -244 -253 -268 -275 -286 -306 -311 -325 -341 -349 -357 -366 -385 -398 -406 -413 -425 -440 -453 0
-3 -18 -24 -38 -54 -60 -79 -86 -99 -109 -124 -127 -137 -158 -163 -176 -184 -206 -214 -222 -230 -249 -263 -267 -284 -294 -301 -310 -323 -336 -345 -363 -365 -381 -390 -406 -421 -425 -434 -445 0
-3 -20 -25 -38 -56 -63 -77 -81 -96 -113 -120 -133 -137 -154 -163 -176 -191 -203 -216 -225 -232 -241 -259 -274 -275 -290 -301 -309 -331 -334 -349 -355 -368 -379 -388 -405 -419 -432 -440 -453 0
-3 -16 -24 -38 -55 -62 -76 -87 -102 -103 -120 -134 -139 -158 -162 -182 -189 -198 -215 -229 -230 -242 -256 -270 -282 -293 -301 -312 -330 -340 -348 -357 -365 -387 -394 -405 -420 -422 -436 -455 0
-3 -16 -31 -38 -56 -63 -78 -88 -91 -113 -116 -131 -139 -153 -168 -178 -183 -199 -217 -225 -231 -248 -254 -271 -283 -296 -301 -309 -322 -338 -345 -362 -369 -386 -398 -403 -411 -427 -438 -456 0
-3 -18 -24 -38 -54 -60 -69 -88 -101 -105 -120 -136 -143 -158 -168 -182 -192 -198 -209 -223 -231 -241 -256 -267 -280 -291 -308 -319 -321 -337 -352 -356 -372 -382 -391 -405 -417 -431 -436 -454 0
-3 -21 -23 -38 -56 -58 -73 -87 -97 -111 -122 -127 -143 -158 -162 -180 -187 -206 -211 -223 -235 -242 -253 -274 -277 -286 -303 -314 -324 -340 -353 -359 -372 -386 -390 -405 -417 -432 -435 -453 0
-3 -12 -32 -38 -47 -64 -79 -80 -101 -109 -122 -130 -143 -155 -166 -181 -186 -202 -213 -220 -230 -246 -260 -272 -285 -297 -305 -313 -328 -338 -348 -363 -367 -386 -397 -400 -411 -427 -442 -448 0
-3 -17 -24 -38 -47 -64 -77 -85 -91 -110 -124 -136 -145 -154 -170 -178 -192 -202 -214 -218 -233 -245 -254 -271 -285 -286 -307 -310 -323 -342 -353 -360 -369 -379 -396 -408 -413 -429 -434 -445 0
-3 -16 -30 -38 -55 -57 -75 -89 -92 -105 -123 -131 -147 -153 -161 -182 -193 -201 -207 -226 -237 -249 -261 -271 -278 -297 -301 -316 -330 -339 -352 -354 -369 -386 -398 -403 -421 -428 -437 -445 0
-3 -17 -29 -35 -49 -65 -70 -88 -92 -113 -125 -130 -144 -158 -170 -178 -192 -198 -214 -223 -232 -246 -257 -274 -275 -287 -298 -316 -321 -340 -352 -356 -373 -381 -392 -408 -419 -422 -435 -449 0
-3 -16 -34 -42 -49 -63 -77 -82 -101 -109 -121 -126 -145 -149 -162 -171 -188 -206 -216 -224 -236 -245 -260 -265 -281 -293 -304 -310 -323 -340 -345 -362 -369 -378 -389 -402 -418 -422 -440 -446 0
-3 -12 -34 -43 -49 -64 -70 -80 -96 -112 -120 -132 -146 -154 -165 -176 -189 -198 -214 -227 -239 -241 -261 -267 -285 -297 -305 -319 -331 -337 -345 -359 -368 -382 -393 -400 -413 -425 -441 -456 0
-3 -12 -29 -43 -49 -61 -75 -82 -99 -108 -125 -135 -137 -158 -163 -171 -193 -205 -215 -225 -235 -252 -254 -269 -279 -294 -305 -309 -324 -342 -345 -358 -370 -381 -391 -410 -412 -428 -436 -455 0
-3 -12 -33 -45 -52 -61 -77 -84 -99 -108 -121 -126 -139 -158 -162 -176 -186 -203 -214 -223 -239 -241 -263 -272 -280 -295 -299 -311 -326 -340 -347 -361 -368 -387 -396 -406 -418 -423 -436 -446 0
-3 -18 -23 -44 -55 -61 -77 -84 -96 -111 -121 -136 -138 -150 -163 -173 -194 -201 -213 -225 -237 -251 -261 -269 -275 -291 -299 -311 -329 -339 -347 -357 -373 -381 -391 -403 -419 -432 -434 -450 0
-3 -19 -24 -44 -51 -60 -69 -88 -101 -107 -120 -132 -147 -150 -164 -175 -192 -202 -213 -226 -232 -251 -255 -274 -275 -288 -300 -310 -325 -338 -349 -363 -373 -387 -391 -405 -417 -422 -443 -450 0
-3 -16 -34 -42 -52 -66 -70 -89 -98 -107 -120 -126 -146 -149 -162 -171 -193 -198 -212 -218 -238 -249 -260 -271 -279 -291 -305 -315 -331 -337 -351 -356 -366 -380 -392 -399 -413 -425 -444 -450 0
-3 -17 -34 -43 -52 -67 -73 -82 -98 -107 -116 -133 -137 -158 -170 -182 -184 -202 -212 -220 -233 -246 -260 -272 -277 -288 -300 -317 -331 -338 -350 -359 -375 -378 -392 -399 -411 -427 -433 -447 0
-3 -21 -31 -45 -53 -66 -69 -85 -93 -107 -120 -131 -144 -149 -161 -175 -187 -199 -212 -221 -236 -249 -261 -264 -282 -286 -300 -311 -329 -337 -352 -360 -366 -383 -394 -399 -421 -423 -443 -455 0
-3 -20 -34 -40 -46 -60 -77 -82 -99 -107 -121 -132 -146 -148 -164 -178 -183 -204 -210 -221 -232 -252 -260 -265 -280 -287 -298 -315 -327 -337 -351 -356 -375 -385 -394 -404 -412 -430 -444 -445 0
-3 -19 -23 -40 -46 -67 -75 -85 -93 -111 -119 -136 -145 -154 -163 -177 -184 -197 -212 -228 -239 -241 -263 -271 -279 -297 -299 -318 -325 -341 -352 -359 -365 -386 -396 -410 -413 -431 -439 -447 0
-3 -22 -28 -40 -53 -58 -77 -82 -100 -110 -119 -126 -146 -154 -161 -182 -192 -200 -212 -229 -236 -245 -260 -270 -279 -291 -302 -309 -329 -334 -352 -356 -373 -386 -388 -400 -417 -431 -437 -446 0
-3 -17 -25 -41 -54 -58 -78 -85 -102 -103 -119 -133 -146 -154 -163 -182 -189 -197 -213 -228 -230 -249 -260 -265 -284 -295 -306 -320 -323 -334 -352 -359 -370 -376 -389 -408 -419 -425 -440 -454 0
-3 -21 -29 -42 -54 -61 -69 -81 -93 -114 -119 -130 -145 -155 -162 -178 -192 -198 -217 -227 -237 -241 -257 -265 -279 -297 -299 -318 -321 -336 -352 -360 -366 -381 -392 -399 -419 -422 -443 -452 0
-3 -21 -34 -43 -46 -60 -78 -86 -91 -111 -119 -127 -144 -153 -160 -180 -194 -201 -213 -223 -235 -249 -254 -269 -283 -291 -301 -311 -326 -333 -345 -361 -375 -379 -392 -402 -420 -427 -435 -448 0
-3 -16 -31 -44 -47 -61 -79 -87 -99 -103 -119 -135 -143 -149 -167 -177 -186 -199 -215 -224 -232 -251 -253 -265 -281 -295 -298 -311 -331 -338 -348 -356 -372 -385 -390 -401 -412 -432 -444 -446 0
-3 -17 -24 -44 -51 -64 -69 -85 -93 -110 -119 -136 -146 -157 -160 -175 -192 -205 -217 -221 -232 -251 -259 -270 -278 -294 -300 -310 -329 -336 -343 -363 -373 -378 -391 -409 -419 -424 -441 -449 0
-3 -19 -29 -45 -55 -61 -78 -85 -93 -111 -119 -132 -137 -149 -162 -177 -189 -204 -215 -218 -230 -247 -256 -273 -277 -289 -306 -312 -321 -336 -344 -363 -368 -380 -394 -409 -413 -429 -438 -448 0
-3 -20 -24 -45 -47 -64 -77 -86 -96 -109 -119 -135 -137 -155 -161 -181 -191 -203 -209 -221 -240 -241 -259 -270 -279 -296 -299 -316 -324 -339 -353 -359 -372 -381 -391 -406 -419 -432 -434 -453 0
-3 -19 -29 -39 -56 -58 -78 -90 -93 -111 -115 -132 -142 -153 -162 -177 -187 -195 -210 -227 -238 -252 -262 -265 -281 -295 -299 -310 -327 -340 -346 -364 -374 -386 -397 -410 -411 -429 -443 -455 0
-3 -20 -34 -42 -46 -61 -75 -89 -93 -108 -121 -135 -142 -148 -165 -182 -184 -205 -212 -222 -232 -245 -259 -264 -279 -289 -299 -319 -328 -336 -353 -361 -369 -383 -395 -399 -411 -430 -439 -448 0
-3 -12 -31 -45 -47 -67 -73 -88 -97 -110 -123 -126 -142 -154 -170 -178 -192 -205 -210 -220 -240 -245 -257 -271 -279 -286 -304 -315 -327 -342 -347 -364 -373 -379 -392 -401 -412 -427 -434 -445 0
-3 -16 -34 -35 -46 -66 -74 -88 -98 -110 -124 -127 -142 -157 -167 -174 -193 -197 -215 -224 -231 -241 -263 -270 -278 -293 -300 -315 -330 -340 -353 -355 -371 -382 -393 -400 -419 -428 -444 -452 0
-3 -19 -32 -45 -50 -67 -73 -87 -92 -105 -115 -131 -142 -156 -163 -179 -194 -197 -207 -222 -231 -251 -256 -272 -281 -286 -300 -320 -331 -336 -349 -355 -370 -384 -396 -402 -420 -431 -433 -453 0
-3 -22 -28 -35 -46 -65 -75 -82 -97 -112 -121 -135 -142 -156 -162 -181 -186 -206 -212 -223 -236 -248 -260 -265 -285 -292 -300 -310 -324 -338 -345 -361 -374 -384 -392 -407 -420 -422 -437 -449 0
-4 -12 -25 -39 -52 -67 -74 -80 -100 -111 -122 -136 -140 -154 -163 -171 -190 -205 -216 -224 -235 -249 -261 -266 -285 -293 -304 -320 -327 -341 -347 -359 -368 -383 -391 -401 -418 -426 -441 -447 0
-4 -12 -31 -40 -55 -63 -78 -83 -96 -111 -121 -126 -139 -159 -163 -177 -194 -203 -209 -229 -234 -241 -260 -271 -276 -287 -305 -312 -326 -338 -346 -358 -374 -376 -393 -408 -413 -426 -441 -448 0
-4 -12 -33 -35 -47 -61 -78 -87 -99 -108 -117 -136 -143 -157 -164 -175 -186 -204 -217 -219 -230 -249 -260 -273 -283 -297 -305 -314 -324 -340 -345 -362 -365 -376 -390 -403 -421 -426 -444 -446 0
-4 -12 -31 -40 -47 -63 -69 -90 -96 -111 -123 -128 -143 -159 -164 -174 -191 -195 -210 -226 -236 -249 -263 -273 -276 -297 -303 -317 -326 -335 -346 -363 -371 -386 -390 -404 -414 -422 -436 -455 0
-4 -12 -33 -43 -52 -60 -71 -80 -97 -114 -121 -133 -145 -150 -163 -177 -193 -205 -213 -226 -238 -243 -263 -269 -279 -297 -299 -318 -330 -336 -347 -359 -372 -384 -398 -400 -412 -427 -439 -445 0
-4 -12 -29 -41 -47 -60 -69 -89 -101 -111 -123 -128 -147 -153 -164 -178 -191 -196 -216 -227 -230 -247 -257 -274 -283 -297 -307 -316 -325 -336 -345 -354 -374 -386 -390 -402 -414 -423 -434 -456 0
-4 -12 -33 -45 -52 -60 -76 -89 -91 -106 -120 -131 -139 -158 -164 -181 -189 -202 -208 -228 -233 -245 -260 -264 -285 -288 -301 -311 -326 -338 -351 -361 -368 -387 -392 -405 -417 -425 -442 -450 0
-4 -12 -30 -35 -51 -67 -70 -85 -94 -109 -122 -136 -144 -158 -169 -180 -186 -199 -212 -225 -233 -243 -262 -264 -279 -291 -301 -320 -330 -334 -343 -359 -367 -376 -390 -409 -415 -425 -441 -456 0
-4 -12 -29 -45 -47 -66 -74 -87 -99 -103 -117 -130 -146 -157 -169 -180 -186 -196 -209 -224 -233 -249 -259 -264 -284 -286 -301 -319 -324 -334 -350 -364 -368 -384 -391 -401 -415 -431 -436 -451 0
-4 -13 -28 -40 -46 -65 -75 -90 -99 -106 -115 -131 -145 -159 -160 -182 -189 -200 -214 -227 -239 -245 -256 -269 -280 -286 -304 -317 -323 -340 -352 -364 -369 -381 -389 -410 -419 -431 -439 -445 0
-4 -13 -30 -41 -55 -65 -71 -85 -92 -112 -120 -136 -137 -154 -160 -175 -190 -206 -214 -224 -235 -251 -255 -270 -285 -286 -308 -310 -323 -342 -347 -360 -370 -379 -394 -410 -412 -431 -435 -449 0
-4 -13 -33 -35 -50 -66 -75 -83 -96 -111 -116 -136 -143 -157 -160 -174 -190 -200 -215 -229 -237 -252 -256 -269 -280 -286 -298 -318 -326 -339 -351 -364 -372 -380 -396 -410 -417 -431 -434 -448 0
-4 -17 -31 -36 -53 -62 -79 -85 -92 -110 -123 -135 -139 -148 -160 -175 -191 -206 -212 -219 -240 -246 -257 -271 -277 -295 -303 -313 -329 -335 -349 -355 -368 -378 -396 -408 -418 -423 -437 -449 0
-4 -20 -24 -41 -55 -64 -73 -80 -97 -105 -125 -128 -143 -157 -168 -174 -184 -199 -208 -223 -230 -252 -256 -271 -280 -286 -308 -319 -331 -339 -348 -355 -372 -383 -393 -406 -420 -422 -434 -448 0
-4 -18 -28 -45 -48 -67 -76 -80 -97 -112 -116 -134 -143 -150 -169 -177 -184 -205 -209 -223 -236 -243 -256 -273 -277 -291 -308 -312 -324 -342 -344 -361 -373 -384 -389 -407 -417 -431 -442 -454 0
-4 -17 -23 -39 -56 -63 -78 -90 -99 -105 -122 -128 -138 -154 -167 -178 -184 -196 -211 -229 -238 -247 -253 -274 -277 -286 -300 -316 -328 -340 -348 -364 -373 -378 -392 -399 -420 -429 -443 -448 0
-4 -18 -24 -45 -48 -62 -78 -80 -96 -111 -122 -135 -139 -153 -165 -180 -184 -199 -213 -229 -234 -243 -253 -274 -283 -291 -299 -313 -329 -333 -351 -358 -365 -387 -396 -408 -415 -425 -433 -450 0
-4 -16 -23 -40 -53 -67 -75 -89 -93 -112 -116 -128 -143 -159 -168 -176 -184 -195 -212 -227 -240 -246 -257 -268 -276 -290 -299 -314 -322 -340 -353 -360 -374 -387 -394 -406 -420 -426 -443 -453 0
-4 -21 -31 -40 -48 -62 -69 -87 -96 -114 -116 -127 -145 -156 -163 -182 -184 -195 -209 -226 -237 -243 -261 -271 -279 -297 -299 -314 -329 -339 -346 -354 -374 -385 -390 -408 -412 -432 -435 -445 0
-4 -16 -25 -42 -46 -68 -77 -86 -101 -110 -115 -128 -145 -153 -164 -181 -188 -204 -208 -218 -237 -252 -261 -264 -281 -297 -307 -310 -329 -342 -350 -360 -369 -386 -391 -402 -418 -431 -433 -447 0
-4 -13 -31 -44 -55 -68 -73 -80 -94 -104 -120 -131 -144 -156 -167 -182 -187 -199 -210 -218 -239 -245 -258 -264 -283 -289 -307 -312 -329 -332 -353 -363 -368 -387 -392 -410 -417 -425 -438 -445 0
-4 -20 -30 -36 -50 -67 -69 -89 -96 -105 -125 -132 -138 -154 -168 -182 -183 -201 -210 -218 -235 -249 -259 -266 -277 -295 -302 -316 -323 -337 -353 -356 -371 -380 -388 -399 -418 -430 -442 -451 0
-4 -21 -24 -42 -50 -66 -73 -89 -98 -114 -117 -126 -144 -150 -167 -182 -186 -201 -210 -218 -235 -249 -261 -266 -278 -293 -304 -320 -327 -340 -347 -357 -369 -387 -388 -400 -418 -426 -438 -450 0
-4 -19 -34 -41 -53 -60 -70 -83 -91 -113 -120 -131 -138 -158 -166 -174 -193 -206 -208 -218 -233 -246 -263 -264 -280 -291 -308 -319 -326 -334 -345 -355 -368 -381 -393 -408 -415 -428 -435 -456 0
-4 -18 -28 -40 -47 -65 -79 -88 -94 -112 -115 -135 -143 -149 -165 -181 -183 -204 -209 -218 -234 -243 -260 -268 -283 -288 -303 -311 -329 -340 -352 -362 -366 -376 -398 -406 -421 -427 -444 -445 0
-4 -19 -23 -36 -56 -61 -78 -88 -98 -108 -116 -127 -146 -155 -169 -176 -185 -198 -212 -222 -231 -241 -262 -271 -280 -287 -302 -320 -331 -340 -345 -362 -365 -378 -395 -399 -421 -426 -441 -448 0
-4 -16 -34 -36 -52 -64 -78 -86 -101 -109 -122 -127 -137 -149 -168 -177 -183 -203 -209 -227 -231 -243 -255 -272 -279 -296 -299 -316 -322 -340 -348 -358 -372 -377 -394 -406 -411 -427 -444 -452 0
-4 -20 -29 -36 -46 -61 -77 -85 -102 -111 -115 -127 -146 -155 -168 -178 -185 -199 -207 -225 -231 -252 -255 -271 -279 -297 -307 -313 -327 -342 -343 -355 -367 -386 -390 -404 -416 -428 -441 -448 0
-4 -19 -28 -45 -52 -61 -69 -81 -100 -105 -117 -133 -146 -154 -166 -172 -192 -204 -216 -223 -231 -241 -257 -274 -277 -291 -308 -312 -331 -332 -348 -362 -366 -377 -391 -409 -419 -426 -442 -454 0
-4 -16 -24 -42 -47 -62 -79 -90 -91 -106 -122 -132 -145 -153 -164 -178 -193 -205 -215 -219 -231 -249 -259 -264 -285 -286 -308 -315 -331 -333 -351 -358 -371 -383 -391 -403 -421 -430 -444 -445 0
-4 -16 -29 -42 -47 -68 -77 -81 -97 -113 -117 -132 -145 -148 -164 -178 -188 -206 -208 -221 -231 -250 -259 -264 -285 -297 -304 -310 -325 -332 -345 -362 -368 -387 -391 -410 -411 -424 -442 -451 0
-4 -17 -24 -42 -54 -57 -70 -85 -98 -112 -124 -128 -144 -159 -170 -175 -186 -203 -213 -219 -231 -252 -257 -269 -282 -296 -304 -320 -321 -340 -345 -357 -372 -385 -396 -400 -415 -426 -435 -450 0
-4 -16 -32 -36 -56 -63 -76 -86 -101 -103 -120 -134 -138 -150 -167 -178 -193 -206 -208 -222 -234 -242 -257 -268 -285 -289 -308 -311 -323 -335 -344 -360 -369 -384 -394 -404 -416 -430 -438 -456 0
-4 -22 -31 -35 -47 -66 -73 -81 -99 -110 -117 -131 -146 -153 -166 -182 -190 -199 -210 -225 -239 -242 -261 -266 -282 -293 -307 -312 -322 -337 -346 -354 -369 -387 -394 -401 -420 -426 -434 -455 0
-4 -13 -34 -44 -48 -61 -75 -81 -99 -103 -124 -130 -143 -157 -164 -175 -193 -206 -207 -227 -240 -242 -260 -268 -280 -293 -298 -314 -330 -340 -349 -356 -375 -383 -394 -404 -419 -425 -442 -449 0
-4 -21 -31 -44 -50 -57 -73 -86 -92 -114 -117 -133 -144 -150 -167 -174 -187 -206 -210 -226 -240 -242 -257 -266 -278 -287 -298 -320 -328 -338 -348 -363 -372 -387 -392 -407 -412 -422 -437 -445 0
-4 -20 -33 -45 -54 -57 -74 -81 -96 -110 -117 -133 -143 -150 -168 -178 -187 -200 -211 -219 -240 -242 -259 -269 -277 -289 -298 -319 -324 -339 -345 -359 -375 -383 -395 -399 -416 -432 -435 -449 0
-4 -16 -24 -43 -56 -64 -74 -82 -98 -112 -117 -132 -146 -148 -164 -179 -186 -195 -217 -219 -237 -242 -257 -272 -281 -290 -308 -316 -323 -332 -345 -362 -366 -376 -397 -410 -418 -431 -435 -450 0
-4 -17 -30 -45 -46 -67 -71 -86 -96 -112 -115 -127 -144 -157 -168 -179 -194 -198 -210 -222 -230 -242 -261 -270 -276 -287 -304 -310 -330 -335 -348 -363 -375 -379 -390 -402 -421 -426 -439 -447 0
-4 -13 -31 -41 -50 -66 -69 -88 -101 -108 -121 -128 -138 -159 -163 -181 -190 -201 -217 -225 -237 -242 -253 -269 -281 -290 -299 -316 -323 -336 -353 -360 -366 -379 -388 -405 -412 -424 -433 -454 0
-4 -17 -29 -42 -56 -66 -71 -81 -101 -108 -122 -132 -139 -148 -165 -178 -190 -206 -217 -219 -237 -242 -253 -269 -277 -291 -299 -309 -323 -336 -344 -360 -373 -383 -388 -399 -414 -430 -439 -456 0
-4 -13 -28 -36 -50 -57 -77 -81 -101 -110 -125 -133 -145 -154 -163 -178 -183 -206 -213 -224 -237 -251 -257 -265 -285 -295 -302 -320 -323 -342 -344 -360 -367 -385 -396 -399 -418 -430 -442 -449 0
-4 -21 -30 -36 -56 -63 -73 -86 -92 -109 -115 -134 -145 -150 -163 -177 -192 -205 -208 -222 -235 -248 -259 -265 -285 -288 -308 -314 -323 -334 -352 -359 -366 -385 -389 -402 -416 -428 -441 -446 0
-4 -20 -24 -36 -56 -60 -70 -86 -101 -111 -120 -134 -144 -148 -163 -178 -188 -205 -213 -222 -240 -243 -253 -265 -279 -286 -308 -316 -325 -333 -348 -360 -373 -385 -397 -402 -420 -432 -436 -451 0
-4 -20 -29 -45 -48 -65 -73 -88 -92 -113 -120 -126 -144 -150 -163 -178 -188 -205 -216 -224 -240 -243 -259 -265 -278 -289 -308 -311 -331 -339 -344 -362 -368 -382 -391 -402 -421 -428 -442 -454 0
-4 -19 -24 -36 -55 -62 -73 -88 -91 -105 -120 -132 -145 -159 -164 -182 -186 -202 -216 -226 -233 -241 -259 -265 -276 -288 -308 -314 -323 -339 -350 -359 -374 -385 -395 -406 -421 -430 -439 -451 0
-4 -16 -24 -36 -52 -68 -77 -90 -98 -112 -120 -126 -139 -156 -164 -181 -186 -196 -217 -226 -236 -241 -260 -265 -283 -291 -307 -312 -323 -337 -344 -361 -374 -382 -395 -406 -413 -423 -444 -453 0
-4 -18 -23 -44 -46 -64 -74 -82 -94 -108 -122 -135 -143 -159 -167 -174 -194 -199 -207 -223 -234 -243 -257 -265 -284 -294 -303 -313 -321 -334 -352 -356 -371 -378 -397 -400 -421 -425 -437 -445 0
-4 -13 -33 -39 -56 -66 -69 -83 -92 -111 -121 -134 -144 -153 -168 -182 -188 -200 -212 -222 -236 -248 -253 -265 -283 -291 -302 -320 -330 -337 -343 -361 -367 -377 -388 -400 -413 -426 -440 -455 0
-4 -16 -32 -36 -54 -68 -75 -81 -98 -103 -120 -133 -146 -150 -166 -174 -194 -202 -209 -229 -236 -243 -260 -272 -275 -296 -305 -312 -322 -338 -350 -357 -369 -384 -393 -408 -413 -422 -436 -456 0
-4 -20 -30 -40 -52 -58 -70 -90 -96 -106 -125 -126 -143 -157 -170 -174 -187 -199 -214 -227 -233 -252 -257 -266 -275 -288 -302 -319 -331 -334 -344 -354 -371 -376 -390 -399 -416 -430 -443 -446 0
-4 -21 -30 -41 -56 -60 -74 -89 -92 -106 -123 -126 -143 -150 -169 -179 -191 -203 -208 -221 -234 -247 -257 -269 -275 -296 -302 -311 -325 -338 -346 -360 -367 -376 -393 -402 -412 -425 -434 -456 0
-4 -21 -31 -39 -46 -61 -79 -86 -100 -105 -117 -126 -144 -156 -167 -172 -183 -198 -210 -222 -235 -248 -263 -272 -275 -289 -305 -310 -322 -339 -343 -363 -367 -386 -391 -403 -415 -422 -433 -453 0
-5 -17 -25 -43 -46 -68 -71 -80 -101 -111 -123 -132 -141 -154 -170 -175 -188 -205 -215 -226 -232 -242 -259 -274 -276 -287 -304 -316 -329 -342 -350 -364 -373 -376 -393 -402 -421 -425 -444 -453 0
-5 -17 -24 -44 -51 -57 -71 -87 -95 -111 -122 -135 -147 -150 -165 -172 -193 -203 -213 -220 -238 -246 -260 -274 -275 -292 -298 -317 -324 -338 -345 -359 -374 -378 -398 -410 -418 -423 -437 -449 0
-5 -17 -33 -43 -48 -57 -72 -86 -92 -105 -123 -133 -144 -159 -160 -172 -188 -200 -216 -226 -232 -252 -259 -269 -282 -297 -302 -317 -328 -332 -350 -355 -367 -377 -398 -403 -414 -426 -441 -445 0
-5 -17 -33 -45 -54 -57 -71 -81 -98 -110 -123 -133 -141 -150 -167 -178 -192 -200 -216 -219 -232 -242 -263 -269 -280 -292 -303 -315 -322 -335 -350 -357 -375 -379 -398 -401 -415 -426 -443 -448 0
-5 -17 -24 -37 -47 -57 -77 -90 -99 -110 -117 -136 -145 -154 -161 -182 -192 -204 -211 -223 -239 -250 -258 -264 -276 -290 -307 -312 -323 -340 -353 -363 -371 -383 -391 -403 -416 -430 -434 -454 0
-5 -17 -25 -44 -53 -67 -69 -81 -94 -110 -118 -134 -143 -159 -170 -178 -184 -202 -217 -222 -233 -250 -259 -267 -276 -294 -303 -313 -322 -333 -352 -359 -371 -384 -396 -401 -412 -426 -434 -447 0
-5 -17 -25 -37 -56 -66 -69 -87 -99 -113 -121 -134 -140 -149 -162 -175 -188 -204 -208 -226 -237 -241 -261 -265 -284 -287 -303 -318 -331 -341 -346 -360 -366 -384 -394 -401 -412 -426 -440 -446 0
-5 -17 -32 -35 -48 -58 -70 -87 -102 -113 -118 -134 -143 -156 -170 -178 -192 -205 -210 -219 -231 -244 -259 -274 -278 -291 -308 -313 -322 -339 -343 -355 -374 -376 -394 -408 -416 -426 -438 -446 0
-5 -13 -31 -40 -46 -66 -76 -83 -101 -110 -115 -129 -143 -159 -170 -173 -194 -202 -214 -222 -233 -248 -258 -271 -275 -290 -303 -309 -325 -333 -349 -363 -367 -380 -396 -400 -413 -430 -439 -450 0
-5 -12 -32 -40 -53 -59 -70 -89 -102 -106 -121 -135 -144 -148 -165 -176 -189 -195 -209 -227 -238 -250 -254 -266 -285 -286 -304 -317 -326 -334 -347 -364 -368 -376 -392 -409 -413 -427 -433 -448 0
-5 -21 -25 -40 -52 -65 -79 -80 -99 -106 -123 -131 -141 -149 -165 -172 -189 -204 -207 -222 -234 -250 -254 -265 -283 -293 -306 -313 -322 -332 -348 -358 -370 -385 -396 -408 -415 -426 -442 -450 0
-5 -18 -30 -40 -48 -65 -79 -90 -98 -112 -115 -127 -141 -149 -161 -180 -193 -201 -210 -219 -236 -241 -261 -270 -278 -287 -306 -319 -328 -332 -346 -358 -370 -382 -397 -400 -417 -429 -437 -449 0
-5 -13 -34 -40 -53 -59 -78 -83 -92 -110 -124 -126 -143 -157 -164 -173 -183 -202 -217 -227 -233 -250 -262 -272 -275 -296 -305 -319 -326 -340 -345 -358 -371 -376 -389 -406 -420 -427 -443 -452 0
-5 -13 -26 -40 -48 -68 -78 -88 -98 -103 -116 -132 -146 -157 -168 -182 -187 -199 -207 -218 -233 -244 -261 -271 -280 -290 -306 -319 -325 -332 -345 -363 -375 -378 -398 -408 -412 -422 -443 -454 0
-5 -14 -24 -40 -54 -57 -78 -86 -101 -111 -118 -136 -139 -155 -168 -172 -183 -201 -209 -226 -240 -249 -259 -265 -283 -295 -298 -317 -324 -338 -350 -359 -374 -382 -392 -401 -411 -424 -433 -452 0
-5 -19 -24 -36 -50 -62 -78 -88 -101 -105 -118 -136 -144 -148 -165 -179 -185 -195 -217 -224 -231 -244 -261 -269 -281 -295 -300 -316 -326 -333 -353 -360 -367 -383 -388 -407 -420 -426 -440 -445 0
-5 -12 -26 -41 -50 -62 -78 -90 -102 -111 -117 -126 -139 -157 -165 -173 -191 -195 -215 -227 -234 -246 -262 -274 -276 -292 -299 -311 -325 -340 -348 -361 -374 -377 -390 -408 -418 -422 -441 -447 0
-5 -13 -31 -44 -50 -68 -72 -80 -94 -104 -121 -132 -146 -156 -162 -181 -187 -200 -215 -218 -235 -252 -259 -264 -282 -296 -307 -320 -324 -337 -345 -361 -368 -378 -395 -409 -417 -432 -444 -445 0
-5 -19 -29 -37 -50 -57 -71 -87 -92 -105 -124 -133 -147 -158 -169 -171 -193 -203 -211 -223 -231 -243 -254 -269 -279 -288 -301 -309 -330 -342 -353 -355 -370 -384 -398 -400 -412 -427 -440 -454 0
-5 -13 -31 -44 -50 -58 -79 -80 -94 -111 -124 -129 -143 -155 -166 -173 -194 -202 -213 -228 -237 -246 -253 -273 -275 -295 -303 -312 -329 -333 -348 -363 -371 -378 -398 -400 -421 -426 -443 -451 0
-5 -18 -33 -43 -50 -58 -72 -88 -91 -105 -117 -131 -145 -159 -160 -179 -188 -200 -209 -229 -237 -243 -254 -274 -279 -297 -299 -309 -325 -339 -346 -355 -372 -377 -390 -410 -417 -431 -434 -445 0
-5 -21 -26 -42 -46 -61 -79 -83 -98 -105 -115 -134 -144 -158 -165 -180 -194 -201 -207 -226 -232 -243 -261 -265 -278 -289 -308 -318 -322 -333 -343 -361 -369 -382 -388 -407 -421 -427 -433 -456 0
-5 -13 -31 -45 -53 -61 -71 -80 -95 -110 -124 -131 -145 -149 -166 -175 -192 -195 -213 -220 -231 -250 -262 -270 -278 -296 -304 -317 -330 -336 -347 -357 -365 -378 -394 -409 -412 -427 -439 -449 0
-5 -12 -33 -36 -54 -61 -69 -88 -100 -110 -118 -136 -143 -150 -166 -175 -188 -197 -213 -229 -240 -243 -260 -269 -283 -289 -306 -320 -329 -334 -346 -356 -373 -385 -389 -401 -417 -431 -436 -445 0
-5 -18 -24 -36 -55 -61 -77 -82 -91 -111 -125 -129 -145 -154 -168 -182 -185 -195 -215 -223 -232 -242 -257 -271 -279 -286 -304 -314 -329 -340 -352 -362 -375 -378 -395 -409 -421 -427 -439 -451 0
-5 -14 -33 -41 -46 -64 -74 -80 -100 -105 -121 -134 -147 -151 -164 -175 -193 -196 -207 -226 -238 -252 -257 -271 -282 -295 -308 -317 -324 -337 -349 -355 -368 -383 -397 -400 -415 -432 -442 -450 0
-5 -18 -30 -37 -56 -58 -74 -89 -93 -112 -115 -135 -140 -154 -165 -180 -190 -195 -208 -224 -240 -251 -254 -265 -283 -294 -300 -311 -330 -333 -347 -356 -370 -386 -390 -400 -421 -428 -435 -453 0
-5 -20 -30 -45 -51 -67 -74 -83 -91 -105 -122 -132 -138 -151 -166 -172 -194 -204 -216 -220 -233 -241 -257 -269 -282 -295 -298 -312 -326 -336 -349 -358 -375 -380 -394 -408 -421 -429 -442 -456 0
-5 -14 -32 -45 -53 -57 -74 -90 -98 -105 -122 -132 -138 -151 -169 -179 -183 -199 -214 -223 -235 -248 -262 -266 -280 -290 -301 -316 -321 -333 -349 -357 -375 -379 -396 -401 -412 -424 -436 -447 0
-5 -14 -33 -45 -54 -63 -74 -88 -98 -103 -123 -127 -141 -149 -167 -178 -185 -200 -216 -228 -230 -242 -256 -269 -280 -295 -306 -315 -322 -339 -347 -357 -370 -379 -394 -406 -419 -426 -434 -448 0
-5 -14 -23 -43 -51 -59 -74 -90 -92 -110 -125 -133 -139 -158 -166 -171 -184 -206 -214 -219 -233 -246 -262 -274 -280 -295 -305 -316 -325 -340 -352 -359 -368 -378 -396 -408 -415 -426 -435 -446 0
-5 -19 -32 -35 -48 -68 -74 -86 -95 -111 -124 -132 -138 -150 -169 -176 -189 -204 -209 -223 -231 -244 -262 -266 -280 -287 -298 -318 -326 -335 -347 -364 -371 -378 -396 -404 -411 -425 -438 -446 0
-5 -21 -31 -36 -51 -68 -75 -82 -97 -112 -115 -133 -141 -149 -166 -173 -188 -206 -214 -222 -231 -247 -259 -264 -276 -287 -304 -317 -325 -338 -345 -363 -369 -378 -398 -410 -411 -426 -439 -454 0
-5 -12 -33 -35 -53 -59 -78 -83 -97 -110 -122 -127 -143 -159 -168 -178 -187 -200 -213 -225 -230 -243 -254 -269 -285 -286 -302 -320 -324 -334 -347 -360 -370 -381 -388 -403 -414 -432 -435 -449 0
-5 -18 -26 -42 -46 -65 -78 -82 -97 -114 -124 -128 -137 -154 -165 -171 -190 -197 -216 -219 -238 -248 -260 -265 -285 -289 -308 -310 -321 -335 -349 -361 -374 -380 -389 -403 -415 -422 -440 -447 0
-5 -12 -32 -37 -54 -62 -71 -80 -97 -105 -125 -135 -144 -156 -170 -172 -194 -206 -209 -223 -234 -250 -259 -267 -281 -291 -308 -311 -329 -332 -349 -356 -374 -384 -391 -408 -418 -424 -442 -453 0
-5 -18 -26 -45 -47 -67 -71 -89 -97 -103 -123 -133 -138 -154 -161 -181 -188 -196 -213 -223 -234 -250 -253 -272 -285 -297 -303 -310 -330 -335 -349 -358 -372 -384 -393 -408 -412 -423 -437 -453 0
-5 -14 -24 -45 -54 -59 -70 -80 -101 -109 -123 -133 -143 -155 -164 -177 -192 -203 -207 -227 -237 -242 -263 -273 -276 -291 -305 -320 -330 -336 -348 -363 -366 -379 -390 -406 -419 -426 -443 -448 0
-5 -19 -26 -42 -56 -63 -71 -86 -92 -109 -123 -126 -146 -150 -164 -182 -192 -200 -216 -219 -232 -242 -259 -270 -281 -288 -308 -311 -326 -338 -350 -363 -373 -386 -398 -402 -418 -422 -443 -448 0
-5 -19 -33 -35 -53 -59 -79 -87 -92 -109 -123 -128 -143 -150 -166 -175 -184 -202 -215 -219 -232 -246 -262 -271 -285 -288 -301 -311 -328 -338 -344 -362 -375 -385 -398 -401 -413 -427 -443 -448 0
-5 -12 -25 -37 -54 -63 -78 -80 -99 -109 -124 -128 -147 -154 -165 -181 -187 -196 -213 -228 -230 -250 -263 -267 -281 -287 -305 -320 -328 -341 -348 -363 -370 -386 -395 -406 -414 -427 -435 -445 0
-5 -13 -26 -45 -53 -63 -78 -86 -92 -109 -117 -134 -146 -148 -165 -178 -192 -197 -209 -227 -231 -250 -256 -264 -285 -286 -308 -310 -324 -341 -348 -358 -370 -382 -392 -409 -412 -428 -433 -454 0
-5 -19 -25 -36 -55 -59 -79 -88 -91 -109 -123 -132 -138 -154 -169 -179 -193 -201 -210 -225 -231 -241 -254 -266 -281 -287 -302 -319 -321 -338 -353 -355 -371 -380 -395 -407 -412 -427 -436 -446 0
-5 -22 -31 -35 -48 -63 -78 -90 -92 -111 -120 -127 -143 -151 -164 -182 -190 -196 -215 -226 -233 -250 -262 -267 -280 -290 -301 -316 -328 -342 -351 -354 -367 -379 -394 -405 -413 -430 -435 -451 0
-5 -21 -24 -43 -51 -59 -69 -88 -102 -106 -120 -132 -139 -158 -165 -182 -189 -205 -215 -222 -231 -241 -256 -267 -276 -288 -300 -316 -326 -337 -350 -361 -374 -380 -391 -408 -413 -431 -437 -448 0
-5 -18 -24 -37 -51 -57 -71 -89 -93 -112 -120 -133 -146 -159 -160 -180 -190 -199 -210 -225 -234 -243 -254 -274 -284 -294 -300 -309 -325 -338 -346 -356 -366 -380 -390 -410 -414 -431 -433 -454 0
-5 -13 -32 -37 -51 -65 -79 -80 -101 -106 -120 -133 -138 -155 -162 -179 -194 -201 -214 -228 -230 -249 -258 -273 -275 -286 -302 -317 -324 -333 -349 -357 -370 -382 -390 -403 -421 -422 -435 -455 0
-5 -18 -26 -44 -53 -62 -71 -90 -102 -104 -120 -134 -139 -148 -161 -171 -194 -200 -214 -219 -234 -246 -259 -270 -283 -288 -307 -310 -327 -337 -350 -361 -365 -383 -397 -401 -417 -426 -440 -447 0
-5 -12 -29 -37 -54 -63 -79 -90 -94 -112 -120 -133 -139 -148 -169 -179 -187 -199 -210 -225 -235 -243 -254 -264 -282 -288 -305 -309 -322 -339 -347 -362 -368 -378 -396 -406 -414 -422 -433 -450 0
-5 -20 -25 -41 -54 -68 -72 -88 -94 -103 -120 -131 -146 -149 -160 -181 -191 -199 -210 -226 -232 -243 -256 -271 -280 -296 -303 -315 -322 -341 -347 -357 -372 -377 -393 -410 -420 -428 -441 -449 0
-5 -22 -25 -43 -55 -59 -69 -83 -92 -110 -120 -133 -145 -154 -169 -179 -188 -200 -212 -229 -237 -242 -254 -266 -279 -296 -302 -319 -325 -334 -343 -360 -372 -377 -388 -400 -416 -431 -435 -455 0
-5 -14 -24 -41 -56 -59 -78 -88 -101 -105 -120 -134 -137 -154 -160 -180 -192 -196 -211 -226 -234 -247 -263 -271 -284 -291 -308 -309 -323 -337 -344 -360 -369 -383 -393 -407 -414 -428 -444 -456 0
-6 -12 -29 -43 -48 -59 -78 -88 -102 -113 -119 -132 -137 -150 -165 -172 -189 -204 -217 -221 -234 -250 -254 -273 -283 -297 -306 -313 -329 -337 -352 -356 -370 -376 -390 -404 -412 -431 -434 -452 0
-6 -12 -26 -35 -52 -66 -71 -89 -101 -111 -121 -127 -147 -152 -165 -180 -183 -206 -217 -226 -234 -244 -259 -273 -277 -289 -304 -313 -326 -332 -351 -364 -372 -384 -388 -401 -415 -426 -438 -452 0
-6 -12 -34 -44 -51 -65 -69 -83 -95 -110 -119 -127 -146 -156 -166 -174 -190 -197 -208 -223 -230 -250 -263 -272 -284 -287 -308 -318 -324 -341 -345 -363 -370 -377 -388 -406 -414 -424 -435 -451 0
-6 -12 -33 -41 -54 -57 -70 -84 -98 -106 -118 -133 -147 -158 -166 -172 -183 -205 -210 -220 -238 -252 -257 -273 -277 -289 -305 -312 -321 -336 -351 -364 -369 -384 -393 -399 -414 -422 -433 -452 0
-6 -12 -31 -38 -52 -59 -76 -83 -98 -114 -123 -127 -146 -148 -169 -172 -183 -204 -212 -223 -237 -248 -254 -268 -280 -297 -301 -319 -321 -338 -345 -361 -369 -385 -395 -402 -414 -432 -436 -446 0
-6 -12 -31 -35 -52 -59 -78 -84 -101 -114 -117 -133 -143 -150 -169 -174 -187 -202 -212 -227 -237 -247 -254 -266 -284 -292 -299 -320 -327 -334 -346 -359 -374 -376 -390 -409 -419 -425 -439 -453 0
-6 -13 -27 -43 -48 -68 -75 -90 -98 -103 -116 -129 -145 -156 -167 -182 -186 -195 -210 -220 -239 -248 -261 -265 -281 -295 -299 -317 -323 -339 -350 -363 -375 -379 -390 -408 -412 -432 -435 -449 0
-6 -13 -31 -38 -56 -62 -69 -87 -99 -104 -117 -135 -141 -158 -161 -180 -186 -203 -216 -228 -233 -248 -263 -264 -280 -289 -307 -320 -323 -335 -343 -361 -369 -383 -391 -408 -421 -425 -444 -453 0
-6 -13 -23 -38 -56 -65 -72 -88 -92 -112 -117 -135 -143 -155 -167 -176 -184 -206 -212 -220 -230 -251 -257 -268 -285 -288 -302 -320 -330 -342 -349 -361 -365 -387 -395 -402 -421 -430 -437 -447 0
-6 -13 -23 -38 -46 -68 -76 -89 -95 -113 -121 -128 -145 -155 -169 -179 -184 -197 -211 -224 -235 -250 -255 -264 -284 -295 -300 -313 -326 -335 -353 -363 -371 -387 -396 -399 -415 -428 -439 -448 0
-6 -13 -33 -37 -51 -57 -78 -88 -102 -110 -119 -134 -140 -149 -168 -178 -184 -198 -210 -224 -238 -244 -253 -271 -280 -292 -306 -316 -326 -333 -345 -358 -368 -383 -397 -401 -413 -426 -443 -454 0
-6 -14 -27 -41 -55 -58 -77 -86 -100 -111 -115 -129 -139 -159 -166 -172 -183 -204 -210 -218 -240 -249 -260 -273 -277 -296 -305 -318 -327 -332 -347 -359 -371 -386 -393 -400 -419 -428 -437 -449 0
-6 -14 -24 -38 -56 -66 -76 -90 -95 -110 -115 -134 -143 -150 -167 -178 -184 -198 -208 -223 -234 -251 -263 -272 -280 -296 -308 -318 -327 -337 -351 -359 -371 -384 -398 -407 -411 -430 -443 -455 0
-6 -14 -30 -38 -54 -58 -79 -82 -101 -110 -123 -129 -143 -148 -166 -175 -192 -205 -211 -219 -240 -242 -253 -271 -277 -291 -308 -309 -324 -333 -347 -360 -373 -386 -397 -407 -414 -431 -436 -454 0
-6 -14 -27 -35 -46 -68 -76 -90 -95 -110 -122 -131 -145 -150 -168 -178 -186 -202 -210 -219 -238 -252 -259 -265 -279 -297 -306 -315 -328 -337 -351 -355 -374 -378 -397 -403 -411 -430 -443 -452 0
-6 -14 -23 -44 -52 -58 -76 -89 -101 -107 -121 -136 -139 -151 -170 -179 -187 -206 -208 -223 -237 -252 -257 -268 -281 -295 -300 -317 -326 -338 -346 -360 -374 -378 -392 -402 -414 -429 -433 -446 0
-6 -14 -31 -41 -55 -58 -79 -88 -95 -112 -119 -126 -143 -150 -166 -175 -191 -196 -211 -228 -236 -252 -262 -268 -275 -293 -304 -310 -324 -334 -351 -358 -370 -381 -390 -410 -414 -422 -435 -454 0
-6 -14 -31 -45 -51 -58 -76 -90 -95 -112 -119 -126 -144 -150 -167 -178 -192 -198 -208 -223 -239 -252 -257 -265 -279 -297 -304 -315 -331 -338 -344 -358 -373 -377 -391 -402 -413 -425 -437 -456 0
-6 -14 -31 -45 -46 -64 -72 -90 -93 -107 -123 -131 -144 -148 -169 -172 -188 -200 -207 -227 -234 -250 -255 -265 -281 -295 -303 -315 -322 -339 -353 -355 -372 -377 -394 -410 -413 -426 -440 -450 0
-6 -18 -31 -36 -51 -68 -70 -90 -95 -112 -115 -133 -142 -149 -160 -173 -188 -205 -213 -219 -233 -245 -262 -272 -279 -295 -304 -312 -329 -342 -347 -355 -370 -377 -398 -410 -418 -429 -441 -445 0
-6 -18 -33 -43 -48 -68 -76 -86 -91 -105 -123 -129 -142 -149 -165 -179 -184 -195 -214 -219 -232 -245 -261 -273 -279 -295 -301 -312 -324 -333 -349 -361 -370 -377 -397 -403 -421 -431 -443 -455 0
-6 -18 -32 -36 -55 -62 -69 -88 -95 -105 -125 -134 -138 -152 -160 -173 -187 -200 -216 -228 -240 -245 -259 -270 -282 -287 -304 -318 -321 -337 -344 -361 -375 -378 -389 -405 -421 -424 -442 -455 0
-6 -18 -31 -35 -46 -64 -72 -90 -94 -107 -125 -127 -143 -158 -165 -180 -192 -201 -208 -221 -240 -251 -253 -267 -275 -288 -298 -311 -325 -332 -351 -361 -370 -382 -390 -405 -419 -425 -436 -452 0
-6 -18 -30 -43 -47 -68 -72 -80 -94 -113 -116 -131 -142 -158 -165 -176 -193 -197 -208 -221 -237 -241 -263 -272 -275 -295 -299 -313 -331 -337 -350 -357 -366 -384 -389 -403 -415 -431 -434 -456 0
-6 -19 -25 -44 -49 -62 -76 -80 -95 -114 -117 -132 -146 -149 -160 -173 -190 -200 -216 -228 -234 -249 -255 -266 -281 -287 -302 -318 -331 -333 -351 -354 -370 -379 -394 -404 -412 -431 -435 -446 0
-6 -19 -33 -36 -56 -59 -70 -87 -92 -112 -115 -133 -143 -152 -166 -182 -193 -195 -211 -223 -232 -242 -259 -268 -283 -291 -308 -314 -324 -334 -351 -359 -365 -384 -396 -409 -416 -426 -439 -453 0
-6 -19 -29 -37 -46 -64 -78 -84 -102 -110 -117 -126 -146 -150 -169 -176 -189 -200 -216 -219 -231 -245 -254 -271 -280 -294 -298 -314 -322 -335 -352 -357 -373 -378 -389 -409 -411 -432 -438 -447 0
-6 -20 -26 -35 -46 -68 -75 -84 -99 -105 -121 -128 -146 -157 -161 -174 -187 -200 -208 -229 -237 -241 -263 -271 -280 -295 -299 -317 -326 -334 -353 -363 -366 -385 -395 -409 -415 -428 -439 -448 0
-6 -20 -23 -42 -47 -68 -72 -86 -101 -106 -116 -132 -142 -157 -168 -175 -194 -201 -208 -218 -230 -244 -255 -271 -280 -292 -305 -320 -323 -335 -347 -354 -374 -380 -391 -403 -421 -430 -444 -456 0
-6 -20 -30 -38 -51 -63 -71 -90 -95 -104 -125 -134 -139 -148 -160 -172 -194 -204 -214 -224 -235 -247 -254 -270 -277 -295 -298 -314 -327 -335 -346 -359 -371 -382 -390 -409 -419 -428 -442 -456 0
-6 -20 -27 -36 -51 -59 -79 -88 -92 -110 -115 -127 -146 -157 -165 -171 -190 -198 -216 -224 -232 -252 -260 -266 -275 -295 -302 -314 -329 -335 -352 -355 -368 -378 -388 -408 -418 -426 -437 -446 0
-6 -20 -34 -35 -46 -64 -70 -90 -94 -107 -122 -131 -144 -151 -167 -178 -186 -200 -211 -229 -240 -243 -253 -267 -279 -296 -303 -312 -325 -339 -351 -364 -369 -382 -397 -409 -413 -425 -439 -456 0
-6 -21 -25 -38 -56 -58 -76 -80 -94 -110 -123 -131 -141 -157 -160 -175 -191 -204 -217 -224 -232 -243 -261 -270 -277 -293 -300 -314 -324 -340 -353 -354 -371 -382 -397 -405 -419 -432 -443 -450 0
-6 -21 -27 -42 -51 -63 -79 -82 -100 -106 -118 -126 -138 -157 -169 -175 -184 -201 -211 -219 -236 -250 -253 -267 -277 -294 -301 -310 -329 -332 -349 -357 -367 -378 -389 -403 -417 -427 -435 -456 0
-6 -21 -23 -36 -51 -66 -70 -89 -92 -114 -119 -133 -144 -151 -169 -178 -185 -195 -211 -223 -232 -250 -259 -268 -279 -294 -301 -316 -326 -342 -349 -354 -367 -387 -396 -406 -418 -429 -441 -448 0
-6 -22 -26 -42 -51 -58 -70 -89 -100 -107 -117 -132 -146 -148 -161 -182 -191 -204 -210 -224 -238 -243 -257 -268 -281 -291 -307 -312 -326 -334 -346 -354 -372 -382 -393 -410 -419 -424 -435 -445 0
-6 -22 -30 -36 -46 -63 -78 -86 -93 -113 -119 -134 -137 -151 -163 -181 -191 -196 -212 -225 -238 -248 -254 -271 -285 -296 -303 -314 -324 -335 -349 -359 -368 -380 -390 -406 -411 -432 -438 -453 0
-6 -22 -32 -35 -55 -62 -72 -82 -94 -110 -116 -134 -142 -156 -163 -172 -184 -206 -212 -224 -240 -244 -259 -273 -282 -286 -305 -313 -331 -333 -350 -358 -371 -384 -388 -401 -420 -426 -438 -454 0
-6 -22 -24 -36 -49 -63 -78 -86 -93 -113 -118 -133 -137 -157 -161 -179 -185 -205 -210 -225 -238 -248 -255 -274 -284 -296 -300 -313 -328 -332 -347 -359 -367 -383 -393 -407 -411 -426 -439 -446 0
-6 -22 -26 -35 -46 -64 -70 -90 -98 -112 -117 -132 -142 -157 -167 -173 -187 -198 -210 -218 -239 -249 -261 -266 -285 -295 -305 -315 -325 -335 -349 -363 -366 -385 -397 -402 -416 -425 -437 -452 0
-6 -22 -26 -35 -52 -58 -77 -84 -99 -113 -121 -127 -140 -158 -163 -176 -192 -196 -212 -225 -237 -242 -254 -273 -285 -296 -302 -312 -325 -334 -346 -361 -373 -378 -395 -408 -419 -424 -436 -454 0
-7 -15 -24 -36 -55 -64 -69 -89 -100 -105 -118 -130 -144 -159 -160 -174 -187 -202 -208 -229 -235 -244 -260 -271 -285 -290 -303 -310 -321 -339 -353 -363 -367 -383 -392 -408 -418 -428 -442 -450 0
-7 -21 -26 -41 -46 -65 -69 -84 -99 -108 -123 -128 -147 -150 -161 -174 -185 -203 -214 -222 -238 -248 -263 -271 -280 -297 -302 -316 -328 -335 -352 -361 -366 -383 -388 -401 -412 -425 -440 -445 0
-7 -19 -25 -37 -55 -60 -69 -87 -99 -107 -123 -128 -147 -149 -162 -174 -189 -201 -213 -229 -230 -249 -261 -265 -276 -287 -307 -315 -324 -338 -349 -355 -374 -380 -394 -408 -412 -425 -434 -450 0
-7 -14 -27 -41 -47 -66 -72 -81 -96 -113 -115 -134 -147 -156 -164 -174 -189 -206 -208 -229 -236 -241 -263 -265 -282 -297 -298 -317 -330 -332 -352 -357 -371 -386 -388 -410 -413 -427 -434 -455 0
-7 -18 -23 -44 -46 -64 -71 -85 -102 -107 -122 -127 -146 -151 -162 -174 -183 -201 -214 -219 -238 -252 -259 -270 -284 -288 -306 -319 -327 -332 -352 -364 -368 -380 -397 -402 -418 -429 -436 -447 0
-7 -12 -25 -39 -54 -57 -72 -88 -101 -110 -119 -128 -145 -159 -166 -174 -190 -205 -209 -220 -230 -243 -263 -270 -284 -297 -302 -309 -324 -339 -350 -363 -368 -383 -388 -401 -414 -430 -434 -452 0
-7 -12 -32 -45 -48 -57 -73 -89 -95 -107 -124 -127 -144 -156 -162 -179 -186 -196 -216 -224 -240 -250 -253 -272 -281 -287 -304 -320 -327 -335 -343 -363 -372 -384 -390 -405 -412 -423 -439 -447 0
-7 -13 -26 -43 -55 -57 -75 -85 -99 -112 -119 -128 -138 -159 -160 -177 -186 -199 -212 -227 -232 -248 -263 -273 -282 -294 -299 -309 -325 -336 -348 -355 -372 -377 -390 -406 -420 -426 -434 -448 0
-7 -12 -33 -42 -47 -65 -78 -85 -91 -110 -117 -129 -142 -159 -167 -176 -186 -197 -209 -225 -239 -241 -258 -266 -285 -290 -301 -320 -328 -335 -346 -354 -368 -379 -392 -401 -419 -431 -444 -451 0
-7 -13 -26 -38 -46 -63 -71 -89 -96 -112 -125 -135 -137 -156 -160 -182 -186 -204 -215 -229 -234 -244 -260 -269 -281 -288 -306 -317 -327 -332 -352 -360 -375 -383 -395 -407 -412 -423 -436 -447 0
-7 -20 -34 -42 -48 -63 -70 -89 -96 -113 -118 -126 -142 -149 -162 -177 -186 -195 -213 -219 -234 -250 -262 -265 -281 -293 -307 -315 -324 -333 -345 -357 -370 -377 -396 -408 -418 -426 -435 -450 0
-7 -13 -26 -44 -52 -57 -76 -90 -102 -106 -119 -130 -138 -157 -164 -177 -186 -197 -215 -227 -230 -250 -263 -273 -275 -288 -301 -310 -329 -340 -351 -354 -369 -385 -389 -403 -421 -428 -443 -452 0
-7 -21 -24 -37 -53 -57 -70 -87 -102 -112 -119 -130 -140 -157 -162 -177 -186 -206 -214 -224 -231 -243 -259 -264 -285 -293 -300 -314 -324 -333 -348 -364 -367 -380 -396 -409 -420 -428 -435 -449 0
-7 -22 -28 -43 -46 -67 -76 -83 -91 -105 -119 -132 -145 -151 -162 -178 -194 -198 -208 -229 -238 -248 -260 -271 -280 -292 -302 -309 -323 -340 -345 -355 -374 -387 -388 -403 -421 -430 -441 -456 0
-7 -22 -26 -38 -47 -65 -75 -81 -94 -112 -115 -130 -146 -156 -168 -173 -187 -198 -217 -228 -235 -246 -259 -265 -276 -291 -307 -314 -322 -333 -352 -356 -372 -386 -397 -402 -415 -432 -439 -453 0
-7 -21 -31 -41 -49 -68 -73 -80 -92 -106 -123 -129 -139 -156 -162 -178 -185 -198 -217 -224 -236 -250 -253 -265 -283 -287 -299 -316 -324 -342 -344 -358 -365 -386 -396 -402 -413 -425 -444 -449 0
-7 -21 -30 -39 -56 -57 -77 -82 -95 -104 -117 -132 -142 -158 -166 -172 -184 -198 -211 -220 -238 -246 -260 -264 -285 -289 -302 -310 -324 -332 -353 -363 -367 -380 -398 -399 -420 -422 -441 -453 0
-7 -13 -30 -39 -54 -67 -79 -83 -91 -107 -123 -132 -141 -149 -166 -173 -184 -198 -213 -225 -237 -251 -253 -272 -278 -289 -302 -318 -330 -342 -349 -357 -365 -378 -398 -408 -411 -432 -440 -453 0
-7 -15 -25 -37 -53 -58 -77 -80 -96 -112 -124 -128 -144 -159 -166 -179 -194 -198 -216 -220 -231 -249 -260 -264 -276 -293 -302 -316 -322 -337 -353 -360 -366 -376 -398 -405 -417 -426 -440 -447 0
-7 -13 -30 -38 -54 -68 -71 -85 -91 -110 -118 -135 -138 -158 -160 -176 -192 -198 -214 -226 -232 -251 -263 -269 -280 -294 -302 -310 -325 -335 -351 -354 -368 -379 -392 -408 -419 -424 -443 -445 0
-7 -12 -26 -35 -48 -67 -77 -85 -102 -107 -123 -127 -144 -156 -167 -178 -192 -198 -208 -220 -239 -241 -256 -269 -285 -286 -303 -311 -325 -341 -352 -360 -375 -382 -392 -403 -417 -422 -441 -446 0
-7 -15 -28 -36 -53 -68 -69 -87 -93 -113 -116 -134 -145 -151 -168 -178 -194 -195 -208 -221 -232 -248 -261 -271 -280 -295 -304 -318 -331 -335 -344 -364 -369 -387 -388 -405 -421 -428 -433 -456 0
-7 -13 -28 -42 -54 -57 -72 -81 -100 -107 -124 -132 -140 -159 -170 -178 -187 -205 -213 -221 -240 -244 -257 -269 -275 -288 -303 -315 -328 -342 -350 -357 -366 -381 -391 -399 -421 -425 -434 -450 0
-7 -20 -28 -37 -46 -63 -79 -80 -94 -111 -122 -135 -142 -150 -168 -172 -194 -199 -213 -221 -235 -248 -254 -265 -280 -290 -304 -316 -330 -342 -344 -356 -375 -381 -395 -400 -411 -432 -433 -453 0
-7 -15 -31 -39 -47 -68 -75 -88 -94 -104 -118 -135 -137 -158 -160 -180 -192 -202 -217 -221 -234 -244 -258 -273 -276 -289 -299 -313 -322 -333 -353 -359 -372 -377 -398 -400 -413 -429 -438 -456 0
-7 -15 -31 -44 -46 -60 -79 -87 -93 -103 -117 -133 -146 -151 -166 -182 -191 -196 -207 -221 -236 -249 -261 -267 -284 -295 -303 -314 -324 -342 -353 -359 -367 -380 -390 -400 -412 -423 -435 -454 0
-7 -18 -26 -43 -49 -60 -79 -80 -92 -105 -124 -133 -140 -158 -169 -171 -185 -201 -214 -221 -232 -246 -257 -273 -275 -291 -299 -317 -331 -336 -344 -358 -373 -387 -389 -406 -418 -432 -439 -447 0
-7 -21 -24 -37 -49 -57 -78 -85 -102 -110 -122 -127 -140 -156 -169 -172 -187 -204 -212 -221 -231 -241 -254 -269 -282 -294 -298 -313 -328 -335 -352 -358 -372 -384 -394 -405 -416 -429 -442 -449 0
-7 -21 -26 -38 -48 -57 -75 -85 -99 -104 -122 -127 -147 -158 -160 -182 -189 -201 -214 -221 -232 -246 -261 -266 -280 -290 -308 -316 -322 -335 -343 -358 -374 -377 -394 -404 -420 -425 -442 -452 0
-7 -15 -25 -37 -52 -58 -76 -83 -100 -108 -125 -126 -146 -157 -160 -181 -191 -206 -208 -221 -240 -244 -256 -271 -280 -297 -306 -315 -331 -333 -351 -358 -372 -382 -391 -401 -412 -428 -433 -453 0
-7 -18 -34 -43 -47 -64 -69 -90 -94 -108 -123 -129 -142 -149 -164 -180 -188 -197 -208 -221 -231 -241 -262 -271 -283 -288 -300 -317 -327 -340 -347 -362 -366 -377 -398 -404 -414 -428 -444 -449 0
-7 -20 -27 -42 -47 -67 -71 -87 -102 -104 -122 -130 -141 -148 -160 -177 -191 -204 -217 -221 -235 -246 -254 -266 -279 -295 -303 -314 -322 -335 -353 -359 -372 -380 -391 -402 -420 -427 -442 -456 0
-7 -14 -27 -42 -52 -67 -69 -85 -93 -112 -116 -129 -147 -157 -164 -177 -183 -205 -208 -228 -240 -245 -259 -273 -275 -293 -300 -311 -321 -333 -347 -359 -373 -386 -391 -409 -421 -424 -438 -447 0
-7 -22 -27 -35 -53 -58 -72 -87 -101 -105 -122 -130 -140 -158 -166 -180 -192 -202 -208 -218 -239 -245 -254 -274 -278 -291 -305 -311 -323 -337 -348 -362 -366 -380 -391 -407 -417 -427 -440 -448 0
-7 -13 -34 -43 -46 -60 -71 -80 -101 -111 -119 -132 -141 -158 -164 -173 -191 -202 -207 -228 -231 -245 -262 -274 -281 -290 -307 -318 -323 -338 -353 -356 -374 -382 -390 -402 -414 -425 -439 -453 0
-7 -15 -32 -45 -47 -60 -69 -83 -101 -111 -116 -132 -141 -157 -161 -179 -187 -205 -216 -228 -230 -243 -255 -274 -280 -297 -299 -315 -325 -339 -343 -363 -372 -383 -391 -410 -417 -430 -434 -448 0
-7 -18 -26 -42 -49 -58 -73 -83 -91 -113 -122 -127 -147 -158 -164 -173 -183 -196 -217 -225 -237 -251 -255 -272 -275 -293 -307 -314 -327 -334 -343 -355 -367 -386 -395 -405 -415 -424 -435 -453 0
-7 -20 -30 -39 -56 -59 -69 -82 -101 -110 -117 -134 -142 -149 -170 -172 -190 -202 -212 -222 -231 -248 -254 -268 -282 -295 -304 -313 -325 -335 -352 -355 -369 -384 -388 -400 -416 -426 -438 -446 0
-7 -12 -27 -39 -47 -68 -76 -87 -95 -112 -115 -135 -140 -157 -169 -171 -190 -205 -209 -219 -239 -244 -257 -268 -279 -290 -299 -318 -328 -337 -353 -362 -374 -379 -398 -410 -413 -428 -439 -454 0
-7 -21 -27 -41 -54 -59 -73 -80 -92 -106 -125 -133 -139 -158 -166 -182 -183 -196 -215 -220 -231 -249 -260 -268 -278 -287 -302 -317 -327 -337 -350 -363 -365 -376 -398 -401 -420 -427 -442 -448 0
-7 -20 -28 -45 -47 -59 -76 -87 -94 -107 -115 -135 -138 -157 -161 -171 -190 -196 -209 -224 -237 -251 -263 -268 -280 -286 -300 -317 -328 -341 -353 -359 -366 -381 -392 -410 -414 -428 -439 -446 0
-7 -15 -28 -35 -48 -67 -75 -89 -100 -104 -118 -133 -139 -159 -161 -177 -189 -204 -208 -229 -240 -248 -260 -264 -277 -286 -298 -317 -324 -338 -350 -363 -369 -383 -395 -408 -411 -426 -437 -447 0
-7 -18 -31 -37 -47 -66 -76 -83 -102 -108 -116 -135 -137 -152 -164 -181 -190 -206 -217 -220 -230 -249 -260 -265 -277 -289 -308 -313 -323 -333 -352 -361 -371 -376 -389 -403 -421 -427 -442 -454 0
-7 -15 -32 -37 -52 -67 -76 -83 -102 -108 -116 -134 -139 -148 -161 -177 -189 -205 -217 -228 -230 -243 -256 -271 -277 -288 -301 -318 -326 -333 -343 -361 -370 -376 -389 -409 -420 -427 -442 -454 0
-7 -20 -26 -39 -47 -63 -79 -89 -91 -107 -124 -128 -138 -156 -167 -181 -185 -201 -209 -218 -235 -244 -263 -264 -277 -289 -307 -310 -328 -335 -346 -361 -375 -378 -395 -408 -412 -426 -439 -445 0
-7 -21 -23 -36 -56 -60 -77 -81 -95 -111 -123 -132 -139 -152 -166 -180 -190 -202 -207 -222 -238 -242 -254 -274 -277 -291 -305 -314 -328 -332 -346 -359 -368 -380 -390 -405 -417 -430 -438 -456 0
-7 -18 -28 -42 -48 -65 -72 -81 -102 -107 -123 -135 -139 -148 -162 -182 -183 -204 -214 -218 -238 -243 -256 -270 -277 -291 -307 -317 -324 -335 -343 -360 -368 -381 -395 -409 -419 -430 -433 -451 0
-7 -12 -30 -36 -49 -66 -73 -87 -102 -113 -118 -127 -137 -157 -164 -180 -193 -196 -213 -220 -230 -249 -263 -272 -277 -286 -308 -314 -324 -339 -350 -359 -368 -384 -392 -402 -418 -429 -442 -451 0
-7 -19 -34 -38 -52 -66 -70 -88 -101 -108 -117 -129 -137 -149 -170 -172 -187 -203 -211 -222 -232 -242 -261 -271 -277 -288 -298 -316 -325 -340 -349 -359 -374 -377 -390 -406 -418 -429 -441 -451 0
-8 -15 -23 -36 -53 -61 -78 -82 -96 -114 -116 -134 -146 -151 -169 -175 -185 -197 -207 -225 -235 -251 -255 -271 -282 -295 -306 -313 -329 -342 -347 -356 -375 -378 -398 -407 -412 -426 -444 -454 0
-8 -15 -28 -40 -46 -64 -70 -90 -95 -112 -125 -128 -137 -157 -160 -177 -185 -197 -214 -227 -233 -245 -262 -272 -285 -286 -298 -317 -322 -336 -352 -359 -375 -381 -389 -409 -413 -429 -442 -447 0
-8 -15 -32 -37 -50 -67 -77 -80 -96 -111 -125 -128 -138 -150 -167 -178 -184 -196 -210 -220 -239 -249 -255 -272 -285 -297 -302 -313 -327 -333 -347 -356 -371 -386 -390 -403 -416 -422 -434 -447 0
-8 -15 -25 -44 -56 -61 -77 -85 -95 -103 -117 -133 -146 -149 -160 -173 -192 -196 -212 -223 -236 -249 -260 -268 -284 -291 -298 -309 -322 -337 -352 -362 -369 -380 -397 -407 -418 -431 -437 -446 0
-8 -15 -30 -36 -55 -68 -78 -85 -91 -104 -120 -134 -141 -150 -169 -175 -190 -197 -208 -225 -235 -251 -255 -265 -282 -288 -306 -311 -325 -342 -351 -364 -371 -380 -392 -406 -413 -422 -444 -455 0
-8 -15 -32 -36 -50 -68 -77 -85 -92 -111 -118 -135 -139 -148 -161 -175 -191 -202 -207 -226 -238 -243 -259 -274 -277 -291 -299 -313 -321 -339 -347 -355 -372 -377 -396 -402 -420 -422 -433 -448 0
-8 -15 -23 -44 -56 -61 -72 -88 -96 -105 -122 -128 -146 -149 -163 -179 -184 -195 -214 -226 -232 -243 -257 -272 -284 -288 -302 -314 -322 -332 -352 -362 -370 -387 -389 -403 -417 -429 -443 -450 0
-8 -15 -31 -40 -48 -67 -79 -82 -99 -104 -123 -130 -137 -151 -165 -178 -191 -204 -207 -221 -240 -251 -254 -266 -283 -289 -298 -313 -331 -335 -353 -354 -369 -385 -389 -404 -416 -427 -443 -445 0
-8 -15 -24 -37 -47 -67 -77 -85 -102 -109 -123 -128 -137 -156 -168 -179 -186 -200 -215 -220 -231 -241 -258 -274 -276 -288 -308 -316 -325 -333 -352 -360 -372 -376 -396 -404 -416 -431 -438 -446 0
-8 -15 -28 -37 -53 -61 -79 -80 -94 -104 -124 -134 -139 -158 -168 -175 -186 -206 -207 -218 -235 -249 -263 -267 -276 -291 -298 -311 -329 -336 -345 -363 -373 -386 -398 -406 -413 -427 -443 -455 0
-8 -16 -23 -43 -49 -68 -72 -90 -92 -106 -120 -133 -139 -158 -162 -171 -189 -196 -211 -229 -238 -242 -260 -268 -285 -289 -305 -309 -323 -335 -348 -363 -373 -378 -396 -403 -415 -430 -441 -448 0
-8 -16 -31 -44 -49 -67 -76 -81 -102 -109 -115 -128 -141 -150 -162 -177 -185 -198 -215 -229 -235 -242 -263 -271 -282 -287 -301 -320 -330 -335 -352 -359 -372 -387 -396 -401 -411 -429 -433 -447 0
-8 -19 -28 -35 -47 -59 -74 -88 -100 -106 -124 -136 -142 -149 -162 -175 -185 -195 -212 -225 -231 -245 -262 -271 -283 -296 -300 -318 -327 -336 -351 -356 -365 -383 -388 -408 -421 -426 -439 -450 0
-8 -19 -28 -35 -53 -67 -71 -84 -92 -112 -118 -127 -147 -153 -162 -175 -189 -195 -217 -219 -239 -242 -259 -270 -283 -286 -308 -311 -324 -338 -344 -363 -373 -381 -388 -410 -418 -430 -439 -447 0
-8 -20 -24 -45 -53 -57 -74 -89 -95 -107 -117 -130 -146 -150 -162 -174 -191 -200 -208 -218 -235 -251 -263 -271 -280 -293 -303 -310 -330 -335 -353 -357 -369 -382 -393 -410 -418 -428 -439 -447 0
-8 -22 -30 -36 -54 -58 -78 -85 -91 -113 -118 -127 -142 -153 -169 -175 -189 -199 -213 -219 -231 -251 -257 -267 -282 -296 -299 -313 -328 -341 -350 -358 -365 -377 -395 -410 -417 -426 -437 -445 0
-8 -16 -32 -45 -48 -58 -74 -84 -99 -103 -122 -135 -141 -150 -161 -172 -192 -199 -214 -227 -235 -251 -255 -270 -285 -293 -302 -320 -327 -334 -347 -356 -371 -383 -395 -400 -416 -430 -437 -449 0
-8 -16 -24 -38 -48 -59 -70 -89 -101 -103 -120 -133 -145 -159 -168 -177 -189 -199 -213 -219 -240 -245 -253 -267 -275 -290 -306 -309 -323 -337 -345 -363 -366 -387 -396 -403 -414 -423 -437 -455 0
-8 -19 -27 -35 -55 -68 -74 -82 -94 -112 -118 -130 -138 -156 -160 -174 -190 -199 -212 -219 -232 -247 -262 -272 -285 -287 -299 -309 -327 -333 -349 -362 -375 -379 -394 -410 -420 -427 -438 -448 0
-8 -13 -27 -35 -48 -58 -76 -89 -95 -112 -124 -130 -147 -153 -169 -181 -191 -199 -211 -227 -230 -247 -258 -267 -275 -293 -302 -316 -325 -333 -351 -360 -367 -381 -393 -404 -414 -425 -438 -454 0
-8 -20 -28 -43 -48 -59 -79 -80 -101 -107 -120 -133 -138 -150 -163 -178 -188 -199 -214 -227 -239 -243 -263 -267 -275 -292 -302 -313 -327 -334 -344 -356 -368 -382 -390 -400 -421 -425 -433 -455 0
-8 -22 -27 -43 -48 -64 -74 -81 -95 -105 -124 -130 -145 -148 -167 -175 -192 -199 -211 -218 -240 -244 -258 -268 -276 -287 -305 -312 -330 -337 -350 -355 -371 -376 -397 -401 -420 -425 -440 -454 0
-8 -19 -33 -40 -46 -66 -69 -82 -96 -111 -125 -128 -141 -152 -163 -173 -183 -199 -212 -225 -236 -251 -261 -265 -285 -287 -301 -319 -327 -332 -348 -360 -375 -381 -393 -400 -419 -422 -443 -449 0
-8 -16 -23 -37 -54 -68 -71 -84 -101 -105 -120 -133 -138 -158 -161 -174 -189 -199 -217 -225 -230 -251 -261 -266 -282 -295 -299 -318 -329 -334 -348 -364 -368 -382 -395 -400 -419 -427 -443 -445 0
-8 -14 -34 -43 -49 -67 -69 -88 -92 -105 -118 -130 -145 -153 -160 -179 -185 -199 -217 -228 -233 -250 -257 -273 -281 -293 -302 -319 -324 -334 -353 -355 -371 -379 -389 -409 -416 -430 -440 -447 0
-8 -16 -31 -40 -49 -68 -76 -81 -95 -112 -115 -128 -146 -150 -169 -172 -184 -202 -209 -227 -239 -244 -258 -268 -282 -297 -299 -317 -325 -333 -352 -359 -373 -385 -398 -402 -413 -423 -439 -453 0
-8 -19 -33 -35 -49 -68 -74 -81 -99 -106 -118 -130 -139 -158 -163 -172 -189 -202 -209 -220 -238 -241 -262 -265 -285 -289 -299 -310 -324 -334 -348 -362 -365 -376 -396 -403 -417 -426 -438 -452 0
-8 -21 -31 -40 -46 -64 -70 -85 -102 -106 -118 -126 -145 -152 -169 -178 -191 -200 -209 -220 -231 -241 -255 -271 -280 -287 -308 -310 -325 -342 -349 -354 -369 -376 -389 -405 -416 -432 -435 -456 0
-8 -16 -23 -37 -47 -66 -76 -89 -102 -107 -124 -128 -138 -153 -161 -181 -189 -195 -209 -219 -238 -249 -263 -271 -282 -294 -299 -311 -326 -339 -347 -361 -373 -386 -395 -407 -414 -427 -439 -445 0
-8 -16 -30 -45 -48 -58 -72 -82 -97 -107 -124 -134 -145 -148 -161 -172 -186 -202 -214 -222 -238 -252 -259 -264 -281 -292 -306 -311 -326 -333 -345 -354 -375 -386 -398 -400 -416 -423 -440 -455 0
-8 -22 -31 -39 -50 -64 -70 -83 -95 -107 -116 -135 -137 -158 -161 -175 -185 -205 -211 -222 -238 -252 -258 -268 -284 -286 -298 -313 -322 -337 -352 -357 -370 -385 -398 -405 -418 -432 -444 -447 0
-8 -14 -30 -39 -47 -57 -77 -84 -101 -104 -123 -136 -141 -153 -170 -175 -190 -206 -214 -218 -240 -246 -258 -270 -276 -297 -304 -316 -324 -342 -350 -358 -373 -379 -388 -401 -413 -432 -440 -453 0
-8 -21 -34 -35 -53 -61 -70 -89 -95 -104 -117 -130 -145 -152 -169 -179 -186 -197 -210 -225 -237 -246 -258 -264 -275 -287 -298 -313 -328 -337 -348 -363 -372 -383 -388 -401 -415 -428 -435 -455 0
-8 -14 -32 -38 -50 -59 -69 -82 -96 -104 -125 -133 -146 -157 -160 -172 -192 -205 -216 -225 -233 -252 -259 -269 -277 -294 -301 -313 -331 -332 -348 -355 -372 -386 -397 -400 -415 -431 -442 -448 0
-8 -14 -31 -45 -55 -61 -72 -85 -100 -104 -119 -133 -139 -148 -167 -174 -185 -195 -215 -223 -235 -242 -263 -269 -280 -290 -303 -310 -322 -339 -343 -362 -368 -382 -395 -401 -414 -431 -435 -455 0
-8 -14 -34 -42 -46 -59 -69 -82 -96 -112 -119 -134 -146 -153 -170 -175 -185 -205 -215 -225 -235 -242 -259 -269 -285 -293 -303 -314 -324 -334 -353 -362 -366 -380 -389 -402 -414 -422 -444 -447 0
-8 -12 -26 -40 -49 -64 -69 -85 -93 -106 -123 -136 -146 -157 -165 -180 -183 -196 -213 -220 -238 -252 -262 -268 -278 -297 -306 -319 -329 -336 -343 -358 -369 -380 -388 -409 -419 -430 -441 -456 0
-8 -13 -27 -44 -48 -57 -77 -81 -102 -111 -124 -130 -141 -153 -160 -175 -192 -203 -216 -225 -236 -250 -254 -274 -278 -294 -301 -319 -329 -342 -343 -360 -370 -383 -394 -400 -418 -429 -440 -449 0
-8 -20 -30 -38 -46 -60 -69 -89 -101 -105 -125 -128 -141 -153 -165 -181 -183 -204 -208 -218 -235 -244 -260 -274 -278 -297 -303 -319 -325 -336 -352 -360 -369 -382 -388 -400 -418 -431 -438 -453 0
-9 -12 -26 -35 -47 -66 -74 -84 -102 -108 -124 -132 -140 -154 -168 -176 -186 -206 -212 -220 -230 -247 -257 -266 -285 -292 -301 -312 -329 -334 -348 -364 -374 -387 -395 -401 -420 -428 -440 -446 0
-9 -12 -28 -35 -50 -59 -75 -82 -100 -106 -125 -135 -142 -154 -169 -177 -185 -198 -214 -223 -235 -248 -254 -264 -284 -286 -306 -316 -323 -341 -352 -359 -375 -376 -398 -403 -417 -427 -443 -449 0
-9 -12 -28 -35 -50 -59 -78 -84 -98 -105 -117 -132 -146 -159 -165 -180 -187 -195 -212 -219 -239 -245 -263 -267 -278 -287 -303 -315 -324 -340 -343 -361 -375 -379 -390 -408 -421 -431 -444 -453 0
-9 -15 -28 -35 -55 -68 -70 -86 -95 -112 -120 -132 -140 -149 -161 -175 -189 -201 -208 -225 -237 -245 -261 -264 -284 -288 -306 -316 -331 -334 -344 -360 -373 -383 -391 -402 -420 -425 -441 -448 0
-9 -16 -29 -35 -47 -67 -74 -87 -100 -107 -116 -136 -140 -151 -162 -178 -186 -205 -217 -219 -230 -251 -257 -272 -279 -289 -299 -318 -328 -341 -344 -364 -374 -387 -392 -410 -420 -429 -434 -450 0
-9 -18 -33 -36 -46 -66 -74 -84 -91 -108 -118 -136 -139 -154 -168 -171 -188 -198 -208 -223 -231 -244 -263 -272 -279 -289 -299 -317 -321 -340 -351 -355 -371 -377 -390 -403 -411 -431 -436 -452 0
-9 -16 -24 -36 -49 -63 -72 -82 -101 -109 -123 -136 -143 -148 -164 -174 -188 -205 -207 -228 -235 -244 -263 -266 -275 -286 -303 -319 -326 -339 -350 -355 -372 -382 -388 -402 -413 -431 -434 -453 0
-9 -15 -25 -36 -50 -57 -78 -85 -98 -113 -116 -132 -147 -151 -170 -175 -188 -205 -208 -224 -235 -245 -254 -274 -283 -295 -301 -313 -329 -333 -353 -363 -370 -386 -388 -410 -418 -424 -442 -450 0
-9 -20 -34 -36 -51 -63 -72 -90 -96 -105 -120 -126 -138 -152 -166 -173 -188 -199 -214 -221 -239 -247 -253 -274 -275 -289 -307 -311 -328 -333 -348 -361 -368 -382 -390 -402 -416 -423 -440 -454 0
-9 -17 -34 -37 -46 -60 -71 -90 -98 -105 -123 -126 -144 -152 -162 -177 -189 -198 -215 -223 -230 -251 -263 -265 -282 -293 -308 -318 -322 -341 -348 -357 -366 -381 -389 -404 -418 -422 -443 -450 0
-9 -13 -29 -37 -46 -63 -69 -84 -96 -112 -124 -128 -147 -153 -169 -180 -187 -197 -216 -225 -233 -242 -253 -269 -281 -288 -307 -317 -328 -332 -344 -364 -370 -381 -389 -406 -414 -431 -435 -445 0
-9 -16 -33 -37 -51 -63 -78 -80 -92 -105 -125 -128 -142 -153 -166 -181 -194 -197 -207 -219 -238 -249 -260 -265 -278 -290 -298 -316 -330 -340 -349 -358 -375 -381 -393 -404 -419 -422 -433 -451 0
-9 -15 -29 -37 -47 -68 -74 -80 -100 -106 -124 -130 -144 -149 -165 -176 -189 -205 -215 -219 -231 -244 -255 -264 -284 -292 -301 -312 -322 -332 -350 -355 -374 -376 -389 -410 -420 -431 -441 -451 0
-9 -17 -29 -37 -52 -67 -70 -84 -94 -104 -125 -130 -145 -148 -162 -182 -189 -198 -208 -218 -237 -247 -261 -264 -280 -297 -304 -317 -321 -341 -350 -357 -367 -381 -389 -409 -416 -422 -439 -447 0
-9 -13 -23 -37 -55 -60 -71 -87 -97 -104 -119 -136 -145 -154 -165 -180 -184 -201 -217 -221 -232 -251 -261 -264 -281 -292 -300 -318 -329 -332 -348 -364 -367 -378 -398 -399 -420 -427 -435 -449 0
-9 -22 -32 -38 -51 -63 -73 -83 -91 -104 -120 -127 -146 -151 -166 -173 -186 -206 -214 -222 -233 -249 -263 -266 -284 -286 -298 -314 -327 -340 -352 -357 -369 -386 -390 -404 -411 -428 -435 -455 0
-9 -21 -25 -38 -52 -66 -72 -85 -91 -104 -121 -128 -147 -153 -165 -180 -187 -195 -215 -220 -235 -246 -263 -265 -276 -289 -298 -315 -322 -336 -353 -360 -372 -377 -396 -408 -411 -428 -436 -452 0
-9 -22 -24 -38 -48 -61 -75 -85 -100 -105 -124 -129 -137 -154 -161 -172 -189 -198 -215 -223 -239 -248 -263 -270 -282 -296 -305 -318 -326 -339 -347 -354 -367 -379 -396 -404 -419 -424 -439 -450 0
-9 -22 -24 -39 -51 -59 -75 -82 -100 -103 -119 -128 -146 -153 -161 -180 -185 -202 -215 -229 -234 -247 -258 -274 -278 -295 -301 -317 -324 -338 -350 -359 -366 -385 -395 -401 -414 -431 -434 -452 0
-9 -20 -29 -39 -50 -63 -71 -84 -92 -105 -125 -129 -146 -148 -162 -174 -194 -201 -212 -219 -237 -247 -253 -270 -275 -287 -303 -309 -329 -341 -346 -355 -367 -378 -398 -404 -420 -428 -436 -456 0
-9 -15 -32 -39 -51 -68 -69 -90 -92 -106 -120 -129 -144 -150 -161 -176 -194 -203 -208 -221 -233 -250 -257 -273 -283 -294 -305 -311 -325 -335 -352 -355 -369 -382 -397 -410 -414 -425 -440 -451 0
-9 -15 -34 -39 -47 -66 -71 -87 -97 -113 -115 -131 -141 -149 -166 -175 -188 -196 -216 -221 -232 -241 -261 -265 -282 -288 -304 -317 -331 -334 -350 -358 -373 -385 -397 -401 -413 -423 -439 -454 0
-9 -17 -29 -39 -46 -68 -75 -84 -93 -112 -115 -128 -146 -151 -163 -173 -194 -202 -208 -229 -237 -241 -258 -272 -278 -294 -307 -316 -329 -333 -352 -357 -365 -378 -391 -409 -420 -428 -440 -453 0
-9 -21 -24 -39 -52 -59 -78 -86 -93 -114 -119 -126 -140 -153 -162 -182 -185 -200 -212 -225 -237 -241 -256 -265 -283 -289 -306 -320 -331 -336 -345 -359 -372 -378 -396 -406 -420 -426 -438 -452 0
-9 -17 -29 -39 -52 -58 -71 -90 -95 -103 -123 -136 -142 -150 -168 -172 -194 -198 -212 -223 -231 -246 -254 -270 -283 -288 -306 -317 -331 -341 -353 -355 -370 -383 -388 -404 -414 -430 -433 -446 0
-9 -12 -26 -40 -49 -67 -73 -86 -93 -103 -123 -128 -147 -155 -169 -178 -191 -195 -216 -220 -234 -245 -257 -269 -276 -288 -302 -311 -328 -338 -352 -364 -373 -381 -392 -401 -412 -422 -443 -455 0
-9 -16 -33 -40 -48 -58 -72 -87 -102 -112 -115 -127 -143 -152 -160 -177 -192 -201 -214 -229 -235 -246 -254 -268 -285 -290 -303 -319 -322 -333 -343 -358 -375 -380 -394 -400 -413 -427 -435 -449 0
-9 -20 -33 -40 -49 -60 -79 -83 -95 -105 -115 -131 -144 -149 -160 -172 -187 -202 -214 -226 -239 -247 -254 -269 -277 -290 -303 -314 -330 -333 -343 -356 -371 -383 -389 -406 -421 -423 -439 -453 0
-9 -15 -23 -40 -47 -60 -78 -83 -101 -114 -116 -131 -144 -151 -169 -181 -187 -196 -212 -225 -233 -241 -254 -268 -282 -290 -306 -312 -330 -342 -349 -358 -375 -387 -394 -405 -415 -429 -442 -453 0
-9 -22 -27 -40 -52 -67 -70 -83 -92 -108 -123 -131 -137 -151 -168 -174 -192 -200 -212 -224 -240 -249 -254 -269 -276 -291 -305 -315 -331 -335 -349 -355 -368 -380 -394 -406 -411 -427 -443 -446 0
-9 -18 -32 -40 -46 -67 -71 -80 -96 -114 -119 -131 -141 -150 -161 -174 -192 -200 -209 -219 -239 -250 -256 -274 -280 -287 -305 -318 -327 -335 -349 -364 -374 -382 -393 -402 -415 -422 -439 -456 0
-9 -12 -26 -40 -52 -67 -71 -84 -102 -105 -121 -130 -145 -148 -164 -173 -192 -200 -207 -225 -235 -245 -260 -274 -276 -292 -305 -318 -322 -337 -353 -356 -369 -381 -389 -407 -420 -422 -437 -455 0
-9 -22 -24 -40 -51 -66 -75 -82 -95 -108 -117 -135 -137 -152 -168 -173 -184 -199 -210 -228 -235 -245 -263 -270 -279 -291 -305 -309 -326 -342 -347 -355 -371 -378 -397 -410 -411 -427 -442 -446 0
-9 -20 -26 -41 -46 -61 -70 -85 -102 -107 -121 -128 -146 -148 -163 -171 -191 -201 -208 -220 -231 -252 -258 -269 -280 -289 -307 -317 -326 -333 -345 -364 -365 -386 -395 -402 -416 -428 -439 -448 0
-9 -16 -33 -41 -47 -57 -74 -84 -92 -106 -123 -131 -141 -159 -168 -178 -188 -198 -208 -220 -240 -246 -253 -265 -279 -297 -306 -316 -325 -332 -348 -356 -371 -378 -397 -403 -411 -423 -437 -446 0
-9 -13 -27 -41 -48 -62 -69 -90 -96 -114 -123 -129 -138 -153 -164 -175 -184 -206 -211 -220 -240 -250 -258 -264 -284 -286 -306 -316 -328 -341 -344 -358 -375 -386 -390 -405 -417 -425 -440 -454 0
-9 -22 -32 -41 -49 -61 -71 -85 -92 -105 -115 -131 -146 -151 -163 -181 -194 -199 -211 -228 -234 -243 -258 -267 -282 -288 -302 -318 -329 -337 -352 -357 -366 -378 -394 -409 -421 -425 -434 -455 0
-9 -16 -24 -41 -55 -57 -72 -82 -98 -107 -123 -128 -147 -153 -162 -180 -183 -196 -212 -224 -238 -242 -263 -270 -284 -289 -302 -319 -321 -335 -353 -360 -366 -381 -393 -409 -411 -425 -434 -448 0
-9 -12 -27 -41 -55 -61 -78 -83 -96 -105 -118 -131 -147 -148 -169 -178 -186 -196 -210 -225 -234 -241 -260 -267 -278 -287 -302 -319 -321 -337 -353 -360 -370 -387 -395 -405 -412 -432 -434 -455 0
-9 -16 -29 -44 -50 -57 -70 -90 -94 -114 -119 -132 -138 -151 -168 -178 -192 -202 -207 -219 -234 -245 -254 -274 -278 -294 -301 -310 -323 -339 -343 -362 -370 -381 -390 -399 -414 -422 -434 -456 0
-9 -12 -26 -44 -50 -67 -69 -87 -102 -105 -119 -130 -140 -154 -166 -174 -194 -197 -210 -219 -237 -249 -253 -273 -283 -293 -303 -318 -322 -341 -353 -359 -367 -380 -392 -409 -417 -428 -440 -447 0
-9 -16 -25 -44 -48 -67 -75 -84 -98 -103 -120 -136 -141 -149 -170 -177 -192 -199 -208 -218 -235 -250 -255 -267 -279 -290 -301 -318 -327 -334 -351 -363 -365 -379 -394 -401 -415 -427 -443 -451 0
-9 -14 -26 -44 -55 -63 -70 -80 -96 -109 -121 -136 -142 -149 -166 -175 -193 -199 -215 -219 -231 -241 -255 -270 -282 -293 -301 -318 -324 -333 -351 -360 -365 -381 -389 -409 -416 -432 -436 -446 0
-9 -16 -23 -44 -46 -67 -74 -83 -98 -105 -119 -132 -147 -151 -166 -177 -186 -197 -207 -228 -237 -252 -262 -266 -278 -289 -305 -315 -323 -341 -343 -364 -374 -378 -391 -404 -412 -428 -444 -456 0
-9 -16 -33 -45 -49 -58 -78 -86 -93 -110 -117 -126 -141 -153 -162 -176 -188 -195 -212 -218 -240 -250 -262 -266 -283 -294 -301 -311 -330 -335 -343 -359 -372 -387 -392 -401 -417 -428 -442 -447 0
-9 -12 -27 -45 -50 -67 -72 -82 -94 -103 -121 -130 -145 -155 -162 -171 -191 -196 -212 -224 -238 -251 -257 -268 -285 -295 -302 -317 -323 -342 -353 -360 -367 -381 -393 -407 -418 -430 -438 -454 0
-9 -17 -29 -45 -55 -57 -78 -83 -92 -110 -119 -130 -139 -151 -162 -172 -189 -198 -215 -223 -239 -250 -253 -270 -285 -293 -303 -310 -324 -335 -343 -362 -371 -380 -389 -405 -420 -431 -437 -452 0
-9 -14 -32 -45 -55 -58 -70 -85 -95 -107 -115 -131 -144 -153 -169 -171 -187 -200 -214 -219 -231 -246 -262 -270 -281 -291 -302 -320 -321 -333 -352 -360 -372 -383 -389 -402 -413 -432 -435 -455 0
-10 -12 -28 -36 -49 -68 -74 -88 -98 -110 -118 -134 -139 -148 -163 -171 -188 -203 -213 -220 -238 -243 -263 -269 -279 -291 -302 -313 -329 -339 -351 -356 -365 -382 -388 -402 -412 -431 -434 -455 0
-10 -12 -26 -43 -50 -64 -73 -80 -94 -114 -121 -132 -142 -150 -165 -173 -187 -198 -213 -229 -235 -246 -261 -266 -285 -290 -307 -320 -328 -342 -347 -356 -370 -386 -397 -405 -418 -431 -437 -445 0
-10 -12 -28 -42 -52 -59 -70 -80 -97 -114 -122 -128 -143 -152 -165 -176 -194 -204 -216 -220 -238 -241 -258 -269 -277 -294 -305 -319 -331 -336 -348 -360 -365 -382 -396 -403 -414 -422 -436 -447 0
-10 -12 -34 -43 -47 -61 -69 -84 -99 -108 -117 -129 -143 -155 -164 -173 -188 -206 -208 -226 -240 -241 -262 -271 -277 -294 -304 -316 -331 -335 -348 -362 -372 -387 -391 -404 -412 -428 -437 -449 0
-10 -12 -26 -42 -54 -63 -70 -85 -91 -109 -119 -128 -147 -154 -170 -175 -194 -201 -213 -220 -238 -243 -258 -270 -277 -289 -308 -312 -329 -339 -351 -354 -374 -380 -388 -402 -418 -430 -435 -456 0
-10 -12 -27 -41 -48 -61 -77 -82 -98 -108 -115 -129 -147 -156 -162 -176 -186 -206 -207 -223 -236 -251 -263 -266 -281 -292 -300 -311 -329 -332 -345 -363 -375 -386 -398 -401 -413 -427 -443 -455 0
-10 -13 -29 -38 -53 -65 -79 -85 -95 -110 -120 -128 -137 -149 -160 -179 -186 -200 -209 -220 -234 -251 -257 -272 -281 -286 -303 -317 -328 -336 -344 -357 -374 -377 -390 -406 -414 -431 -435 -455 0
-10 -13 -28 -41 -46 -68 -74 -84 -99 -103 -117 -129 -143 -157 -169 -175 -186 -202 -213 -220 -230 -251 -256 -269 -275 -288 -305 -310 -328 -341 -350 -363 -365 -384 -395 -400 -412 -427 -439 -449 0
-10 -13 -30 -35 -52 -59 -74 -86 -94 -107 -122 -130 -147 -149 -170 -174 -184 -199 -213 -226 -232 -247 -256 -272 -280 -296 -304 -316 -323 -341 -343 -356 -369 -384 -394 -403 -416 -422 -444 -453 0
-10 -14 -26 -40 -54 -62 -76 -84 -96 -110 -125 -127 -137 -149 -165 -178 -193 -199 -207 -227 -234 -242 -261 -266 -277 -291 -301 -310 -331 -339 -346 -354 -369 -378 -397 -399 -419 -427 -433 -447 0
-10 -14 -28 -37 -52 -65 -74 -80 -92 -107 -125 -133 -139 -154 -166 -181 -184 -200 -217 -219 -230 -249 -259 -272 -277 -293 -302 -318 -330 -338 -349 -357 -366 -387 -389 -405 -419 -422 -439 -447 0
-10 -14 -29 -39 -46 -68 -76 -89 -95 -110 -115 -127 -142 -153 -169 -177 -189 -204 -209 -219 -233 -248 -262 -264 -275 -295 -301 -310 -324 -342 -350 -361 -370 -376 -389 -405 -415 -432 -435 -445 0
-10 -15 -28 -37 -52 -61 -77 -81 -102 -106 -121 -126 -139 -156 -166 -182 -183 -196 -215 -220 -231 -247 -255 -271 -284 -291 -304 -313 -322 -342 -343 -356 -373 -376 -398 -405 -412 -428 -437 -452 0
-10 -15 -25 -43 -46 -62 -73 -80 -97 -106 -118 -133 -144 -159 -163 -177 -187 -204 -216 -220 -230 -252 -258 -265 -276 -293 -298 -314 -322 -338 -350 -359 -375 -386 -396 -410 -411 -425 -437 -452 0
-10 -15 -30 -45 -50 -59 -73 -83 -92 -105 -121 -126 -144 -157 -165 -179 -184 -201 -215 -220 -240 -251 -253 -268 -276 -296 -308 -311 -328 -337 -351 -356 -369 -382 -398 -403 -421 -428 -436 -450 0
-10 -15 -24 -42 -50 -57 -73 -89 -102 -106 -121 -129 -144 -150 -169 -177 -186 -204 -210 -218 -235 -248 -254 -266 -284 -294 -303 -310 -325 -335 -351 -363 -369 -387 -396 -403 -414 -426 -434 -450 0
-10 -15 -29 -36 -54 -68 -74 -88 -91 -105 -118 -130 -144 -149 -165 -176 -189 -196 -207 -218 -232 -251 -259 -268 -283 -295 -301 -310 -329 -334 -350 -356 -374 -385 -392 -410 -420 -431 -438 -445 0
-10 -15 -30 -39 -50 -65 -70 -86 -92 -106 -125 -129 -144 -148 -166 -177 -184 -195 -208 -221 -236 -247 -254 -272 -285 -297 -303 -314 -330 -335 -344 -354 -369 -387 -389 -410 -420 -428 -443 -448 0
-10 -16 -26 -40 -48 -62 -69 -82 -102 -111 -119 -132 -138 -157 -161 -177 -190 -206 -209 -229 -230 -252 -256 -266 -277 -295 -301 -317 -326 -335 -350 -355 -375 -386 -393 -405 -417 -422 -437 -452 0
-10 -16 -30 -40 -52 -57 -72 -82 -94 -104 -119 -136 -143 -157 -164 -181 -184 -196 -211 -221 -230 -244 -261 -271 -285 -297 -307 -310 -325 -342 -348 -360 -367 -382 -398 -399 -413 -429 -441 -447 0
-10 -17 -31 -38 -52 -68 -72 -86 -91 -106 -116 -130 -139 -156 -160 -173 -185 -200 -209 -226 -240 -245 -259 -272 -284 -296 -304 -319 -322 -338 -343 -356 -368 -381 -391 -409 -419 -425 -441 -451 0
-10 -17 -31 -41 -47 -60 -76 -84 -102 -106 -116 -129 -143 -148 -161 -175 -190 -195 -208 -222 -238 -252 -258 -268 -280 -297 -304 -310 -329 -338 -351 -354 -367 -381 -391 -403 -416 -431 -441 -456 0
-10 -17 -26 -35 -54 -58 -73 -87 -99 -114 -121 -127 -140 -152 -161 -175 -192 -199 -217 -227 -235 -251 -253 -270 -277 -296 -304 -318 -327 -336 -351 -364 -372 -381 -393 -406 -419 -426 -436 -450 0
-10 -17 -34 -42 -51 -58 -73 -82 -91 -106 -118 -132 -142 -157 -162 -175 -186 -204 -216 -219 -240 -242 -253 -272 -280 -292 -299 -320 -331 -340 -344 -357 -372 -386 -388 -405 -419 -431 -435 -456 0
-10 -17 -26 -38 -52 -68 -70 -85 -91 -111 -121 -128 -138 -157 -165 -173 -190 -195 -209 -221 -239 -242 -263 -272 -276 -297 -302 -317 -328 -335 -350 -362 -366 -377 -390 -405 -418 -422 -439 -451 0
-10 -18 -27 -39 -48 -62 -76 -81 -95 -105 -120 -134 -147 -148 -160 -172 -187 -198 -211 -223 -236 -246 -254 -274 -283 -297 -298 -314 -329 -341 -345 -354 -370 -387 -396 -399 -421 -430 -433 -455 0
-10 -22 -29 -42 -54 -59 -74 -81 -96 -106 -119 -127 -144 -148 -169 -178 -188 -200 -213 -219 -231 -244 -256 -269 -277 -289 -298 -318 -323 -335 -343 -360 -373 -377 -388 -410 -417 -429 -438 -449 0
-11 -12 -33 -36 -54 -66 -73 -87 -99 -109 -118 -127 -143 -152 -164 -171 -190 -198 -214 -226 -233 -249 -262 -267 -283 -289 -302 -320 -324 -340 -351 -354 -372 -381 -390 -399 -421 -426 -436 -452 0
-11 -16 -31 -36 -55 -62 -78 -88 -92 -110 -120 -129 -139 -152 -161 -178 -191 -199 -211 -229 -230 -245 -261 -271 -279 -296 -301 -316 -330 -334 -349 -359 -365 -377 -395 -401 -420 -427 -441 -451 0
-11 -16 -25 -36 -55 -62 -75 -81 -95 -107 -120 -134 -145 -156 -168 -171 -185 -198 -213 -220 -235 -246 -261 -265 -279 -293 -306 -310 -325 -341 -343 -360 -375 -381 -393 -399 -420 -422 -441 -455 0
-11 -17 -31 -37 -53 -63 -78 -85 -98 -113 -116 -127 -140 -152 -167 -178 -186 -200 -215 -218 -230 -251 -254 -269 -280 -296 -304 -320 -330 -334 -348 -357 -370 -379 -389 -404 -419 -432 -435 -451 0
-11 -16 -32 -37 -50 -58 -75 -88 -94 -113 -121 -127 -142 -157 -164 -180 -188 -195 -213 -221 -231 -244 -261 -266 -284 -286 -300 -314 -326 -340 -353 -360 -366 -376 -389 -404 -417 -428 -441 -445 0
-11 -19 -28 -37 -47 -63 -74 -90 -94 -104 -119 -133 -145 -154 -161 -181 -188 -206 -208 -224 -235 -247 -259 -264 -277 -296 -304 -315 -323 -341 -350 -364 -367 -379 -389 -406 -411 -431 -439 -453 0
-11 -20 -28 -37 -55 -63 -70 -84 -98 -104 -120 -133 -140 -157 -162 -171 -188 -200 -213 -219 -237 -245 -262 -265 -279 -288 -308 -315 -331 -339 -351 -355 -372 -382 -397 -399 -419 -432 -435 -450 0
-11 -13 -28 -37 -49 -67 -74 -87 -99 -112 -116 -134 -140 -154 -161 -177 -190 -203 -207 -223 -237 -251 -255 -272 -279 -293 -298 -318 -330 -338 -348 -364 -367 -386 -396 -406 -417 -431 -434 -447 0
-11 -13 -32 -37 -53 -63 -73 -89 -98 -104 -119 -135 -140 -153 -170 -177 -192 -197 -213 -224 -233 -250 -258 -269 -275 -296 -299 -316 -324 -340 -348 -358 -372 -386 -396 -400 -417 -428 -435 -454 0
-11 -12 -32 -38 -54 -67 -72 -87 -93 -108 -120 -133 -140 -154 -163 -177 -189 -197 -213 -228 -230 -243 -256 -273 -282 -297 -301 -315 -331 -335 -350 -357 -372 -387 -391 -399 -420 -432 -444 -456 0
-11 -16 -25 -38 -54 -63 -78 -81 -99 -109 -124 -128 -143 -151 -162 -176 -191 -203 -208 -225 -239 -241 -255 -271 -283 -296 -301 -320 -330 -340 -348 -361 -365 -386 -388 -406 -418 -427 -440 -447 0
-11 -13 -32 -38 -46 -61 -75 -90 -99 -108 -117 -129 -143 -157 -162 -175 -186 -202 -215 -227 -234 -250 -253 -273 -275 -288 -304 -309 -325 -340 -352 -355 -372 -384 -390 -404 -412 -431 -436 -452 0
-11 -16 -24 -38 -52 -64 -70 -86 -95 -113 -122 -128 -145 -153 -160 -179 -189 -205 -208 -228 -234 -244 -257 -273 -278 -295 -305 -320 -331 -337 -348 -355 -371 -379 -390 -407 -415 -430 -442 -452 0
-11 -12 -33 -38 -53 -62 -72 -82 -94 -110 -122 -130 -145 -153 -162 -179 -193 -206 -212 -224 -237 -247 -257 -264 -276 -297 -302 -317 -325 -341 -346 -360 -367 -381 -392 -399 -418 -431 -439 -447 0
-11 -12 -33 -39 -53 -62 -77 -82 -95 -112 -119 -128 -144 -153 -167 -178 -193 -196 -209 -220 -233 -248 -257 -264 -283 -291 -308 -309 -326 -334 -347 -356 -373 -379 -398 -399 -415 -428 -439 -453 0
-11 -20 -27 -39 -51 -64 -75 -89 -97 -106 -116 -129 -146 -150 -166 -175 -190 -202 -208 -218 -237 -245 -254 -269 -284 -289 -299 -310 -330 -334 -353 -363 -368 -384 -398 -408 -414 -426 -435 -456 0
-11 -20 -25 -39 -51 -64 -75 -81 -94 -107 -122 -129 -146 -153 -166 -180 -190 -195 -208 -223 -232 -246 -257 -265 -284 -295 -298 -314 -324 -334 -348 -364 -370 -377 -397 -408 -421 -426 -443 -452 0
-11 -12 -33 -39 -54 -61 -72 -84 -93 -106 -121 -132 -145 -156 -162 -181 -183 -203 -214 -227 -234 -247 -261 -266 -277 -292 -299 -314 -324 -340 -353 -357 -372 -383 -388 -399 -419 -428 -441 -452 0
-11 -14 -26 -39 -54 -58 -74 -82 -99 -112 -119 -132 -146 -154 -166 -181 -190 -202 -215 -219 -237 -247 -253 -265 -277 -290 -308 -318 -327 -337 -351 -363 -366 -380 -388 -399 -421 -428 -435 -453 0
-11 -14 -30 -39 -46 -67 -74 -86 -93 -112 -119 -134 -144 -151 -170 -175 -189 -204 -208 -228 -237 -245 -257 -269 -279 -292 -298 -318 -327 -337 -352 -364 -365 -382 -392 -410 -412 -422 -440 -447 0
-11 -21 -25 -39 -53 -58 -74 -86 -100 -110 -119 -134 -140 -151 -164 -172 -192 -200 -212 -227 -230 -244 -257 -268 -282 -294 -304 -317 -325 -336 -352 -355 -369 -383 -397 -400 -419 -426 -434 -454 0
-11 -20 -27 -39 -54 -62 -75 -81 -99 -105 -120 -135 -140 -151 -166 -175 -190 -196 -216 -225 -232 -250 -253 -268 -278 -296 -308 -317 -325 -341 -349 -357 -370 -383 -391 -406 -420 -432 -444 -453 0
-11 -16 -31 -40 -47 -66 -72 -88 -101 -110 -116 -128 -143 -152 -161 -181 -187 -199 -212 -225 -236 -241 -261 -268 -282 -297 -305 -315 -330 -342 -349 -358 -366 -376 -394 -401 -419 -427 -433 -448 0
-11 -21 -31 -40 -51 -60 -78 -88 -92 -110 -119 -128 -141 -150 -161 -174 -190 -205 -212 -224 -233 -243 -257 -272 -278 -287 -305 -320 -327 -336 -352 -360 -369 -381 -393 -408 -414 -422 -439 -454 0
-11 -19 -33 -40 -51 -58 -75 -85 -99 -105 -119 -128 -145 -151 -163 -179 -189 -199 -215 -219 -232 -249 -253 -273 -279 -295 -299 -320 -326 -336 -347 -355 -371 -376 -390 -399 -419 -431 -443 -448 0
-11 -13 -28 -40 -54 -62 -72 -90 -92 -110 -119 -128 -145 -156 -160 -173 -186 -203 -214 -227 -233 -248 -261 -273 -278 -295 -298 -317 -323 -339 -350 -363 -375 -377 -398 -408 -413 -429 -437 -449 0
-11 -19 -33 -40 -51 -66 -73 -82 -95 -104 -119 -128 -144 -156 -162 -172 -186 -201 -207 -223 -235 -242 -259 -273 -283 -291 -308 -311 -321 -333 -347 -356 -373 -377 -398 -406 -419 -422 -439 -448 0
-11 -19 -24 -40 -55 -64 -72 -87 -93 -107 -121 -130 -140 -158 -165 -173 -184 -203 -208 -222 -238 -251 -255 -264 -279 -289 -302 -318 -331 -335 -351 -364 -366 -380 -392 -405 -421 -431 -439 -450 0
-11 -20 -27 -42 -46 -63 -71 -89 -96 -113 -118 -131 -139 -153 -160 -175 -191 -204 -211 -226 -234 -244 -262 -269 -276 -289 -299 -317 -322 -341 -352 -360 -366 -381 -395 -407 -412 -426 -435 -453 0
-11 -17 -33 -42 -49 -63 -77 -86 -92 -106 -118 -130 -139 -158 -162 -171 -185 -198 -216 -226 -238 -247 -257 -265 -282 -290 -299 -313 -323 -340 -343 -355 -373 -381 -389 -403 -419 -422 -443 -452 0
-11 -20 -24 -42 -49 -65 -70 -85 -98 -113 -118 -132 -140 -153 -166 -180 -188 -200 -207 -227 -232 -243 -262 -265 -278 -292 -308 -317 -325 -333 -346 -359 -370 -382 -391 -410 -419 -424 -442 -451 0
-11 -20 -33 -42 -51 -60 -77 -81 -97 -110 -119 -128 -141 -150 -162 -176 -191 -204 -208 -221 -231 -247 -258 -273 -280 -287 -308 -315 -325 -339 -345 -361 -373 -385 -393 -403 -415 -424 -443 -448 0
-11 -13 -28 -42 -54 -62 -78 -84 -92 -110 -118 -135 -140 -153 -161 -176 -191 -203 -207 -229 -238 -247 -257 -271 -278 -296 -306 -317 -328 -336 -353 -362 -369 -379 -389 -407 -420 -427 -434 -445 0
-11 -14 -27 -43 -46 -63 -78 -90 -93 -108 -121 -133 -141 -153 -164 -180 -192 -200 -212 -225 -230 -251 -259 -265 -276 -292 -308 -314 -322 -338 -350 -359 -372 -376 -396 -406 -420 -426 -441 -452 0
-11 -17 -24 -43 -49 -60 -72 -88 -98 -106 -123 -135 -144 -150 -161 -172 -191 -204 -212 -222 -233 -245 -257 -273 -283 -296 -302 -318 -330 -338 -353 -361 -367 -376 -392 -408 -418 -424 -433 -456 0
-11 -12 -30 -43 -48 -59 -78 -84 -98 -108 -124 -127 -144 -153 -165 -176 -193 -204 -207 -222 -235 -250 -254 -266 -283 -294 -302 -311 -325 -335 -343 -363 -373 -379 -390 -408 -412 -423 -434 -447 0
-11 -15 -28 -43 -50 -58 -71 -86 -100 -105 -124 -132 -141 -156 -166 -173 -183 -204 -215 -219 -231 -247 -255 -273 -282 -293 -307 -318 -322 -332 -353 -356 -371 -382 -398 -410 -414 -428 -437 -447 0
-11 -20 -33 -43 -47 -61 -72 -87 -92 -108 -117 -131 -142 -156 -160 -178 -191 -199 -210 -227 -239 -243 -254 -268 -279 -289 -299 -313 -321 -339 -353 -355 -373 -384 -394 -403 -415 -427 -434 -445 0
-11 -14 -33 -43 -51 -58 -78 -87 -93 -108 -118 -133 -142 -153 -164 -179 -189 -196 -210 -228 -237 -241 -262 -265 -280 -295 -301 -320 -327 -333 -349 -359 -372 -376 -396 -410 -412 -423 -435 -455 0
-11 -21 -31 -44 -47 -61 -75 -81 -95 -108 -117 -131 -142 -156 -160 -178 -191 -199 -210 -219 -236 -245 -254 -272 -279 -289 -299 -313 -328 -342 -344 -364 -365 -377 -395 -410 -417 -427 -434 -445 0
-11 -12 -27 -44 -52 -60 -76 -89 -101 -106 -118 -131 -139 -153 -166 -171 -190 -205 -209 -219 -233 -249 -261 -267 -284 -291 -299 -309 -326 -342 -349 -358 -373 -387 -389 -405 -417 -428 -437 -452 0
-11 -12 -28 -44 -50 -64 -72 -82 -98 -110 -119 -135 -140 -157 -163 -173 -188 -205 -209 -224 -238 -243 -259 -264 -284 -287 -302 -318 -331 -339 -353 -362 -367 -387 -389 -402 -414 -425 -434 -454 0
-11 -21 -31 -44 -46 -61 -72 -85 -93 -110 -119 -133 -140 -154 -163 -172 -192 -202 -212 -224 -236 -241 -254 -265 -282 -297 -298 -315 -325 -335 -352 -360 -372 -378 -396 -399 -419 -426 -436 -452 0
-11 -16 -30 -44 -51 -65 -74 -83 -95 -110 -119 -135 -138 -150 -162 -174 -189 -202 -214 -228 -234 -251 -259 -266 -275 -287 -303 -310 -328 -341 -350 -356 -369 -378 -395 -399 -411 -424 -435 -451 0
-11 -13 -31 -44 -51 -67 -75 -83 -92 -109 -119 -130 -141 -156 -163 -173 -191 -199 -212 -228 -236 -248 -253 -273 -275 -295 -300 -312 -325 -338 -352 -361 -371 -376 -393 -410 -419 -426 -443 -454 0
-11 -15 -24 -44 -48 -62 -73 -87 -95 -109 -122 -135 -139 -156 -163 -176 -184 -205 -208 -229 -235 -244 -259 -264 -283 -286 -305 -318 -325 -336 -344 -362 -374 -378 -395 -406 -411 -424 -433 -447 0
-11 -16 -31 -44 -46 -63 -70 -84 -94 -111 -124 -131 -141 -153 -164 -181 -185 -206 -212 -225 -231 -241 -259 -267 -282 -297 -301 -315 -328 -342 -351 -361 -367 -387 -394 -405 -419 -425 -433 -452 0
