p cnf 456 10180
1 2 3 4 5 6 7 8 9 10 11 0
-1 -2 0
-1 -3 0
-1 -4 0
-1 -5 0
-1 -6 0
-1 -7 0
-1 -8 0
-1 -9 0
-1 -10 0
-1 -11 0
-2 -3 0
-2 -4 0
-2 -5 0
-2 -6 0
-2 -7 0
-2 -8 0
-2 -9 0
-2 -10 0
-2 -11 0
-3 -4 0
-3 -5 0
-3 -6 0
-3 -7 0
-3 -8 0
-3 -9 0
-3 -10 0
-3 -11 0
-4 -5 0
-4 -6 0
-4 -7 0
-4 -8 0
-4 -9 0
-4 -10 0
-4 -11 0
-5 -6 0
-5 -7 0
-5 -8 0
-5 -9 0
-5 -10 0
-5 -11 0
-6 -7 0
-6 -8 0
-6 -9 0
-6 -10 0
-6 -11 0
-7 -8 0
-7 -9 0
-7 -10 0
-7 -11 0
-8 -9 0
-8 -10 0
-8 -11 0
-9 -10 0
-9 -11 0
-10 -11 0
12 13 14 15 16 17 18 19 20 21 22 23 0
-12 -13 0
-12 -14 0
-12 -15 0
-12 -16 0
-12 -17 0
-12 -18 0
-12 -19 0
-12 -20 0
-12 -21 0
-12 -22 0
-12 -23 0
-13 -14 0
-13 -15 0
-13 -16 0
-13 -17 0
-13 -18 0
-13 -19 0
-13 -20 0
-13 -21 0
-13 -22 0
-13 -23 0
-14 -15 0
-14 -16 0
-14 -17 0
-14 -18 0
-14 -19 0
-14 -20 0
-14 -21 0
-14 -22 0
-14 -23 0
-15 -16 0
-15 -17 0
-15 -18 0
-15 -19 0
-15 -20 0
-15 -21 0
-15 -22 0
-15 -23 0
-16 -17 0
-16 -18 0
-16 -19 0
-16 -20 0
-16 -21 0
-16 -22 0
-16 -23 0
-17 -18 0
-17 -19 0
-17 -20 0
-17 -21 0
-17 -22 0
-17 -23 0
-18 -19 0
-18 -20 0
-18 -21 0
-18 -22 0
-18 -23 0
-19 -20 0
-19 -21 0
-19 -22 0
-19 -23 0
-20 -21 0
-20 -22 0
-20 -23 0
-21 -22 0
-21 -23 0
-22 -23 0
24 25 26 27 28 29 30 31 32 33 34 0
-24 -25 0
-24 -26 0
-24 -27 0
-24 -28 0
-24 -29 0
-24 -30 0
-24 -31 0
-24 -32 0
-24 -33 0
-24 -34 0
-25 -26 0
-25 -27 0
-25 -28 0
-25 -29 0
-25 -30 0
-25 -31 0
-25 -32 0
-25 -33 0
-25 -34 0
-26 -27 0
-26 -28 0
-26 -29 0
-26 -30 0
-26 -31 0
-26 -32 0
-26 -33 0
-26 -34 0
-27 -28 0
-27 -29 0
-27 -30 0
-27 -31 0
-27 -32 0
-27 -33 0
-27 -34 0
-28 -29 0
-28 -30 0
-28 -31 0
-28 -32 0
-28 -33 0
-28 -34 0
-29 -30 0
-29 -31 0
-29 -32 0
-29 -33 0
-29 -34 0
-30 -31 0
-30 -32 0
-30 -33 0
-30 -34 0
-31 -32 0
-31 -33 0
-31 -34 0
-32 -33 0
-32 -34 0
-33 -34 0
35 36 37 38 39 40 41 42 43 44 45 0
-35 -36 0
-35 -37 0
-35 -38 0
-35 -39 0
-35 -40 0
-35 -41 0
-35 -42 0
-35 -43 0
-35 -44 0
-35 -45 0
-36 -37 0
-36 -38 0
-36 -39 0
-36 -40 0
-36 -41 0
-36 -42 0
-36 -43 0
-36 -44 0
-36 -45 0
-37 -38 0
-37 -39 0
-37 -40 0
-37 -41 0
-37 -42 0
-37 -43 0
-37 -44 0
-37 -45 0
-38 -39 0
-38 -40 0
-38 -41 0
-38 -42 0
-38 -43 0
-38 -44 0
-38 -45 0
-39 -40 0
-39 -41 0
-39 -42 0
-39 -43 0
-39 -44 0
-39 -45 0
-40 -41 0
-40 -42 0
-40 -43 0
-40 -44 0
-40 -45 0
-41 -42 0
-41 -43 0
-41 -44 0
-41 -45 0
-42 -43 0
-42 -44 0
-42 -45 0
-43 -44 0
-43 -45 0
-44 -45 0
46 47 48 49 50 51 52 53 54 55 56 57 0
-46 -47 0
-46 -48 0
-46 -49 0
-46 -50 0
-46 -51 0
-46 -52 0
-46 -53 0
-46 -54 0
-46 -55 0
-46 -56 0
-46 -57 0
-47 -48 0
-47 -49 0
-47 -50 0
-47 -51 0
-47 -52 0
-47 -53 0
-47 -54 0
-47 -55 0
-47 -56 0
-47 -57 0
-48 -49 0
-48 -50 0
-48 -51 0
-48 -52 0
-48 -53 0
-48 -54 0
-48 -55 0
-48 -56 0
-48 -57 0
-49 -50 0
-49 -51 0
-49 -52 0
-49 -53 0
-49 -54 0
-49 -55 0
-49 -56 0
-49 -57 0
-50 -51 0
-50 -52 0
-50 -53 0
-50 -54 0
-50 -55 0
-50 -56 0
-50 -57 0
-51 -52 0
-51 -53 0
-51 -54 0
-51 -55 0
-51 -56 0
-51 -57 0
-52 -53 0
-52 -54 0
-52 -55 0
-52 -56 0
-52 -57 0
-53 -54 0
-53 -55 0
-53 -56 0
-53 -57 0
-54 -55 0
-54 -56 0
-54 -57 0
-55 -56 0
-55 -57 0
-56 -57 0
58 59 60 61 62 63 64 65 66 67 68 69 0
-58 -59 0
-58 -60 0
-58 -61 0
-58 -62 0
-58 -63 0
-58 -64 0
-58 -65 0
-58 -66 0
-58 -67 0
-58 -68 0
-58 -69 0
-59 -60 0
-59 -61 0
-59 -62 0
-59 -63 0
-59 -64 0
-59 -65 0
-59 -66 0
-59 -67 0
-59 -68 0
-59 -69 0
-60 -61 0
-60 -62 0
-60 -63 0
-60 -64 0
-60 -65 0
-60 -66 0
-60 -67 0
-60 -68 0
-60 -69 0
-61 -62 0
-61 -63 0
-61 -64 0
-61 -65 0
-61 -66 0
-61 -67 0
-61 -68 0
-61 -69 0
-62 -63 0
-62 -64 0
-62 -65 0
-62 -66 0
-62 -67 0
-62 -68 0
-62 -69 0
-63 -64 0
-63 -65 0
-63 -66 0
-63 -67 0
-63 -68 0
-63 -69 0
-64 -65 0
-64 -66 0
-64 -67 0
-64 -68 0
-64 -69 0
-65 -66 0
-65 -67 0
-65 -68 0
-65 -69 0
-66 -67 0
-66 -68 0
-66 -69 0
-67 -68 0
-67 -69 0
-68 -69 0
70 71 72 73 74 75 76 77 78 79 80 81 0
-70 -71 0
-70 -72 0
-70 -73 0
-70 -74 0
-70 -75 0
-70 -76 0
-70 -77 0
-70 -78 0
-70 -79 0
-70 -80 0
-70 -81 0
-71 -72 0
-71 -73 0
-71 -74 0
-71 -75 0
-71 -76 0
-71 -77 0
-71 -78 0
-71 -79 0
-71 -80 0
-71 -81 0
-72 -73 0
-72 -74 0
-72 -75 0
-72 -76 0
-72 -77 0
-72 -78 0
-72 -79 0
-72 -80 0
-72 -81 0
-73 -74 0
-73 -75 0
-73 -76 0
-73 -77 0
-73 -78 0
-73 -79 0
-73 -80 0
-73 -81 0
-74 -75 0
-74 -76 0
-74 -77 0
-74 -78 0
-74 -79 0
-74 -80 0
-74 -81 0
-75 -76 0
-75 -77 0
-75 -78 0
-75 -79 0
-75 -80 0
-75 -81 0
-76 -77 0
-76 -78 0
-76 -79 0
-76 -80 0
-76 -81 0
-77 -78 0
-77 -79 0
-77 -80 0
-77 -81 0
-78 -79 0
-78 -80 0
-78 -81 0
-79 -80 0
-79 -81 0
-80 -81 0
82 83 84 85 86 87 88 89 90 91 92 93 0
-82 -83 0
-82 -84 0
-82 -85 0
-82 -86 0
-82 -87 0
-82 -88 0
-82 -89 0
-82 -90 0
-82 -91 0
-82 -92 0
-82 -93 0
-83 -84 0
-83 -85 0
-83 -86 0
-83 -87 0
-83 -88 0
-83 -89 0
-83 -90 0
-83 -91 0
-83 -92 0
-83 -93 0
-84 -85 0
-84 -86 0
-84 -87 0
-84 -88 0
-84 -89 0
-84 -90 0
-84 -91 0
-84 -92 0
-84 -93 0
-85 -86 0
-85 -87 0
-85 -88 0
-85 -89 0
-85 -90 0
-85 -91 0
-85 -92 0
-85 -93 0
-86 -87 0
-86 -88 0
-86 -89 0
-86 -90 0
-86 -91 0
-86 -92 0
-86 -93 0
-87 -88 0
-87 -89 0
-87 -90 0
-87 -91 0
-87 -92 0
-87 -93 0
-88 -89 0
-88 -90 0
-88 -91 0
-88 -92 0
-88 -93 0
-89 -90 0
-89 -91 0
-89 -92 0
-89 -93 0
-90 -91 0
-90 -92 0
-90 -93 0
-91 -92 0
-91 -93 0
-92 -93 0
94 95 96 97 98 99 100 101 102 103 104 0
-94 -95 0
-94 -96 0
-94 -97 0
-94 -98 0
-94 -99 0
-94 -100 0
-94 -101 0
-94 -102 0
-94 -103 0
-94 -104 0
-95 -96 0
-95 -97 0
-95 -98 0
-95 -99 0
-95 -100 0
-95 -101 0
-95 -102 0
-95 -103 0
-95 -104 0
-96 -97 0
-96 -98 0
-96 -99 0
-96 -100 0
-96 -101 0
-96 -102 0
-96 -103 0
-96 -104 0
-97 -98 0
-97 -99 0
-97 -100 0
-97 -101 0
-97 -102 0
-97 -103 0
-97 -104 0
-98 -99 0
-98 -100 0
-98 -101 0
-98 -102 0
-98 -103 0
-98 -104 0
-99 -100 0
-99 -101 0
-99 -102 0
-99 -103 0
-99 -104 0
-100 -101 0
-100 -102 0
-100 -103 0
-100 -104 0
-101 -102 0
-101 -103 0
-101 -104 0
-102 -103 0
-102 -104 0
-103 -104 0
105 106 107 108 109 110 111 112 113 114 115 0
-105 -106 0
-105 -107 0
-105 -108 0
-105 -109 0
-105 -110 0
-105 -111 0
-105 -112 0
-105 -113 0
-105 -114 0
-105 -115 0
-106 -107 0
-106 -108 0
-106 -109 0
-106 -110 0
-106 -111 0
-106 -112 0
-106 -113 0
-106 -114 0
-106 -115 0
-107 -108 0
-107 -109 0
-107 -110 0
-107 -111 0
-107 -112 0
-107 -113 0
-107 -114 0
-107 -115 0
-108 -109 0
-108 -110 0
-108 -111 0
-108 -112 0
-108 -113 0
-108 -114 0
-108 -115 0
-109 -110 0
-109 -111 0
-109 -112 0
-109 -113 0
-109 -114 0
-109 -115 0
-110 -111 0
-110 -112 0
-110 -113 0
-110 -114 0
-110 -115 0
-111 -112 0
-111 -113 0
-111 -114 0
-111 -115 0
-112 -113 0
-112 -114 0
-112 -115 0
-113 -114 0
-113 -115 0
-114 -115 0
116 117 118 119 120 121 122 123 124 125 126 0
-116 -117 0
-116 -118 0
-116 -119 0
-116 -120 0
-116 -121 0
-116 -122 0
-116 -123 0
-116 -124 0
-116 -125 0
-116 -126 0
-117 -118 0
-117 -119 0
-117 -120 0
-117 -121 0
-117 -122 0
-117 -123 0
-117 -124 0
-117 -125 0
-117 -126 0
-118 -119 0
-118 -120 0
-118 -121 0
-118 -122 0
-118 -123 0
-118 -124 0
-118 -125 0
-118 -126 0
-119 -120 0
-119 -121 0
-119 -122 0
-119 -123 0
-119 -124 0
-119 -125 0
-119 -126 0
-120 -121 0
-120 -122 0
-120 -123 0
-120 -124 0
-120 -125 0
-120 -126 0
-121 -122 0
-121 -123 0
-121 -124 0
-121 -125 0
-121 -126 0
-122 -123 0
-122 -124 0
-122 -125 0
-122 -126 0
-123 -124 0
-123 -125 0
-123 -126 0
-124 -125 0
-124 -126 0
-125 -126 0
127 128 129 130 131 132 133 134 135 136 137 0
-127 -128 0
-127 -129 0
-127 -130 0
-127 -131 0
-127 -132 0
-127 -133 0
-127 -134 0
-127 -135 0
-127 -136 0
-127 -137 0
-128 -129 0
-128 -130 0
-128 -131 0
-128 -132 0
-128 -133 0
-128 -134 0
-128 -135 0
-128 -136 0
-128 -137 0
-129 -130 0
-129 -131 0
-129 -132 0
-129 -133 0
-129 -134 0
-129 -135 0
-129 -136 0
-129 -137 0
-130 -131 0
-130 -132 0
-130 -133 0
-130 -134 0
-130 -135 0
-130 -136 0
-130 -137 0
-131 -132 0
-131 -133 0
-131 -134 0
-131 -135 0
-131 -136 0
-131 -137 0
-132 -133 0
-132 -134 0
-132 -135 0
-132 -136 0
-132 -137 0
-133 -134 0
-133 -135 0
-133 -136 0
-133 -137 0
-134 -135 0
-134 -136 0
-134 -137 0
-135 -136 0
-135 -137 0
-136 -137 0
138 139 140 141 142 143 144 145 146 147 148 149 0
-138 -139 0
-138 -140 0
-138 -141 0
-138 -142 0
-138 -143 0
-138 -144 0
-138 -145 0
-138 -146 0
-138 -147 0
-138 -148 0
-138 -149 0
-139 -140 0
-139 -141 0
-139 -142 0
-139 -143 0
-139 -144 0
-139 -145 0
-139 -146 0
-139 -147 0
-139 -148 0
-139 -149 0
-140 -141 0
-140 -142 0
-140 -143 0
-140 -144 0
-140 -145 0
-140 -146 0
-140 -147 0
-140 -148 0
-140 -149 0
-141 -142 0
-141 -143 0
-141 -144 0
-141 -145 0
-141 -146 0
-141 -147 0
-141 -148 0
-141 -149 0
-142 -143 0
-142 -144 0
-142 -145 0
-142 -146 0
-142 -147 0
-142 -148 0
-142 -149 0
-143 -144 0
-143 -145 0
-143 -146 0
-143 -147 0
-143 -148 0
-143 -149 0
-144 -145 0
-144 -146 0
-144 -147 0
-144 -148 0
-144 -149 0
-145 -146 0
-145 -147 0
-145 -148 0
-145 -149 0
-146 -147 0
-146 -148 0
-146 -149 0
-147 -148 0
-147 -149 0
-148 -149 0
150 151 152 153 154 155 156 157 158 159 160 161 0
-150 -151 0
-150 -152 0
-150 -153 0
-150 -154 0
-150 -155 0
-150 -156 0
-150 -157 0
-150 -158 0
-150 -159 0
-150 -160 0
-150 -161 0
-151 -152 0
-151 -153 0
-151 -154 0
-151 -155 0
-151 -156 0
-151 -157 0
-151 -158 0
-151 -159 0
-151 -160 0
-151 -161 0
-152 -153 0
-152 -154 0
-152 -155 0
-152 -156 0
-152 -157 0
-152 -158 0
-152 -159 0
-152 -160 0
-152 -161 0
-153 -154 0
-153 -155 0
-153 -156 0
-153 -157 0
-153 -158 0
-153 -159 0
-153 -160 0
-153 -161 0
-154 -155 0
-154 -156 0
-154 -157 0
-154 -158 0
-154 -159 0
-154 -160 0
-154 -161 0
-155 -156 0
-155 -157 0
-155 -158 0
-155 -159 0
-155 -160 0
-155 -161 0
-156 -157 0
-156 -158 0
-156 -159 0
-156 -160 0
-156 -161 0
-157 -158 0
-157 -159 0
-157 -160 0
-157 -161 0
-158 -159 0
-158 -160 0
-158 -161 0
-159 -160 0
-159 -161 0
-160 -161 0
162 163 164 165 166 167 168 169 170 171 172 0
-162 -163 0
-162 -164 0
-162 -165 0
-162 -166 0
-162 -167 0
-162 -168 0
-162 -169 0
-162 -170 0
-162 -171 0
-162 -172 0
-163 -164 0
-163 -165 0
-163 -166 0
-163 -167 0
-163 -168 0
-163 -169 0
-163 -170 0
-163 -171 0
-163 -172 0
-164 -165 0
-164 -166 0
-164 -167 0
-164 -168 0
-164 -169 0
-164 -170 0
-164 -171 0
-164 -172 0
-165 -166 0
-165 -167 0
-165 -168 0
-165 -169 0
-165 -170 0
-165 -171 0
-165 -172 0
-166 -167 0
-166 -168 0
-166 -169 0
-166 -170 0
-166 -171 0
-166 -172 0
-167 -168 0
-167 -169 0
-167 -170 0
-167 -171 0
-167 -172 0
-168 -169 0
-168 -170 0
-168 -171 0
-168 -172 0
-169 -170 0
-169 -171 0
-169 -172 0
-170 -171 0
-170 -172 0
-171 -172 0
173 174 175 176 177 178 179 180 181 182 183 0
-173 -174 0
-173 -175 0
-173 -176 0
-173 -177 0
-173 -178 0
-173 -179 0
-173 -180 0
-173 -181 0
-173 -182 0
-173 -183 0
-174 -175 0
-174 -176 0
-174 -177 0
-174 -178 0
-174 -179 0
-174 -180 0
-174 -181 0
-174 -182 0
-174 -183 0
-175 -176 0
-175 -177 0
-175 -178 0
-175 -179 0
-175 -180 0
-175 -181 0
-175 -182 0
-175 -183 0
-176 -177 0
-176 -178 0
-176 -179 0
-176 -180 0
-176 -181 0
-176 -182 0
-176 -183 0
-177 -178 0
-177 -179 0
-177 -180 0
-177 -181 0
-177 -182 0
-177 -183 0
-178 -179 0
-178 -180 0
-178 -181 0
-178 -182 0
-178 -183 0
-179 -180 0
-179 -181 0
-179 -182 0
-179 -183 0
-180 -181 0
-180 -182 0
-180 -183 0
-181 -182 0
-181 -183 0
-182 -183 0
184 185 186 187 188 189 190 191 192 193 194 195 0
-184 -185 0
-184 -186 0
-184 -187 0
-184 -188 0
-184 -189 0
-184 -190 0
-184 -191 0
-184 -192 0
-184 -193 0
-184 -194 0
-184 -195 0
-185 -186 0
-185 -187 0
-185 -188 0
-185 -189 0
-185 -190 0
-185 -191 0
-185 -192 0
-185 -193 0
-185 -194 0
-185 -195 0
-186 -187 0
-186 -188 0
-186 -189 0
-186 -190 0
-186 -191 0
-186 -192 0
-186 -193 0
-186 -194 0
-186 -195 0
-187 -188 0
-187 -189 0
-187 -190 0
-187 -191 0
-187 -192 0
-187 -193 0
-187 -194 0
-187 -195 0
-188 -189 0
-188 -190 0
-188 -191 0
-188 -192 0
-188 -193 0
-188 -194 0
-188 -195 0
-189 -190 0
-189 -191 0
-189 -192 0
-189 -193 0
-189 -194 0
-189 -195 0
-190 -191 0
-190 -192 0
-190 -193 0
-190 -194 0
-190 -195 0
-191 -192 0
-191 -193 0
-191 -194 0
-191 -195 0
-192 -193 0
-192 -194 0
-192 -195 0
-193 -194 0
-193 -195 0
-194 -195 0
196 197 198 199 200 201 202 203 204 205 206 0
-196 -197 0
-196 -198 0
-196 -199 0
-196 -200 0
-196 -201 0
-196 -202 0
-196 -203 0
-196 -204 0
-196 -205 0
-196 -206 0
-197 -198 0
-197 -199 0
-197 -200 0
-197 -201 0
-197 -202 0
-197 -203 0
-197 -204 0
-197 -205 0
-197 -206 0
-198 -199 0
-198 -200 0
-198 -201 0
-198 -202 0
-198 -203 0
-198 -204 0
-198 -205 0
-198 -206 0
-199 -200 0
-199 -201 0
-199 -202 0
-199 -203 0
-199 -204 0
-199 -205 0
-199 -206 0
-200 -201 0
-200 -202 0
-200 -203 0
-200 -204 0
-200 -205 0
-200 -206 0
-201 -202 0
-201 -203 0
-201 -204 0
-201 -205 0
-201 -206 0
-202 -203 0
-202 -204 0
-202 -205 0
-202 -206 0
-203 -204 0
-203 -205 0
-203 -206 0
-204 -205 0
-204 -206 0
-205 -206 0
207 208 209 210 211 212 213 214 215 216 217 0
-207 -208 0
-207 -209 0
-207 -210 0
-207 -211 0
-207 -212 0
-207 -213 0
-207 -214 0
-207 -215 0
-207 -216 0
-207 -217 0
-208 -209 0
-208 -210 0
-208 -211 0
-208 -212 0
-208 -213 0
-208 -214 0
-208 -215 0
-208 -216 0
-208 -217 0
-209 -210 0
-209 -211 0
-209 -212 0
-209 -213 0
-209 -214 0
-209 -215 0
-209 -216 0
-209 -217 0
-210 -211 0
-210 -212 0
-210 -213 0
-210 -214 0
-210 -215 0
-210 -216 0
-210 -217 0
-211 -212 0
-211 -213 0
-211 -214 0
-211 -215 0
-211 -216 0
-211 -217 0
-212 -213 0
-212 -214 0
-212 -215 0
-212 -216 0
-212 -217 0
-213 -214 0
-213 -215 0
-213 -216 0
-213 -217 0
-214 -215 0
-214 -216 0
-214 -217 0
-215 -216 0
-215 -217 0
-216 -217 0
218 219 220 221 222 223 224 225 226 227 228 0
-218 -219 0
-218 -220 0
-218 -221 0
-218 -222 0
-218 -223 0
-218 -224 0
-218 -225 0
-218 -226 0
-218 -227 0
-218 -228 0
-219 -220 0
-219 -221 0
-219 -222 0
-219 -223 0
-219 -224 0
-219 -225 0
-219 -226 0
-219 -227 0
-219 -228 0
-220 -221 0
-220 -222 0
-220 -223 0
-220 -224 0
-220 -225 0
-220 -226 0
-220 -227 0
-220 -228 0
-221 -222 0
-221 -223 0
-221 -224 0
-221 -225 0
-221 -226 0
-221 -227 0
-221 -228 0
-222 -223 0
-222 -224 0
-222 -225 0
-222 -226 0
-222 -227 0
-222 -228 0
-223 -224 0
-223 -225 0
-223 -226 0
-223 -227 0
-223 -228 0
-224 -225 0
-224 -226 0
-224 -227 0
-224 -228 0
-225 -226 0
-225 -227 0
-225 -228 0
-226 -227 0
-226 -228 0
-227 -228 0
229 230 231 232 233 234 235 236 237 238 239 0
-229 -230 0
-229 -231 0
-229 -232 0
-229 -233 0
-229 -234 0
-229 -235 0
-229 -236 0
-229 -237 0
-229 -238 0
-229 -239 0
-230 -231 0
-230 -232 0
-230 -233 0
-230 -234 0
-230 -235 0
-230 -236 0
-230 -237 0
-230 -238 0
-230 -239 0
-231 -232 0
-231 -233 0
-231 -234 0
-231 -235 0
-231 -236 0
-231 -237 0
-231 -238 0
-231 -239 0
-232 -233 0
-232 -234 0
-232 -235 0
-232 -236 0
-232 -237 0
-232 -238 0
-232 -239 0
-233 -234 0
-233 -235 0
-233 -236 0
-233 -237 0
-233 -238 0
-233 -239 0
-234 -235 0
-234 -236 0
-234 -237 0
-234 -238 0
-234 -239 0
-235 -236 0
-235 -237 0
-235 -238 0
-235 -239 0
-236 -237 0
-236 -238 0
-236 -239 0
-237 -238 0
-237 -239 0
-238 -239 0
240 241 242 243 244 245 246 247 248 249 250 0
-240 -241 0
-240 -242 0
-240 -243 0
-240 -244 0
-240 -245 0
-240 -246 0
-240 -247 0
-240 -248 0
-240 -249 0
-240 -250 0
-241 -242 0
-241 -243 0
-241 -244 0
-241 -245 0
-241 -246 0
-241 -247 0
-241 -248 0
-241 -249 0
-241 -250 0
-242 -243 0
-242 -244 0
-242 -245 0
-242 -246 0
-242 -247 0
-242 -248 0
-242 -249 0
-242 -250 0
-243 -244 0
-243 -245 0
-243 -246 0
-243 -247 0
-243 -248 0
-243 -249 0
-243 -250 0
-244 -245 0
-244 -246 0
-244 -247 0
-244 -248 0
-244 -249 0
-244 -250 0
-245 -246 0
-245 -247 0
-245 -248 0
-245 -249 0
-245 -250 0
-246 -247 0
-246 -248 0
-246 -249 0
-246 -250 0
-247 -248 0
-247 -249 0
-247 -250 0
-248 -249 0
-248 -250 0
-249 -250 0
251 252 253 254 255 256 257 258 259 260 261 0
-251 -252 0
-251 -253 0
-251 -254 0
-251 -255 0
-251 -256 0
-251 -257 0
-251 -258 0
-251 -259 0
-251 -260 0
-251 -261 0
-252 -253 0
-252 -254 0
-252 -255 0
-252 -256 0
-252 -257 0
-252 -258 0
-252 -259 0
-252 -260 0
-252 -261 0
-253 -254 0
-253 -255 0
-253 -256 0
-253 -257 0
-253 -258 0
-253 -259 0
-253 -260 0
-253 -261 0
-254 -255 0
-254 -256 0
-254 -257 0
-254 -258 0
-254 -259 0
-254 -260 0
-254 -261 0
-255 -256 0
-255 -257 0
-255 -258 0
-255 -259 0
-255 -260 0
-255 -261 0
-256 -257 0
-256 -258 0
-256 -259 0
-256 -260 0
-256 -261 0
-257 -258 0
-257 -259 0
-257 -260 0
-257 -261 0
-258 -259 0
-258 -260 0
-258 -261 0
-259 -260 0
-259 -261 0
-260 -261 0
262 263 264 265 266 267 268 269 270 271 272 273 274 0
-262 -263 0
-262 -264 0
-262 -265 0
-262 -266 0
-262 -267 0
-262 -268 0
-262 -269 0
-262 -270 0
-262 -271 0
-262 -272 0
-262 -273 0
-262 -274 0
-263 -264 0
-263 -265 0
-263 -266 0
-263 -267 0
-263 -268 0
-263 -269 0
-263 -270 0
-263 -271 0
-263 -272 0
-263 -273 0
-263 -274 0
-264 -265 0
-264 -266 0
-264 -267 0
-264 -268 0
-264 -269 0
-264 -270 0
-264 -271 0
-264 -272 0
-264 -273 0
-264 -274 0
-265 -266 0
-265 -267 0
-265 -268 0
-265 -269 0
-265 -270 0
-265 -271 0
-265 -272 0
-265 -273 0
-265 -274 0
-266 -267 0
-266 -268 0
-266 -269 0
-266 -270 0
-266 -271 0
-266 -272 0
-266 -273 0
-266 -274 0
-267 -268 0
-267 -269 0
-267 -270 0
-267 -271 0
-267 -272 0
-267 -273 0
-267 -274 0
-268 -269 0
-268 -270 0
-268 -271 0
-268 -272 0
-268 -273 0
-268 -274 0
-269 -270 0
-269 -271 0
-269 -272 0
-269 -273 0
-269 -274 0
-270 -271 0
-270 -272 0
-270 -273 0
-270 -274 0
-271 -272 0
-271 -273 0
-271 -274 0
-272 -273 0
-272 -274 0
-273 -274 0
275 276 277 278 279 280 281 282 283 284 285 0
-275 -276 0
-275 -277 0
-275 -278 0
-275 -279 0
-275 -280 0
-275 -281 0
-275 -282 0
-275 -283 0
-275 -284 0
-275 -285 0
-276 -277 0
-276 -278 0
-276 -279 0
-276 -280 0
-276 -281 0
-276 -282 0
-276 -283 0
-276 -284 0
-276 -285 0
-277 -278 0
-277 -279 0
-277 -280 0
-277 -281 0
-277 -282 0
-277 -283 0
-277 -284 0
-277 -285 0
-278 -279 0
-278 -280 0
-278 -281 0
-278 -282 0
-278 -283 0
-278 -284 0
-278 -285 0
-279 -280 0
-279 -281 0
-279 -282 0
-279 -283 0
-279 -284 0
-279 -285 0
-280 -281 0
-280 -282 0
-280 -283 0
-280 -284 0
-280 -285 0
-281 -282 0
-281 -283 0
-281 -284 0
-281 -285 0
-282 -283 0
-282 -284 0
-282 -285 0
-283 -284 0
-283 -285 0
-284 -285 0
286 287 288 289 290 291 292 293 294 295 296 0
-286 -287 0
-286 -288 0
-286 -289 0
-286 -290 0
-286 -291 0
-286 -292 0
-286 -293 0
-286 -294 0
-286 -295 0
-286 -296 0
-287 -288 0
-287 -289 0
-287 -290 0
-287 -291 0
-287 -292 0
-287 -293 0
-287 -294 0
-287 -295 0
-287 -296 0
-288 -289 0
-288 -290 0
-288 -291 0
-288 -292 0
-288 -293 0
-288 -294 0
-288 -295 0
-288 -296 0
-289 -290 0
-289 -291 0
-289 -292 0
-289 -293 0
-289 -294 0
-289 -295 0
-289 -296 0
-290 -291 0
-290 -292 0
-290 -293 0
-290 -294 0
-290 -295 0
-290 -296 0
-291 -292 0
-291 -293 0
-291 -294 0
-291 -295 0
-291 -296 0
-292 -293 0
-292 -294 0
-292 -295 0
-292 -296 0
-293 -294 0
-293 -295 0
-293 -296 0
-294 -295 0
-294 -296 0
-295 -296 0
297 298 299 300 301 302 303 304 305 306 307 308 0
-297 -298 0
-297 -299 0
-297 -300 0
-297 -301 0
-297 -302 0
-297 -303 0
-297 -304 0
-297 -305 0
-297 -306 0
-297 -307 0
-297 -308 0
-298 -299 0
-298 -300 0
-298 -301 0
-298 -302 0
-298 -303 0
-298 -304 0
-298 -305 0
-298 -306 0
-298 -307 0
-298 -308 0
-299 -300 0
-299 -301 0
-299 -302 0
-299 -303 0
-299 -304 0
-299 -305 0
-299 -306 0
-299 -307 0
-299 -308 0
-300 -301 0
-300 -302 0
-300 -303 0
-300 -304 0
-300 -305 0
-300 -306 0
-300 -307 0
-300 -308 0
-301 -302 0
-301 -303 0
-301 -304 0
-301 -305 0
-301 -306 0
-301 -307 0
-301 -308 0
-302 -303 0
-302 -304 0
-302 -305 0
-302 -306 0
-302 -307 0
-302 -308 0
-303 -304 0
-303 -305 0
-303 -306 0
-303 -307 0
-303 -308 0
-304 -305 0
-304 -306 0
-304 -307 0
-304 -308 0
-305 -306 0
-305 -307 0
-305 -308 0
-306 -307 0
-306 -308 0
-307 -308 0
309 310 311 312 313 314 315 316 317 318 319 0
-309 -310 0
-309 -311 0
-309 -312 0
-309 -313 0
-309 -314 0
-309 -315 0
-309 -316 0
-309 -317 0
-309 -318 0
-309 -319 0
-310 -311 0
-310 -312 0
-310 -313 0
-310 -314 0
-310 -315 0
-310 -316 0
-310 -317 0
-310 -318 0
-310 -319 0
-311 -312 0
-311 -313 0
-311 -314 0
-311 -315 0
-311 -316 0
-311 -317 0
-311 -318 0
-311 -319 0
-312 -313 0
-312 -314 0
-312 -315 0
-312 -316 0
-312 -317 0
-312 -318 0
-312 -319 0
-313 -314 0
-313 -315 0
-313 -316 0
-313 -317 0
-313 -318 0
-313 -319 0
-314 -315 0
-314 -316 0
-314 -317 0
-314 -318 0
-314 -319 0
-315 -316 0
-315 -317 0
-315 -318 0
-315 -319 0
-316 -317 0
-316 -318 0
-316 -319 0
-317 -318 0
-317 -319 0
-318 -319 0
320 321 322 323 324 325 326 327 328 329 330 0
-320 -321 0
-320 -322 0
-320 -323 0
-320 -324 0
-320 -325 0
-320 -326 0
-320 -327 0
-320 -328 0
-320 -329 0
-320 -330 0
-321 -322 0
-321 -323 0
-321 -324 0
-321 -325 0
-321 -326 0
-321 -327 0
-321 -328 0
-321 -329 0
-321 -330 0
-322 -323 0
-322 -324 0
-322 -325 0
-322 -326 0
-322 -327 0
-322 -328 0
-322 -329 0
-322 -330 0
-323 -324 0
-323 -325 0
-323 -326 0
-323 -327 0
-323 -328 0
-323 -329 0
-323 -330 0
-324 -325 0
-324 -326 0
-324 -327 0
-324 -328 0
-324 -329 0
-324 -330 0
-325 -326 0
-325 -327 0
-325 -328 0
-325 -329 0
-325 -330 0
-326 -327 0
-326 -328 0
-326 -329 0
-326 -330 0
-327 -328 0
-327 -329 0
-327 -330 0
-328 -329 0
-328 -330 0
-329 -330 0
331 332 333 334 335 336 337 338 339 340 341 0
-331 -332 0
-331 -333 0
-331 -334 0
-331 -335 0
-331 -336 0
-331 -337 0
-331 -338 0
-331 -339 0
-331 -340 0
-331 -341 0
-332 -333 0
-332 -334 0
-332 -335 0
-332 -336 0
-332 -337 0
-332 -338 0
-332 -339 0
-332 -340 0
-332 -341 0
-333 -334 0
-333 -335 0
-333 -336 0
-333 -337 0
-333 -338 0
-333 -339 0
-333 -340 0
-333 -341 0
-334 -335 0
-334 -336 0
-334 -337 0
-334 -338 0
-334 -339 0
-334 -340 0
-334 -341 0
-335 -336 0
-335 -337 0
-335 -338 0
-335 -339 0
-335 -340 0
-335 -341 0
-336 -337 0
-336 -338 0
-336 -339 0
-336 -340 0
-336 -341 0
-337 -338 0
-337 -339 0
-337 -340 0
-337 -341 0
-338 -339 0
-338 -340 0
-338 -341 0
-339 -340 0
-339 -341 0
-340 -341 0
342 343 344 345 346 347 348 349 350 351 352 353 0
-342 -343 0
-342 -344 0
-342 -345 0
-342 -346 0
-342 -347 0
-342 -348 0
-342 -349 0
-342 -350 0
-342 -351 0
-342 -352 0
-342 -353 0
-343 -344 0
-343 -345 0
-343 -346 0
-343 -347 0
-343 -348 0
-343 -349 0
-343 -350 0
-343 -351 0
-343 -352 0
-343 -353 0
-344 -345 0
-344 -346 0
-344 -347 0
-344 -348 0
-344 -349 0
-344 -350 0
-344 -351 0
-344 -352 0
-344 -353 0
-345 -346 0
-345 -347 0
-345 -348 0
-345 -349 0
-345 -350 0
-345 -351 0
-345 -352 0
-345 -353 0
-346 -347 0
-346 -348 0
-346 -349 0
-346 -350 0
-346 -351 0
-346 -352 0
-346 -353 0
-347 -348 0
-347 -349 0
-347 -350 0
-347 -351 0
-347 -352 0
-347 -353 0
-348 -349 0
-348 -350 0
-348 -351 0
-348 -352 0
-348 -353 0
-349 -350 0
-349 -351 0
-349 -352 0
-349 -353 0
-350 -351 0
-350 -352 0
-350 -353 0
-351 -352 0
-351 -353 0
-352 -353 0
354 355 356 357 358 359 360 361 362 363 364 0
-354 -355 0
-354 -356 0
-354 -357 0
-354 -358 0
-354 -359 0
-354 -360 0
-354 -361 0
-354 -362 0
-354 -363 0
-354 -364 0
-355 -356 0
-355 -357 0
-355 -358 0
-355 -359 0
-355 -360 0
-355 -361 0
-355 -362 0
-355 -363 0
-355 -364 0
-356 -357 0
-356 -358 0
-356 -359 0
-356 -360 0
-356 -361 0
-356 -362 0
-356 -363 0
-356 -364 0
-357 -358 0
-357 -359 0
-357 -360 0
-357 -361 0
-357 -362 0
-357 -363 0
-357 -364 0
-358 -359 0
-358 -360 0
-358 -361 0
-358 -362 0
-358 -363 0
-358 -364 0
-359 -360 0
-359 -361 0
-359 -362 0
-359 -363 0
-359 -364 0
-360 -361 0
-360 -362 0
-360 -363 0
-360 -364 0
-361 -362 0
-361 -363 0
-361 -364 0
-362 -363 0
-362 -364 0
-363 -364 0
365 366 367 368 369 370 371 372 373 374 375 0
-365 -366 0
-365 -367 0
-365 -368 0
-365 -369 0
-365 -370 0
-365 -371 0
-365 -372 0
-365 -373 0
-365 -374 0
-365 -375 0
-366 -367 0
-366 -368 0
-366 -369 0
-366 -370 0
-366 -371 0
-366 -372 0
-366 -373 0
-366 -374 0
-366 -375 0
-367 -368 0
-367 -369 0
-367 -370 0
-367 -371 0
-367 -372 0
-367 -373 0
-367 -374 0
-367 -375 0
-368 -369 0
-368 -370 0
-368 -371 0
-368 -372 0
-368 -373 0
-368 -374 0
-368 -375 0
-369 -370 0
-369 -371 0
-369 -372 0
-369 -373 0
-369 -374 0
-369 -375 0
-370 -371 0
-370 -372 0
-370 -373 0
-370 -374 0
-370 -375 0
-371 -372 0
-371 -373 0
-371 -374 0
-371 -375 0
-372 -373 0
-372 -374 0
-372 -375 0
-373 -374 0
-373 -375 0
-374 -375 0
376 377 378 379 380 381 382 383 384 385 386 0
-376 -377 0
-376 -378 0
-376 -379 0
-376 -380 0
-376 -381 0
-376 -382 0
-376 -383 0
-376 -384 0
-376 -385 0
-376 -386 0
-377 -378 0
-377 -379 0
-377 -380 0
-377 -381 0
-377 -382 0
-377 -383 0
-377 -384 0
-377 -385 0
-377 -386 0
-378 -379 0
-378 -380 0
-378 -381 0
-378 -382 0
-378 -383 0
-378 -384 0
-378 -385 0
-378 -386 0
-379 -380 0
-379 -381 0
-379 -382 0
-379 -383 0
-379 -384 0
-379 -385 0
-379 -386 0
-380 -381 0
-380 -382 0
-380 -383 0
-380 -384 0
-380 -385 0
-380 -386 0
-381 -382 0
-381 -383 0
-381 -384 0
-381 -385 0
-381 -386 0
-382 -383 0
-382 -384 0
-382 -385 0
-382 -386 0
-383 -384 0
-383 -385 0
-383 -386 0
-384 -385 0
-384 -386 0
-385 -386 0
387 388 389 390 391 392 393 394 395 396 397 398 0
-387 -388 0
-387 -389 0
-387 -390 0
-387 -391 0
-387 -392 0
-387 -393 0
-387 -394 0
-387 -395 0
-387 -396 0
-387 -397 0
-387 -398 0
-388 -389 0
-388 -390 0
-388 -391 0
-388 -392 0
-388 -393 0
-388 -394 0
-388 -395 0
-388 -396 0
-388 -397 0
-388 -398 0
-389 -390 0
-389 -391 0
-389 -392 0
-389 -393 0
-389 -394 0
-389 -395 0
-389 -396 0
-389 -397 0
-389 -398 0
-390 -391 0
-390 -392 0
-390 -393 0
-390 -394 0
-390 -395 0
-390 -396 0
-390 -397 0
-390 -398 0
-391 -392 0
-391 -393 0
-391 -394 0
-391 -395 0
-391 -396 0
-391 -397 0
-391 -398 0
-392 -393 0
-392 -394 0
-392 -395 0
-392 -396 0
-392 -397 0
-392 -398 0
-393 -394 0
-393 -395 0
-393 -396 0
-393 -397 0
-393 -398 0
-394 -395 0
-394 -396 0
-394 -397 0
-394 -398 0
-395 -396 0
-395 -397 0
-395 -398 0
-396 -397 0
-396 -398 0
-397 -398 0
399 400 401 402 403 404 405 406 407 408 409 0
-399 -400 0
-399 -401 0
-399 -402 0
-399 -403 0
-399 -404 0
-399 -405 0
-399 -406 0
-399 -407 0
-399 -408 0
-399 -409 0
-400 -401 0
-400 -402 0
-400 -403 0
-400 -404 0
-400 -405 0
-400 -406 0
-400 -407 0
-400 -408 0
-400 -409 0
-401 -402 0
-401 -403 0
-401 -404 0
-401 -405 0
-401 -406 0
-401 -407 0
-401 -408 0
-401 -409 0
-402 -403 0
-402 -404 0
-402 -405 0
-402 -406 0
-402 -407 0
-402 -408 0
-402 -409 0
-403 -404 0
-403 -405 0
-403 -406 0
-403 -407 0
-403 -408 0
-403 -409 0
-404 -405 0
-404 -406 0
-404 -407 0
-404 -408 0
-404 -409 0
-405 -406 0
-405 -407 0
-405 -408 0
-405 -409 0
-406 -407 0
-406 -408 0
-406 -409 0
-407 -408 0
-407 -409 0
-408 -409 0
410 411 412 413 414 415 416 417 418 419 420 0
-410 -411 0
-410 -412 0
-410 -413 0
-410 -414 0
-410 -415 0
-410 -416 0
-410 -417 0
-410 -418 0
-410 -419 0
-410 -420 0
-411 -412 0
-411 -413 0
-411 -414 0
-411 -415 0
-411 -416 0
-411 -417 0
-411 -418 0
-411 -419 0
-411 -420 0
-412 -413 0
-412 -414 0
-412 -415 0
-412 -416 0
-412 -417 0
-412 -418 0
-412 -419 0
-412 -420 0
-413 -414 0
-413 -415 0
-413 -416 0
-413 -417 0
-413 -418 0
-413 -419 0
-413 -420 0
-414 -415 0
-414 -416 0
-414 -417 0
-414 -418 0
-414 -419 0
-414 -420 0
-415 -416 0
-415 -417 0
-415 -418 0
-415 -419 0
-415 -420 0
-416 -417 0
-416 -418 0
-416 -419 0
-416 -420 0
-417 -418 0
-417 -419 0
-417 -420 0
-418 -419 0
-418 -420 0
-419 -420 0
421 422 423 424 425 426 427 428 429 430 431 432 0
-421 -422 0
-421 -423 0
-421 -424 0
-421 -425 0
-421 -426 0
-421 -427 0
-421 -428 0
-421 -429 0
-421 -430 0
-421 -431 0
-421 -432 0
-422 -423 0
-422 -424 0
-422 -425 0
-422 -426 0
-422 -427 0
-422 -428 0
-422 -429 0
-422 -430 0
-422 -431 0
-422 -432 0
-423 -424 0
-423 -425 0
-423 -426 0
-423 -427 0
-423 -428 0
-423 -429 0
-423 -430 0
-423 -431 0
-423 -432 0
-424 -425 0
-424 -426 0
-424 -427 0
-424 -428 0
-424 -429 0
-424 -430 0
-424 -431 0
-424 -432 0
-425 -426 0
-425 -427 0
-425 -428 0
-425 -429 0
-425 -430 0
-425 -431 0
-425 -432 0
-426 -427 0
-426 -428 0
-426 -429 0
-426 -430 0
-426 -431 0
-426 -432 0
-427 -428 0
-427 -429 0
-427 -430 0
-427 -431 0
-427 -432 0
-428 -429 0
-428 -430 0
-428 -431 0
-428 -432 0
-429 -430 0
-429 -431 0
-429 -432 0
-430 -431 0
-430 -432 0
-431 -432 0
433 434 435 436 437 438 439 440 441 442 443 444 0
-433 -434 0
-433 -435 0
-433 -436 0
-433 -437 0
-433 -438 0
-433 -439 0
-433 -440 0
-433 -441 0
-433 -442 0
-433 -443 0
-433 -444 0
-434 -435 0
-434 -436 0
-434 -437 0
-434 -438 0
-434 -439 0
-434 -440 0
-434 -441 0
-434 -442 0
-434 -443 0
-434 -444 0
-435 -436 0
-435 -437 0
-435 -438 0
-435 -439 0
-435 -440 0
-435 -441 0
-435 -442 0
-435 -443 0
-435 -444 0
-436 -437 0
-436 -438 0
-436 -439 0
-436 -440 0
-436 -441 0
-436 -442 0
-436 -443 0
-436 -444 0
-437 -438 0
-437 -439 0
-437 -440 0
-437 -441 0
-437 -442 0
-437 -443 0
-437 -444 0
-438 -439 0
-438 -440 0
-438 -441 0
-438 -442 0
-438 -443 0
-438 -444 0
-439 -440 0
-439 -441 0
-439 -442 0
-439 -443 0
-439 -444 0
-440 -441 0
-440 -442 0
-440 -443 0
-440 -444 0
-441 -442 0
-441 -443 0
-441 -444 0
-442 -443 0
-442 -444 0
-443 -444 0
445 446 447 448 449 450 451 452 453 454 455 456 0
-445 -446 0
-445 -447 0
-445 -448 0
-445 -449 0
-445 -450 0
-445 -451 0
-445 -452 0
-445 -453 0
-445 -454 0
-445 -455 0
-445 -456 0
-446 -447 0
-446 -448 0
-446 -449 0
-446 -450 0
-446 -451 0
-446 -452 0
-446 -453 0
-446 -454 0
-446 -455 0
-446 -456 0
-447 -448 0
-447 -449 0
-447 -450 0
-447 -451 0
-447 -452 0
-447 -453 0
-447 -454 0
-447 -455 0
-447 -456 0
-448 -449 0
-448 -450 0
-448 -451 0
-448 -452 0
-448 -453 0
-448 -454 0
-448 -455 0
-448 -456 0
-449 -450 0
-449 -451 0
-449 -452 0
-449 -453 0
-449 -454 0
-449 -455 0
-449 -456 0
-450 -451 0
-450 -452 0
-450 -453 0
-450 -454 0
-450 -455 0
-450 -456 0
-451 -452 0
-451 -453 0
-451 -454 0
-451 -455 0
-451 -456 0
-452 -453 0
-452 -454 0
-452 -455 0
-452 -456 0
-453 -454 0
-453 -455 0
-453 -456 0
-454 -455 0
-454 -456 0
-455 -456 0
1 11 12 24 35 58 70 82 94 105 116 127 150 0
-1 -11 0
-1 -12 0
-1 -24 0
-1 -35 0
-1 -58 0
-1 -70 0
-1 -82 0
-1 -94 0
-1 -105 0
-1 -116 0
-1 -127 0
-1 -150 0
-11 -12 0
-11 -24 0
-11 -35 0
-11 -58 0
-11 -70 0
-11 -82 0
-11 -94 0
-11 -105 0
-11 -116 0
-11 -127 0
-11 -150 0
-12 -24 0
-12 -35 0
-12 -58 0
-12 -70 0
-12 -82 0
-12 -94 0
-12 -105 0
-12 -116 0
-12 -127 0
-12 -150 0
-24 -35 0
-24 -58 0
-24 -70 0
-24 -82 0
-24 -94 0
-24 -105 0
-24 -116 0
-24 -127 0
-24 -150 0
-35 -58 0
-35 -70 0
-35 -82 0
-35 -94 0
-35 -105 0
-35 -116 0
-35 -127 0
-35 -150 0
-58 -70 0
-58 -82 0
-58 -94 0
-58 -105 0
-58 -116 0
-58 -127 0
-58 -150 0
-70 -82 0
-70 -94 0
-70 -105 0
-70 -116 0
-70 -127 0
-70 -150 0
-82 -94 0
-82 -105 0
-82 -116 0
-82 -127 0
-82 -150 0
-94 -105 0
-94 -116 0
-94 -127 0
-94 -150 0
-105 -116 0
-105 -127 0
-105 -150 0
-116 -127 0
-116 -150 0
-127 -150 0
1 23 152 162 171 184 196 207 229 240 251 262 275 0
-1 -23 0
-1 -152 0
-1 -162 0
-1 -171 0
-1 -184 0
-1 -196 0
-1 -207 0
-1 -229 0
-1 -240 0
-1 -251 0
-1 -262 0
-1 -275 0
-23 -152 0
-23 -162 0
-23 -171 0
-23 -184 0
-23 -196 0
-23 -207 0
-23 -229 0
-23 -240 0
-23 -251 0
-23 -262 0
-23 -275 0
-152 -162 0
-152 -171 0
-152 -184 0
-152 -196 0
-152 -207 0
-152 -229 0
-152 -240 0
-152 -251 0
-152 -262 0
-152 -275 0
-162 -171 0
-162 -184 0
-162 -196 0
-162 -207 0
-162 -229 0
-162 -240 0
-162 -251 0
-162 -262 0
-162 -275 0
-171 -184 0
-171 -196 0
-171 -207 0
-171 -229 0
-171 -240 0
-171 -251 0
-171 -262 0
-171 -275 0
-184 -196 0
-184 -207 0
-184 -229 0
-184 -240 0
-184 -251 0
-184 -262 0
-184 -275 0
-196 -207 0
-196 -229 0
-196 -240 0
-196 -251 0
-196 -262 0
-196 -275 0
-207 -229 0
-207 -240 0
-207 -251 0
-207 -262 0
-207 -275 0
-229 -240 0
-229 -251 0
-229 -262 0
-229 -275 0
-240 -251 0
-240 -262 0
-240 -275 0
-251 -262 0
-251 -275 0
-262 -275 0
12 34 140 152 183 277 286 295 309 331 342 354 365 0
-12 -34 0
-12 -140 0
-12 -152 0
-12 -183 0
-12 -277 0
-12 -286 0
-12 -295 0
-12 -309 0
-12 -331 0
-12 -342 0
-12 -354 0
-12 -365 0
-34 -140 0
-34 -152 0
-34 -183 0
-34 -277 0
-34 -286 0
-34 -295 0
-34 -309 0
-34 -331 0
-34 -342 0
-34 -354 0
-34 -365 0
-140 -152 0
-140 -183 0
-140 -277 0
-140 -286 0
-140 -295 0
-140 -309 0
-140 -331 0
-140 -342 0
-140 -354 0
-140 -365 0
-152 -183 0
-152 -277 0
-152 -286 0
-152 -295 0
-152 -309 0
-152 -331 0
-152 -342 0
-152 -354 0
-152 -365 0
-183 -277 0
-183 -286 0
-183 -295 0
-183 -309 0
-183 -331 0
-183 -342 0
-183 -354 0
-183 -365 0
-277 -286 0
-277 -295 0
-277 -309 0
-277 -331 0
-277 -342 0
-277 -354 0
-277 -365 0
-286 -295 0
-286 -309 0
-286 -331 0
-286 -342 0
-286 -354 0
-286 -365 0
-295 -309 0
-295 -331 0
-295 -342 0
-295 -354 0
-295 -365 0
-309 -331 0
-309 -342 0
-309 -354 0
-309 -365 0
-331 -342 0
-331 -354 0
-331 -365 0
-342 -354 0
-342 -365 0
-354 -365 0
24 129 140 162 194 265 306 367 376 385 387 410 421 0
-24 -129 0
-24 -140 0
-24 -162 0
-24 -194 0
-24 -265 0
-24 -306 0
-24 -367 0
-24 -376 0
-24 -385 0
-24 -387 0
-24 -410 0
-24 -421 0
-129 -140 0
-129 -162 0
-129 -194 0
-129 -265 0
-129 -306 0
-129 -367 0
-129 -376 0
-129 -385 0
-129 -387 0
-129 -410 0
-129 -421 0
-140 -162 0
-140 -194 0
-140 -265 0
-140 -306 0
-140 -367 0
-140 -376 0
-140 -385 0
-140 -387 0
-140 -410 0
-140 -421 0
-162 -194 0
-162 -265 0
-162 -306 0
-162 -367 0
-162 -376 0
-162 -385 0
-162 -387 0
-162 -410 0
-162 -421 0
-194 -265 0
-194 -306 0
-194 -367 0
-194 -376 0
-194 -385 0
-194 -387 0
-194 -410 0
-194 -421 0
-265 -306 0
-265 -367 0
-265 -376 0
-265 -385 0
-265 -387 0
-265 -410 0
-265 -421 0
-306 -367 0
-306 -376 0
-306 -385 0
-306 -387 0
-306 -410 0
-306 -421 0
-367 -376 0
-367 -385 0
-367 -387 0
-367 -410 0
-367 -421 0
-376 -385 0
-376 -387 0
-376 -410 0
-376 -421 0
-385 -387 0
-385 -410 0
-385 -421 0
-387 -410 0
-387 -421 0
-410 -421 0
35 57 120 129 206 255 277 318 357 423 433 442 445 0
-35 -57 0
-35 -120 0
-35 -129 0
-35 -206 0
-35 -255 0
-35 -277 0
-35 -318 0
-35 -357 0
-35 -423 0
-35 -433 0
-35 -442 0
-35 -445 0
-57 -120 0
-57 -129 0
-57 -206 0
-57 -255 0
-57 -277 0
-57 -318 0
-57 -357 0
-57 -423 0
-57 -433 0
-57 -442 0
-57 -445 0
-120 -129 0
-120 -206 0
-120 -255 0
-120 -277 0
-120 -318 0
-120 -357 0
-120 -423 0
-120 -433 0
-120 -442 0
-120 -445 0
-129 -206 0
-129 -255 0
-129 -277 0
-129 -318 0
-129 -357 0
-129 -423 0
-129 -433 0
-129 -442 0
-129 -445 0
-206 -255 0
-206 -277 0
-206 -318 0
-206 -357 0
-206 -423 0
-206 -433 0
-206 -442 0
-206 -445 0
-255 -277 0
-255 -318 0
-255 -357 0
-255 -423 0
-255 -433 0
-255 -442 0
-255 -445 0
-277 -318 0
-277 -357 0
-277 -423 0
-277 -433 0
-277 -442 0
-277 -445 0
-318 -357 0
-318 -423 0
-318 -433 0
-318 -442 0
-318 -445 0
-357 -423 0
-357 -433 0
-357 -442 0
-357 -445 0
-423 -433 0
-423 -442 0
-423 -445 0
-433 -442 0
-433 -445 0
-442 -445 0
69 111 120 184 216 246 265 286 329 346 414 450 454 0
-69 -111 0
-69 -120 0
-69 -184 0
-69 -216 0
-69 -246 0
-69 -265 0
-69 -286 0
-69 -329 0
-69 -346 0
-69 -414 0
-69 -450 0
-69 -454 0
-111 -120 0
-111 -184 0
-111 -216 0
-111 -246 0
-111 -265 0
-111 -286 0
-111 -329 0
-111 -346 0
-111 -414 0
-111 -450 0
-111 -454 0
-120 -184 0
-120 -216 0
-120 -246 0
-120 -265 0
-120 -286 0
-120 -329 0
-120 -346 0
-120 -414 0
-120 -450 0
-120 -454 0
-184 -216 0
-184 -246 0
-184 -265 0
-184 -286 0
-184 -329 0
-184 -346 0
-184 -414 0
-184 -450 0
-184 -454 0
-216 -246 0
-216 -265 0
-216 -286 0
-216 -329 0
-216 -346 0
-216 -414 0
-216 -450 0
-216 -454 0
-246 -265 0
-246 -286 0
-246 -329 0
-246 -346 0
-246 -414 0
-246 -450 0
-246 -454 0
-265 -286 0
-265 -329 0
-265 -346 0
-265 -414 0
-265 -450 0
-265 -454 0
-286 -329 0
-286 -346 0
-286 -414 0
-286 -450 0
-286 -454 0
-329 -346 0
-329 -414 0
-329 -450 0
-329 -454 0
-346 -414 0
-346 -450 0
-346 -454 0
-414 -450 0
-414 -454 0
-450 -454 0
58 81 101 111 196 234 255 336 340 367 404 419 439 0
-58 -81 0
-58 -101 0
-58 -111 0
-58 -196 0
-58 -234 0
-58 -255 0
-58 -336 0
-58 -340 0
-58 -367 0
-58 -404 0
-58 -419 0
-58 -439 0
-81 -101 0
-81 -111 0
-81 -196 0
-81 -234 0
-81 -255 0
-81 -336 0
-81 -340 0
-81 -367 0
-81 -404 0
-81 -419 0
-81 -439 0
-101 -111 0
-101 -196 0
-101 -234 0
-101 -255 0
-101 -336 0
-101 -340 0
-101 -367 0
-101 -404 0
-101 -419 0
-101 -439 0
-111 -196 0
-111 -234 0
-111 -255 0
-111 -336 0
-111 -340 0
-111 -367 0
-111 -404 0
-111 -419 0
-111 -439 0
-196 -234 0
-196 -255 0
-196 -336 0
-196 -340 0
-196 -367 0
-196 -404 0
-196 -419 0
-196 -439 0
-234 -255 0
-234 -336 0
-234 -340 0
-234 -367 0
-234 -404 0
-234 -419 0
-234 -439 0
-255 -336 0
-255 -340 0
-255 -367 0
-255 -404 0
-255 -419 0
-255 -439 0
-336 -340 0
-336 -367 0
-336 -404 0
-336 -419 0
-336 -439 0
-340 -367 0
-340 -404 0
-340 -419 0
-340 -439 0
-367 -404 0
-367 -419 0
-367 -439 0
-404 -419 0
-404 -439 0
-419 -439 0
70 88 93 101 207 238 246 309 351 357 376 394 430 0
-70 -88 0
-70 -93 0
-70 -101 0
-70 -207 0
-70 -238 0
-70 -246 0
-70 -309 0
-70 -351 0
-70 -357 0
-70 -376 0
-70 -394 0
-70 -430 0
-88 -93 0
-88 -101 0
-88 -207 0
-88 -238 0
-88 -246 0
-88 -309 0
-88 -351 0
-88 -357 0
-88 -376 0
-88 -394 0
-88 -430 0
-93 -101 0
-93 -207 0
-93 -238 0
-93 -246 0
-93 -309 0
-93 -351 0
-93 -357 0
-93 -376 0
-93 -394 0
-93 -430 0
-101 -207 0
-101 -238 0
-101 -246 0
-101 -309 0
-101 -351 0
-101 -357 0
-101 -376 0
-101 -394 0
-101 -430 0
-207 -238 0
-207 -246 0
-207 -309 0
-207 -351 0
-207 -357 0
-207 -376 0
-207 -394 0
-207 -430 0
-238 -246 0
-238 -309 0
-238 -351 0
-238 -357 0
-238 -376 0
-238 -394 0
-238 -430 0
-246 -309 0
-246 -351 0
-246 -357 0
-246 -376 0
-246 -394 0
-246 -430 0
-309 -351 0
-309 -357 0
-309 -376 0
-309 -394 0
-309 -430 0
-351 -357 0
-351 -376 0
-351 -394 0
-351 -430 0
-357 -376 0
-357 -394 0
-357 -430 0
-376 -394 0
-376 -430 0
-394 -430 0
76 82 88 104 211 234 249 314 346 362 382 387 423 0
-76 -82 0
-76 -88 0
-76 -104 0
-76 -211 0
-76 -234 0
-76 -249 0
-76 -314 0
-76 -346 0
-76 -362 0
-76 -382 0
-76 -387 0
-76 -423 0
-82 -88 0
-82 -104 0
-82 -211 0
-82 -234 0
-82 -249 0
-82 -314 0
-82 -346 0
-82 -362 0
-82 -382 0
-82 -387 0
-82 -423 0
-88 -104 0
-88 -211 0
-88 -234 0
-88 -249 0
-88 -314 0
-88 -346 0
-88 -362 0
-88 -382 0
-88 -387 0
-88 -423 0
-104 -211 0
-104 -234 0
-104 -249 0
-104 -314 0
-104 -346 0
-104 -362 0
-104 -382 0
-104 -387 0
-104 -423 0
-211 -234 0
-211 -249 0
-211 -314 0
-211 -346 0
-211 -362 0
-211 -382 0
-211 -387 0
-211 -423 0
-234 -249 0
-234 -314 0
-234 -346 0
-234 -362 0
-234 -382 0
-234 -387 0
-234 -423 0
-249 -314 0
-249 -346 0
-249 -362 0
-249 -382 0
-249 -387 0
-249 -423 0
-314 -346 0
-314 -362 0
-314 -382 0
-314 -387 0
-314 -423 0
-346 -362 0
-346 -382 0
-346 -387 0
-346 -423 0
-362 -382 0
-362 -387 0
-362 -423 0
-382 -387 0
-382 -423 0
-387 -423 0
65 76 94 115 203 229 260 303 331 336 373 414 433 0
-65 -76 0
-65 -94 0
-65 -115 0
-65 -203 0
-65 -229 0
-65 -260 0
-65 -303 0
-65 -331 0
-65 -336 0
-65 -373 0
-65 -414 0
-65 -433 0
-76 -94 0
-76 -115 0
-76 -203 0
-76 -229 0
-76 -260 0
-76 -303 0
-76 -331 0
-76 -336 0
-76 -373 0
-76 -414 0
-76 -433 0
-94 -115 0
-94 -203 0
-94 -229 0
-94 -260 0
-94 -303 0
-94 -331 0
-94 -336 0
-94 -373 0
-94 -414 0
-94 -433 0
-115 -203 0
-115 -229 0
-115 -260 0
-115 -303 0
-115 -331 0
-115 -336 0
-115 -373 0
-115 -414 0
-115 -433 0
-203 -229 0
-203 -260 0
-203 -303 0
-203 -331 0
-203 -336 0
-203 -373 0
-203 -414 0
-203 -433 0
-229 -260 0
-229 -303 0
-229 -331 0
-229 -336 0
-229 -373 0
-229 -414 0
-229 -433 0
-260 -303 0
-260 -331 0
-260 -336 0
-260 -373 0
-260 -414 0
-260 -433 0
-303 -331 0
-303 -336 0
-303 -373 0
-303 -414 0
-303 -433 0
-331 -336 0
-331 -373 0
-331 -414 0
-331 -433 0
-336 -373 0
-336 -414 0
-336 -433 0
-373 -414 0
-373 -433 0
-414 -433 0
65 105 126 191 211 240 273 292 342 404 410 445 450 0
-65 -105 0
-65 -126 0
-65 -191 0
-65 -211 0
-65 -240 0
-65 -273 0
-65 -292 0
-65 -342 0
-65 -404 0
-65 -410 0
-65 -445 0
-65 -450 0
-105 -126 0
-105 -191 0
-105 -211 0
-105 -240 0
-105 -273 0
-105 -292 0
-105 -342 0
-105 -404 0
-105 -410 0
-105 -445 0
-105 -450 0
-126 -191 0
-126 -211 0
-126 -240 0
-126 -273 0
-126 -292 0
-126 -342 0
-126 -404 0
-126 -410 0
-126 -445 0
-126 -450 0
-191 -211 0
-191 -240 0
-191 -273 0
-191 -292 0
-191 -342 0
-191 -404 0
-191 -410 0
-191 -445 0
-191 -450 0
-211 -240 0
-211 -273 0
-211 -292 0
-211 -342 0
-211 -404 0
-211 -410 0
-211 -445 0
-211 -450 0
-240 -273 0
-240 -292 0
-240 -342 0
-240 -404 0
-240 -410 0
-240 -445 0
-240 -450 0
-273 -292 0
-273 -342 0
-273 -404 0
-273 -410 0
-273 -445 0
-273 -450 0
-292 -342 0
-292 -404 0
-292 -410 0
-292 -445 0
-292 -450 0
-342 -404 0
-342 -410 0
-342 -445 0
-342 -450 0
-404 -410 0
-404 -445 0
-404 -450 0
-410 -445 0
-410 -450 0
-445 -450 0
44 116 137 203 251 284 314 354 394 421 439 442 454 0
-44 -116 0
-44 -137 0
-44 -203 0
-44 -251 0
-44 -284 0
-44 -314 0
-44 -354 0
-44 -394 0
-44 -421 0
-44 -439 0
-44 -442 0
-44 -454 0
-116 -137 0
-116 -203 0
-116 -251 0
-116 -284 0
-116 -314 0
-116 -354 0
-116 -394 0
-116 -421 0
-116 -439 0
-116 -442 0
-116 -454 0
-137 -203 0
-137 -251 0
-137 -284 0
-137 -314 0
-137 -354 0
-137 -394 0
-137 -421 0
-137 -439 0
-137 -442 0
-137 -454 0
-203 -251 0
-203 -284 0
-203 -314 0
-203 -354 0
-203 -394 0
-203 -421 0
-203 -439 0
-203 -442 0
-203 -454 0
-251 -284 0
-251 -314 0
-251 -354 0
-251 -394 0
-251 -421 0
-251 -439 0
-251 -442 0
-251 -454 0
-284 -314 0
-284 -354 0
-284 -394 0
-284 -421 0
-284 -439 0
-284 -442 0
-284 -454 0
-314 -354 0
-314 -394 0
-314 -421 0
-314 -439 0
-314 -442 0
-314 -454 0
-354 -394 0
-354 -421 0
-354 -439 0
-354 -442 0
-354 -454 0
-394 -421 0
-394 -439 0
-394 -442 0
-394 -454 0
-421 -439 0
-421 -442 0
-421 -454 0
-439 -442 0
-439 -454 0
-442 -454 0
33 44 127 149 170 191 262 303 365 382 385 419 430 0
-33 -44 0
-33 -127 0
-33 -149 0
-33 -170 0
-33 -191 0
-33 -262 0
-33 -303 0
-33 -365 0
-33 -382 0
-33 -385 0
-33 -419 0
-33 -430 0
-44 -127 0
-44 -149 0
-44 -170 0
-44 -191 0
-44 -262 0
-44 -303 0
-44 -365 0
-44 -382 0
-44 -385 0
-44 -419 0
-44 -430 0
-127 -149 0
-127 -170 0
-127 -191 0
-127 -262 0
-127 -303 0
-127 -365 0
-127 -382 0
-127 -385 0
-127 -419 0
-127 -430 0
-149 -170 0
-149 -191 0
-149 -262 0
-149 -303 0
-149 -365 0
-149 -382 0
-149 -385 0
-149 -419 0
-149 -430 0
-170 -191 0
-170 -262 0
-170 -303 0
-170 -365 0
-170 -382 0
-170 -385 0
-170 -419 0
-170 -430 0
-191 -262 0
-191 -303 0
-191 -365 0
-191 -382 0
-191 -385 0
-191 -419 0
-191 -430 0
-262 -303 0
-262 -365 0
-262 -382 0
-262 -385 0
-262 -419 0
-262 -430 0
-303 -365 0
-303 -382 0
-303 -385 0
-303 -419 0
-303 -430 0
-365 -382 0
-365 -385 0
-365 -419 0
-365 -430 0
-382 -385 0
-382 -419 0
-382 -430 0
-385 -419 0
-385 -430 0
-419 -430 0
22 33 161 275 292 295 306 318 329 340 351 362 373 0
-22 -33 0
-22 -161 0
-22 -275 0
-22 -292 0
-22 -295 0
-22 -306 0
-22 -318 0
-22 -329 0
-22 -340 0
-22 -351 0
-22 -362 0
-22 -373 0
-33 -161 0
-33 -275 0
-33 -292 0
-33 -295 0
-33 -306 0
-33 -318 0
-33 -329 0
-33 -340 0
-33 -351 0
-33 -362 0
-33 -373 0
-161 -275 0
-161 -292 0
-161 -295 0
-161 -306 0
-161 -318 0
-161 -329 0
-161 -340 0
-161 -351 0
-161 -362 0
-161 -373 0
-275 -292 0
-275 -295 0
-275 -306 0
-275 -318 0
-275 -329 0
-275 -340 0
-275 -351 0
-275 -362 0
-275 -373 0
-292 -295 0
-292 -306 0
-292 -318 0
-292 -329 0
-292 -340 0
-292 -351 0
-292 -362 0
-292 -373 0
-295 -306 0
-295 -318 0
-295 -329 0
-295 -340 0
-295 -351 0
-295 -362 0
-295 -373 0
-306 -318 0
-306 -329 0
-306 -340 0
-306 -351 0
-306 -362 0
-306 -373 0
-318 -329 0
-318 -340 0
-318 -351 0
-318 -362 0
-318 -373 0
-329 -340 0
-329 -351 0
-329 -362 0
-329 -373 0
-340 -351 0
-340 -362 0
-340 -373 0
-351 -362 0
-351 -373 0
-362 -373 0
22 150 170 171 183 194 206 216 238 249 260 273 284 0
-22 -150 0
-22 -170 0
-22 -171 0
-22 -183 0
-22 -194 0
-22 -206 0
-22 -216 0
-22 -238 0
-22 -249 0
-22 -260 0
-22 -273 0
-22 -284 0
-150 -170 0
-150 -171 0
-150 -183 0
-150 -194 0
-150 -206 0
-150 -216 0
-150 -238 0
-150 -249 0
-150 -260 0
-150 -273 0
-150 -284 0
-170 -171 0
-170 -183 0
-170 -194 0
-170 -206 0
-170 -216 0
-170 -238 0
-170 -249 0
-170 -260 0
-170 -273 0
-170 -284 0
-171 -183 0
-171 -194 0
-171 -206 0
-171 -216 0
-171 -238 0
-171 -249 0
-171 -260 0
-171 -273 0
-171 -284 0
-183 -194 0
-183 -206 0
-183 -216 0
-183 -238 0
-183 -249 0
-183 -260 0
-183 -273 0
-183 -284 0
-194 -206 0
-194 -216 0
-194 -238 0
-194 -249 0
-194 -260 0
-194 -273 0
-194 -284 0
-206 -216 0
-206 -238 0
-206 -249 0
-206 -260 0
-206 -273 0
-206 -284 0
-216 -238 0
-216 -249 0
-216 -260 0
-216 -273 0
-216 -284 0
-238 -249 0
-238 -260 0
-238 -273 0
-238 -284 0
-249 -260 0
-249 -273 0
-249 -284 0
-260 -273 0
-260 -284 0
-273 -284 0
11 23 34 57 69 81 93 104 115 126 137 149 161 0
-11 -23 0
-11 -34 0
-11 -57 0
-11 -69 0
-11 -81 0
-11 -93 0
-11 -104 0
-11 -115 0
-11 -126 0
-11 -137 0
-11 -149 0
-11 -161 0
-23 -34 0
-23 -57 0
-23 -69 0
-23 -81 0
-23 -93 0
-23 -104 0
-23 -115 0
-23 -126 0
-23 -137 0
-23 -149 0
-23 -161 0
-34 -57 0
-34 -69 0
-34 -81 0
-34 -93 0
-34 -104 0
-34 -115 0
-34 -126 0
-34 -137 0
-34 -149 0
-34 -161 0
-57 -69 0
-57 -81 0
-57 -93 0
-57 -104 0
-57 -115 0
-57 -126 0
-57 -137 0
-57 -149 0
-57 -161 0
-69 -81 0
-69 -93 0
-69 -104 0
-69 -115 0
-69 -126 0
-69 -137 0
-69 -149 0
-69 -161 0
-81 -93 0
-81 -104 0
-81 -115 0
-81 -126 0
-81 -137 0
-81 -149 0
-81 -161 0
-93 -104 0
-93 -115 0
-93 -126 0
-93 -137 0
-93 -149 0
-93 -161 0
-104 -115 0
-104 -126 0
-104 -137 0
-104 -149 0
-104 -161 0
-115 -126 0
-115 -137 0
-115 -149 0
-115 -161 0
-126 -137 0
-126 -149 0
-126 -161 0
-137 -149 0
-137 -161 0
-149 -161 0
1 2 13 46 59 83 95 106 117 138 151 0
-1 -2 0
-1 -13 0
-1 -46 0
-1 -59 0
-1 -83 0
-1 -95 0
-1 -106 0
-1 -117 0
-1 -138 0
-1 -151 0
-2 -13 0
-2 -46 0
-2 -59 0
-2 -83 0
-2 -95 0
-2 -106 0
-2 -117 0
-2 -138 0
-2 -151 0
-13 -46 0
-13 -59 0
-13 -83 0
-13 -95 0
-13 -106 0
-13 -117 0
-13 -138 0
-13 -151 0
-46 -59 0
-46 -83 0
-46 -95 0
-46 -106 0
-46 -117 0
-46 -138 0
-46 -151 0
-59 -83 0
-59 -95 0
-59 -106 0
-59 -117 0
-59 -138 0
-59 -151 0
-83 -95 0
-83 -106 0
-83 -117 0
-83 -138 0
-83 -151 0
-95 -106 0
-95 -117 0
-95 -138 0
-95 -151 0
-106 -117 0
-106 -138 0
-106 -151 0
-117 -138 0
-117 -151 0
-138 -151 0
2 12 153 163 172 197 218 230 241 252 276 0
-2 -12 0
-2 -153 0
-2 -163 0
-2 -172 0
-2 -197 0
-2 -218 0
-2 -230 0
-2 -241 0
-2 -252 0
-2 -276 0
-12 -153 0
-12 -163 0
-12 -172 0
-12 -197 0
-12 -218 0
-12 -230 0
-12 -241 0
-12 -252 0
-12 -276 0
-153 -163 0
-153 -172 0
-153 -197 0
-153 -218 0
-153 -230 0
-153 -241 0
-153 -252 0
-153 -276 0
-163 -172 0
-163 -197 0
-163 -218 0
-163 -230 0
-163 -241 0
-163 -252 0
-163 -276 0
-172 -197 0
-172 -218 0
-172 -230 0
-172 -241 0
-172 -252 0
-172 -276 0
-197 -218 0
-197 -230 0
-197 -241 0
-197 -252 0
-197 -276 0
-218 -230 0
-218 -241 0
-218 -252 0
-218 -276 0
-230 -241 0
-230 -252 0
-230 -276 0
-241 -252 0
-241 -276 0
-252 -276 0
13 24 141 153 287 296 297 310 332 343 355 0
-13 -24 0
-13 -141 0
-13 -153 0
-13 -287 0
-13 -296 0
-13 -297 0
-13 -310 0
-13 -332 0
-13 -343 0
-13 -355 0
-24 -141 0
-24 -153 0
-24 -287 0
-24 -296 0
-24 -297 0
-24 -310 0
-24 -332 0
-24 -343 0
-24 -355 0
-141 -153 0
-141 -287 0
-141 -296 0
-141 -297 0
-141 -310 0
-141 -332 0
-141 -343 0
-141 -355 0
-153 -287 0
-153 -296 0
-153 -297 0
-153 -310 0
-153 -332 0
-153 -343 0
-153 -355 0
-287 -296 0
-287 -297 0
-287 -310 0
-287 -332 0
-287 -343 0
-287 -355 0
-296 -297 0
-296 -310 0
-296 -332 0
-296 -343 0
-296 -355 0
-297 -310 0
-297 -332 0
-297 -343 0
-297 -355 0
-310 -332 0
-310 -343 0
-310 -355 0
-332 -343 0
-332 -355 0
-343 -355 0
35 141 163 195 266 307 368 377 388 399 411 0
-35 -141 0
-35 -163 0
-35 -195 0
-35 -266 0
-35 -307 0
-35 -368 0
-35 -377 0
-35 -388 0
-35 -399 0
-35 -411 0
-141 -163 0
-141 -195 0
-141 -266 0
-141 -307 0
-141 -368 0
-141 -377 0
-141 -388 0
-141 -399 0
-141 -411 0
-163 -195 0
-163 -266 0
-163 -307 0
-163 -368 0
-163 -377 0
-163 -388 0
-163 -399 0
-163 -411 0
-195 -266 0
-195 -307 0
-195 -368 0
-195 -377 0
-195 -388 0
-195 -399 0
-195 -411 0
-266 -307 0
-266 -368 0
-266 -377 0
-266 -388 0
-266 -399 0
-266 -411 0
-307 -368 0
-307 -377 0
-307 -388 0
-307 -399 0
-307 -411 0
-368 -377 0
-368 -388 0
-368 -399 0
-368 -411 0
-377 -388 0
-377 -399 0
-377 -411 0
-388 -399 0
-388 -411 0
-399 -411 0
46 58 112 217 247 266 287 347 415 451 455 0
-46 -58 0
-46 -112 0
-46 -217 0
-46 -247 0
-46 -266 0
-46 -287 0
-46 -347 0
-46 -415 0
-46 -451 0
-46 -455 0
-58 -112 0
-58 -217 0
-58 -247 0
-58 -266 0
-58 -287 0
-58 -347 0
-58 -415 0
-58 -451 0
-58 -455 0
-112 -217 0
-112 -247 0
-112 -266 0
-112 -287 0
-112 -347 0
-112 -415 0
-112 -451 0
-112 -455 0
-217 -247 0
-217 -266 0
-217 -287 0
-217 -347 0
-217 -415 0
-217 -451 0
-217 -455 0
-247 -266 0
-247 -287 0
-247 -347 0
-247 -415 0
-247 -451 0
-247 -455 0
-266 -287 0
-266 -347 0
-266 -415 0
-266 -451 0
-266 -455 0
-287 -347 0
-287 -415 0
-287 -451 0
-287 -455 0
-347 -415 0
-347 -451 0
-347 -455 0
-415 -451 0
-415 -455 0
-451 -455 0
59 70 102 112 197 228 297 341 368 405 440 0
-59 -70 0
-59 -102 0
-59 -112 0
-59 -197 0
-59 -228 0
-59 -297 0
-59 -341 0
-59 -368 0
-59 -405 0
-59 -440 0
-70 -102 0
-70 -112 0
-70 -197 0
-70 -228 0
-70 -297 0
-70 -341 0
-70 -368 0
-70 -405 0
-70 -440 0
-102 -112 0
-102 -197 0
-102 -228 0
-102 -297 0
-102 -341 0
-102 -368 0
-102 -405 0
-102 -440 0
-112 -197 0
-112 -228 0
-112 -297 0
-112 -341 0
-112 -368 0
-112 -405 0
-112 -440 0
-197 -228 0
-197 -297 0
-197 -341 0
-197 -368 0
-197 -405 0
-197 -440 0
-228 -297 0
-228 -341 0
-228 -368 0
-228 -405 0
-228 -440 0
-297 -341 0
-297 -368 0
-297 -405 0
-297 -440 0
-341 -368 0
-341 -405 0
-341 -440 0
-368 -405 0
-368 -440 0
-405 -440 0
82 89 102 224 239 247 310 325 352 377 395 0
-82 -89 0
-82 -102 0
-82 -224 0
-82 -239 0
-82 -247 0
-82 -310 0
-82 -325 0
-82 -352 0
-82 -377 0
-82 -395 0
-89 -102 0
-89 -224 0
-89 -239 0
-89 -247 0
-89 -310 0
-89 -325 0
-89 -352 0
-89 -377 0
-89 -395 0
-102 -224 0
-102 -239 0
-102 -247 0
-102 -310 0
-102 -325 0
-102 -352 0
-102 -377 0
-102 -395 0
-224 -239 0
-224 -247 0
-224 -310 0
-224 -325 0
-224 -352 0
-224 -377 0
-224 -395 0
-239 -247 0
-239 -310 0
-239 -325 0
-239 -352 0
-239 -377 0
-239 -395 0
-247 -310 0
-247 -325 0
-247 -352 0
-247 -377 0
-247 -395 0
-310 -325 0
-310 -352 0
-310 -377 0
-310 -395 0
-325 -352 0
-325 -377 0
-325 -395 0
-352 -377 0
-352 -395 0
-377 -395 0
77 83 89 94 212 218 250 315 347 363 388 0
-77 -83 0
-77 -89 0
-77 -94 0
-77 -212 0
-77 -218 0
-77 -250 0
-77 -315 0
-77 -347 0
-77 -363 0
-77 -388 0
-83 -89 0
-83 -94 0
-83 -212 0
-83 -218 0
-83 -250 0
-83 -315 0
-83 -347 0
-83 -363 0
-83 -388 0
-89 -94 0
-89 -212 0
-89 -218 0
-89 -250 0
-89 -315 0
-89 -347 0
-89 -363 0
-89 -388 0
-94 -212 0
-94 -218 0
-94 -250 0
-94 -315 0
-94 -347 0
-94 -363 0
-94 -388 0
-212 -218 0
-212 -250 0
-212 -315 0
-212 -347 0
-212 -363 0
-212 -388 0
-218 -250 0
-218 -315 0
-218 -347 0
-218 -363 0
-218 -388 0
-250 -315 0
-250 -347 0
-250 -363 0
-250 -388 0
-315 -347 0
-315 -363 0
-315 -388 0
-347 -363 0
-347 -388 0
-363 -388 0
77 95 105 204 224 230 261 332 374 399 415 0
-77 -95 0
-77 -105 0
-77 -204 0
-77 -224 0
-77 -230 0
-77 -261 0
-77 -332 0
-77 -374 0
-77 -399 0
-77 -415 0
-95 -105 0
-95 -204 0
-95 -224 0
-95 -230 0
-95 -261 0
-95 -332 0
-95 -374 0
-95 -399 0
-95 -415 0
-105 -204 0
-105 -224 0
-105 -230 0
-105 -261 0
-105 -332 0
-105 -374 0
-105 -399 0
-105 -415 0
-204 -224 0
-204 -230 0
-204 -261 0
-204 -332 0
-204 -374 0
-204 -399 0
-204 -415 0
-224 -230 0
-224 -261 0
-224 -332 0
-224 -374 0
-224 -399 0
-224 -415 0
-230 -261 0
-230 -332 0
-230 -374 0
-230 -399 0
-230 -415 0
-261 -332 0
-261 -374 0
-261 -399 0
-261 -415 0
-332 -374 0
-332 -399 0
-332 -415 0
-374 -399 0
-374 -415 0
-399 -415 0
54 106 116 212 241 274 293 325 343 405 411 451 0
-54 -106 0
-54 -116 0
-54 -212 0
-54 -241 0
-54 -274 0
-54 -293 0
-54 -325 0
-54 -343 0
-54 -405 0
-54 -411 0
-54 -451 0
-106 -116 0
-106 -212 0
-106 -241 0
-106 -274 0
-106 -293 0
-106 -325 0
-106 -343 0
-106 -405 0
-106 -411 0
-106 -451 0
-116 -212 0
-116 -241 0
-116 -274 0
-116 -293 0
-116 -325 0
-116 -343 0
-116 -405 0
-116 -411 0
-116 -451 0
-212 -241 0
-212 -274 0
-212 -293 0
-212 -325 0
-212 -343 0
-212 -405 0
-212 -411 0
-212 -451 0
-241 -274 0
-241 -293 0
-241 -325 0
-241 -343 0
-241 -405 0
-241 -411 0
-241 -451 0
-274 -293 0
-274 -325 0
-274 -343 0
-274 -405 0
-274 -411 0
-274 -451 0
-293 -325 0
-293 -343 0
-293 -405 0
-293 -411 0
-293 -451 0
-325 -343 0
-325 -405 0
-325 -411 0
-325 -451 0
-343 -405 0
-343 -411 0
-343 -451 0
-405 -411 0
-405 -451 0
-411 -451 0
54 117 127 181 204 252 285 315 355 395 440 455 0
-54 -117 0
-54 -127 0
-54 -181 0
-54 -204 0
-54 -252 0
-54 -285 0
-54 -315 0
-54 -355 0
-54 -395 0
-54 -440 0
-54 -455 0
-117 -127 0
-117 -181 0
-117 -204 0
-117 -252 0
-117 -285 0
-117 -315 0
-117 -355 0
-117 -395 0
-117 -440 0
-117 -455 0
-127 -181 0
-127 -204 0
-127 -252 0
-127 -285 0
-127 -315 0
-127 -355 0
-127 -395 0
-127 -440 0
-127 -455 0
-181 -204 0
-181 -252 0
-181 -285 0
-181 -315 0
-181 -355 0
-181 -395 0
-181 -440 0
-181 -455 0
-204 -252 0
-204 -285 0
-204 -315 0
-204 -355 0
-204 -395 0
-204 -440 0
-204 -455 0
-252 -285 0
-252 -315 0
-252 -355 0
-252 -395 0
-252 -440 0
-252 -455 0
-285 -315 0
-285 -355 0
-285 -395 0
-285 -440 0
-285 -455 0
-315 -355 0
-315 -395 0
-315 -440 0
-315 -455 0
-355 -395 0
-355 -440 0
-355 -455 0
-395 -440 0
-395 -455 0
-440 -455 0
138 150 181 276 293 296 307 341 352 363 374 0
-138 -150 0
-138 -181 0
-138 -276 0
-138 -293 0
-138 -296 0
-138 -307 0
-138 -341 0
-138 -352 0
-138 -363 0
-138 -374 0
-150 -181 0
-150 -276 0
-150 -293 0
-150 -296 0
-150 -307 0
-150 -341 0
-150 -352 0
-150 -363 0
-150 -374 0
-181 -276 0
-181 -293 0
-181 -296 0
-181 -307 0
-181 -341 0
-181 -352 0
-181 -363 0
-181 -374 0
-276 -293 0
-276 -296 0
-276 -307 0
-276 -341 0
-276 -352 0
-276 -363 0
-276 -374 0
-293 -296 0
-293 -307 0
-293 -341 0
-293 -352 0
-293 -363 0
-293 -374 0
-296 -307 0
-296 -341 0
-296 -352 0
-296 -363 0
-296 -374 0
-307 -341 0
-307 -352 0
-307 -363 0
-307 -374 0
-341 -352 0
-341 -363 0
-341 -374 0
-352 -363 0
-352 -374 0
-363 -374 0
11 151 172 195 217 228 239 250 261 274 285 0
-11 -151 0
-11 -172 0
-11 -195 0
-11 -217 0
-11 -228 0
-11 -239 0
-11 -250 0
-11 -261 0
-11 -274 0
-11 -285 0
-151 -172 0
-151 -195 0
-151 -217 0
-151 -228 0
-151 -239 0
-151 -250 0
-151 -261 0
-151 -274 0
-151 -285 0
-172 -195 0
-172 -217 0
-172 -228 0
-172 -239 0
-172 -250 0
-172 -261 0
-172 -274 0
-172 -285 0
-195 -217 0
-195 -228 0
-195 -239 0
-195 -250 0
-195 -261 0
-195 -274 0
-195 -285 0
-217 -228 0
-217 -239 0
-217 -250 0
-217 -261 0
-217 -274 0
-217 -285 0
-228 -239 0
-228 -250 0
-228 -261 0
-228 -274 0
-228 -285 0
-239 -250 0
-239 -261 0
-239 -274 0
-239 -285 0
-250 -261 0
-250 -274 0
-250 -285 0
-261 -274 0
-261 -285 0
-274 -285 0
2 3 25 47 71 84 96 107 118 128 139 152 0
-2 -3 0
-2 -25 0
-2 -47 0
-2 -71 0
-2 -84 0
-2 -96 0
-2 -107 0
-2 -118 0
-2 -128 0
-2 -139 0
-2 -152 0
-3 -25 0
-3 -47 0
-3 -71 0
-3 -84 0
-3 -96 0
-3 -107 0
-3 -118 0
-3 -128 0
-3 -139 0
-3 -152 0
-25 -47 0
-25 -71 0
-25 -84 0
-25 -96 0
-25 -107 0
-25 -118 0
-25 -128 0
-25 -139 0
-25 -152 0
-47 -71 0
-47 -84 0
-47 -96 0
-47 -107 0
-47 -118 0
-47 -128 0
-47 -139 0
-47 -152 0
-71 -84 0
-71 -96 0
-71 -107 0
-71 -118 0
-71 -128 0
-71 -139 0
-71 -152 0
-84 -96 0
-84 -107 0
-84 -118 0
-84 -128 0
-84 -139 0
-84 -152 0
-96 -107 0
-96 -118 0
-96 -128 0
-96 -139 0
-96 -152 0
-107 -118 0
-107 -128 0
-107 -139 0
-107 -152 0
-118 -128 0
-118 -139 0
-118 -152 0
-128 -139 0
-128 -152 0
-139 -152 0
3 13 162 164 173 185 219 231 242 253 263 0
-3 -13 0
-3 -162 0
-3 -164 0
-3 -173 0
-3 -185 0
-3 -219 0
-3 -231 0
-3 -242 0
-3 -253 0
-3 -263 0
-13 -162 0
-13 -164 0
-13 -173 0
-13 -185 0
-13 -219 0
-13 -231 0
-13 -242 0
-13 -253 0
-13 -263 0
-162 -164 0
-162 -173 0
-162 -185 0
-162 -219 0
-162 -231 0
-162 -242 0
-162 -253 0
-162 -263 0
-164 -173 0
-164 -185 0
-164 -219 0
-164 -231 0
-164 -242 0
-164 -253 0
-164 -263 0
-173 -185 0
-173 -219 0
-173 -231 0
-173 -242 0
-173 -253 0
-173 -263 0
-185 -219 0
-185 -231 0
-185 -242 0
-185 -253 0
-185 -263 0
-219 -231 0
-219 -242 0
-219 -253 0
-219 -263 0
-231 -242 0
-231 -253 0
-231 -263 0
-242 -253 0
-242 -263 0
-253 -263 0
25 130 164 184 267 308 378 386 389 400 422 0
-25 -130 0
-25 -164 0
-25 -184 0
-25 -267 0
-25 -308 0
-25 -378 0
-25 -386 0
-25 -389 0
-25 -400 0
-25 -422 0
-130 -164 0
-130 -184 0
-130 -267 0
-130 -308 0
-130 -378 0
-130 -386 0
-130 -389 0
-130 -400 0
-130 -422 0
-164 -184 0
-164 -267 0
-164 -308 0
-164 -378 0
-164 -386 0
-164 -389 0
-164 -400 0
-164 -422 0
-184 -267 0
-184 -308 0
-184 -378 0
-184 -386 0
-184 -389 0
-184 -400 0
-184 -422 0
-267 -308 0
-267 -378 0
-267 -386 0
-267 -389 0
-267 -400 0
-267 -422 0
-308 -378 0
-308 -386 0
-308 -389 0
-308 -400 0
-308 -422 0
-378 -386 0
-378 -389 0
-378 -400 0
-378 -422 0
-386 -389 0
-386 -400 0
-386 -422 0
-389 -400 0
-389 -422 0
-400 -422 0
46 121 130 173 196 319 358 424 434 443 446 0
-46 -121 0
-46 -130 0
-46 -173 0
-46 -196 0
-46 -319 0
-46 -358 0
-46 -424 0
-46 -434 0
-46 -443 0
-46 -446 0
-121 -130 0
-121 -173 0
-121 -196 0
-121 -319 0
-121 -358 0
-121 -424 0
-121 -434 0
-121 -443 0
-121 -446 0
-130 -173 0
-130 -196 0
-130 -319 0
-130 -358 0
-130 -424 0
-130 -434 0
-130 -443 0
-130 -446 0
-173 -196 0
-173 -319 0
-173 -358 0
-173 -424 0
-173 -434 0
-173 -443 0
-173 -446 0
-196 -319 0
-196 -358 0
-196 -424 0
-196 -434 0
-196 -443 0
-196 -446 0
-319 -358 0
-319 -424 0
-319 -434 0
-319 -443 0
-319 -446 0
-358 -424 0
-358 -434 0
-358 -443 0
-358 -446 0
-424 -434 0
-424 -443 0
-424 -446 0
-434 -443 0
-434 -446 0
-443 -446 0
47 59 121 185 207 267 330 409 416 452 456 0
-47 -59 0
-47 -121 0
-47 -185 0
-47 -207 0
-47 -267 0
-47 -330 0
-47 -409 0
-47 -416 0
-47 -452 0
-47 -456 0
-59 -121 0
-59 -185 0
-59 -207 0
-59 -267 0
-59 -330 0
-59 -409 0
-59 -416 0
-59 -452 0
-59 -456 0
-121 -185 0
-121 -207 0
-121 -267 0
-121 -330 0
-121 -409 0
-121 -416 0
-121 -452 0
-121 -456 0
-185 -207 0
-185 -267 0
-185 -330 0
-185 -409 0
-185 -416 0
-185 -452 0
-185 -456 0
-207 -267 0
-207 -330 0
-207 -409 0
-207 -416 0
-207 -452 0
-207 -456 0
-267 -330 0
-267 -409 0
-267 -416 0
-267 -452 0
-267 -456 0
-330 -409 0
-330 -416 0
-330 -452 0
-330 -456 0
-409 -416 0
-409 -452 0
-409 -456 0
-416 -452 0
-416 -456 0
-452 -456 0
71 83 90 225 229 326 353 358 378 396 431 0
-71 -83 0
-71 -90 0
-71 -225 0
-71 -229 0
-71 -326 0
-71 -353 0
-71 -358 0
-71 -378 0
-71 -396 0
-71 -431 0
-83 -90 0
-83 -225 0
-83 -229 0
-83 -326 0
-83 -353 0
-83 -358 0
-83 -378 0
-83 -396 0
-83 -431 0
-90 -225 0
-90 -229 0
-90 -326 0
-90 -353 0
-90 -358 0
-90 -378 0
-90 -396 0
-90 -431 0
-225 -229 0
-225 -326 0
-225 -353 0
-225 -358 0
-225 -378 0
-225 -396 0
-225 -431 0
-229 -326 0
-229 -353 0
-229 -358 0
-229 -378 0
-229 -396 0
-229 -431 0
-326 -353 0
-326 -358 0
-326 -378 0
-326 -396 0
-326 -431 0
-353 -358 0
-353 -378 0
-353 -396 0
-353 -431 0
-358 -378 0
-358 -396 0
-358 -431 0
-378 -396 0
-378 -431 0
-396 -431 0
84 90 95 213 219 240 316 364 383 389 424 0
-84 -90 0
-84 -95 0
-84 -213 0
-84 -219 0
-84 -240 0
-84 -316 0
-84 -364 0
-84 -383 0
-84 -389 0
-84 -424 0
-90 -95 0
-90 -213 0
-90 -219 0
-90 -240 0
-90 -316 0
-90 -364 0
-90 -383 0
-90 -389 0
-90 -424 0
-95 -213 0
-95 -219 0
-95 -240 0
-95 -316 0
-95 -364 0
-95 -383 0
-95 -389 0
-95 -424 0
-213 -219 0
-213 -240 0
-213 -316 0
-213 -364 0
-213 -383 0
-213 -389 0
-213 -424 0
-219 -240 0
-219 -316 0
-219 -364 0
-219 -383 0
-219 -389 0
-219 -424 0
-240 -316 0
-240 -364 0
-240 -383 0
-240 -389 0
-240 -424 0
-316 -364 0
-316 -383 0
-316 -389 0
-316 -424 0
-364 -383 0
-364 -389 0
-364 -424 0
-383 -389 0
-383 -424 0
-389 -424 0
66 96 106 225 231 251 304 375 400 416 434 0
-66 -96 0
-66 -106 0
-66 -225 0
-66 -231 0
-66 -251 0
-66 -304 0
-66 -375 0
-66 -400 0
-66 -416 0
-66 -434 0
-96 -106 0
-96 -225 0
-96 -231 0
-96 -251 0
-96 -304 0
-96 -375 0
-96 -400 0
-96 -416 0
-96 -434 0
-106 -225 0
-106 -231 0
-106 -251 0
-106 -304 0
-106 -375 0
-106 -400 0
-106 -416 0
-106 -434 0
-225 -231 0
-225 -251 0
-225 -304 0
-225 -375 0
-225 -400 0
-225 -416 0
-225 -434 0
-231 -251 0
-231 -304 0
-231 -375 0
-231 -400 0
-231 -416 0
-231 -434 0
-251 -304 0
-251 -375 0
-251 -400 0
-251 -416 0
-251 -434 0
-304 -375 0
-304 -400 0
-304 -416 0
-304 -434 0
-375 -400 0
-375 -416 0
-375 -434 0
-400 -416 0
-400 -434 0
-416 -434 0
55 66 107 117 192 213 242 262 294 326 446 452 0
-55 -66 0
-55 -107 0
-55 -117 0
-55 -192 0
-55 -213 0
-55 -242 0
-55 -262 0
-55 -294 0
-55 -326 0
-55 -446 0
-55 -452 0
-66 -107 0
-66 -117 0
-66 -192 0
-66 -213 0
-66 -242 0
-66 -262 0
-66 -294 0
-66 -326 0
-66 -446 0
-66 -452 0
-107 -117 0
-107 -192 0
-107 -213 0
-107 -242 0
-107 -262 0
-107 -294 0
-107 -326 0
-107 -446 0
-107 -452 0
-117 -192 0
-117 -213 0
-117 -242 0
-117 -262 0
-117 -294 0
-117 -326 0
-117 -446 0
-117 -452 0
-192 -213 0
-192 -242 0
-192 -262 0
-192 -294 0
-192 -326 0
-192 -446 0
-192 -452 0
-213 -242 0
-213 -262 0
-213 -294 0
-213 -326 0
-213 -446 0
-213 -452 0
-242 -262 0
-242 -294 0
-242 -326 0
-242 -446 0
-242 -452 0
-262 -294 0
-262 -326 0
-262 -446 0
-262 -452 0
-294 -326 0
-294 -446 0
-294 -452 0
-326 -446 0
-326 -452 0
-446 -452 0
45 55 118 182 253 275 316 396 422 443 456 0
-45 -55 0
-45 -118 0
-45 -182 0
-45 -253 0
-45 -275 0
-45 -316 0
-45 -396 0
-45 -422 0
-45 -443 0
-45 -456 0
-55 -118 0
-55 -182 0
-55 -253 0
-55 -275 0
-55 -316 0
-55 -396 0
-55 -422 0
-55 -443 0
-55 -456 0
-118 -182 0
-118 -253 0
-118 -275 0
-118 -316 0
-118 -396 0
-118 -422 0
-118 -443 0
-118 -456 0
-182 -253 0
-182 -275 0
-182 -316 0
-182 -396 0
-182 -422 0
-182 -443 0
-182 -456 0
-253 -275 0
-253 -316 0
-253 -396 0
-253 -422 0
-253 -443 0
-253 -456 0
-275 -316 0
-275 -396 0
-275 -422 0
-275 -443 0
-275 -456 0
-316 -396 0
-316 -422 0
-316 -443 0
-316 -456 0
-396 -422 0
-396 -443 0
-396 -456 0
-422 -443 0
-422 -456 0
-443 -456 0
45 128 138 171 192 263 304 383 386 409 431 0
-45 -128 0
-45 -138 0
-45 -171 0
-45 -192 0
-45 -263 0
-45 -304 0
-45 -383 0
-45 -386 0
-45 -409 0
-45 -431 0
-128 -138 0
-128 -171 0
-128 -192 0
-128 -263 0
-128 -304 0
-128 -383 0
-128 -386 0
-128 -409 0
-128 -431 0
-138 -171 0
-138 -192 0
-138 -263 0
-138 -304 0
-138 -383 0
-138 -386 0
-138 -409 0
-138 -431 0
-171 -192 0
-171 -263 0
-171 -304 0
-171 -383 0
-171 -386 0
-171 -409 0
-171 -431 0
-192 -263 0
-192 -304 0
-192 -383 0
-192 -386 0
-192 -409 0
-192 -431 0
-263 -304 0
-263 -383 0
-263 -386 0
-263 -409 0
-263 -431 0
-304 -383 0
-304 -386 0
-304 -409 0
-304 -431 0
-383 -386 0
-383 -409 0
-383 -431 0
-386 -409 0
-386 -431 0
-409 -431 0
23 139 151 182 294 308 319 330 353 364 375 0
-23 -139 0
-23 -151 0
-23 -182 0
-23 -294 0
-23 -308 0
-23 -319 0
-23 -330 0
-23 -353 0
-23 -364 0
-23 -375 0
-139 -151 0
-139 -182 0
-139 -294 0
-139 -308 0
-139 -319 0
-139 -330 0
-139 -353 0
-139 -364 0
-139 -375 0
-151 -182 0
-151 -294 0
-151 -308 0
-151 -319 0
-151 -330 0
-151 -353 0
-151 -364 0
-151 -375 0
-182 -294 0
-182 -308 0
-182 -319 0
-182 -330 0
-182 -353 0
-182 -364 0
-182 -375 0
-294 -308 0
-294 -319 0
-294 -330 0
-294 -353 0
-294 -364 0
-294 -375 0
-308 -319 0
-308 -330 0
-308 -353 0
-308 -364 0
-308 -375 0
-319 -330 0
-319 -353 0
-319 -364 0
-319 -375 0
-330 -353 0
-330 -364 0
-330 -375 0
-353 -364 0
-353 -375 0
-364 -375 0
3 4 14 36 72 85 97 108 119 140 153 0
-3 -4 0
-3 -14 0
-3 -36 0
-3 -72 0
-3 -85 0
-3 -97 0
-3 -108 0
-3 -119 0
-3 -140 0
-3 -153 0
-4 -14 0
-4 -36 0
-4 -72 0
-4 -85 0
-4 -97 0
-4 -108 0
-4 -119 0
-4 -140 0
-4 -153 0
-14 -36 0
-14 -72 0
-14 -85 0
-14 -97 0
-14 -108 0
-14 -119 0
-14 -140 0
-14 -153 0
-36 -72 0
-36 -85 0
-36 -97 0
-36 -108 0
-36 -119 0
-36 -140 0
-36 -153 0
-72 -85 0
-72 -97 0
-72 -108 0
-72 -119 0
-72 -140 0
-72 -153 0
-85 -97 0
-85 -108 0
-85 -119 0
-85 -140 0
-85 -153 0
-97 -108 0
-97 -119 0
-97 -140 0
-97 -153 0
-108 -119 0
-108 -140 0
-108 -153 0
-119 -140 0
-119 -153 0
-140 -153 0
4 154 163 174 198 208 220 243 254 264 277 0
-4 -154 0
-4 -163 0
-4 -174 0
-4 -198 0
-4 -208 0
-4 -220 0
-4 -243 0
-4 -254 0
-4 -264 0
-4 -277 0
-154 -163 0
-154 -174 0
-154 -198 0
-154 -208 0
-154 -220 0
-154 -243 0
-154 -254 0
-154 -264 0
-154 -277 0
-163 -174 0
-163 -198 0
-163 -208 0
-163 -220 0
-163 -243 0
-163 -254 0
-163 -264 0
-163 -277 0
-174 -198 0
-174 -208 0
-174 -220 0
-174 -243 0
-174 -254 0
-174 -264 0
-174 -277 0
-198 -208 0
-198 -220 0
-198 -243 0
-198 -254 0
-198 -264 0
-198 -277 0
-208 -220 0
-208 -243 0
-208 -254 0
-208 -264 0
-208 -277 0
-220 -243 0
-220 -254 0
-220 -264 0
-220 -277 0
-243 -254 0
-243 -264 0
-243 -277 0
-254 -264 0
-254 -277 0
-264 -277 0
14 25 154 278 286 298 311 320 344 356 366 0
-14 -25 0
-14 -154 0
-14 -278 0
-14 -286 0
-14 -298 0
-14 -311 0
-14 -320 0
-14 -344 0
-14 -356 0
-14 -366 0
-25 -154 0
-25 -278 0
-25 -286 0
-25 -298 0
-25 -311 0
-25 -320 0
-25 -344 0
-25 -356 0
-25 -366 0
-154 -278 0
-154 -286 0
-154 -298 0
-154 -311 0
-154 -320 0
-154 -344 0
-154 -356 0
-154 -366 0
-278 -286 0
-278 -298 0
-278 -311 0
-278 -320 0
-278 -344 0
-278 -356 0
-278 -366 0
-286 -298 0
-286 -311 0
-286 -320 0
-286 -344 0
-286 -356 0
-286 -366 0
-298 -311 0
-298 -320 0
-298 -344 0
-298 -356 0
-298 -366 0
-311 -320 0
-311 -344 0
-311 -356 0
-311 -366 0
-320 -344 0
-320 -356 0
-320 -366 0
-344 -356 0
-344 -366 0
-356 -366 0
36 47 174 197 278 309 398 425 435 444 447 0
-36 -47 0
-36 -174 0
-36 -197 0
-36 -278 0
-36 -309 0
-36 -398 0
-36 -425 0
-36 -435 0
-36 -444 0
-36 -447 0
-47 -174 0
-47 -197 0
-47 -278 0
-47 -309 0
-47 -398 0
-47 -425 0
-47 -435 0
-47 -444 0
-47 -447 0
-174 -197 0
-174 -278 0
-174 -309 0
-174 -398 0
-174 -425 0
-174 -435 0
-174 -444 0
-174 -447 0
-197 -278 0
-197 -309 0
-197 -398 0
-197 -425 0
-197 -435 0
-197 -444 0
-197 -447 0
-278 -309 0
-278 -398 0
-278 -425 0
-278 -435 0
-278 -444 0
-278 -447 0
-309 -398 0
-309 -425 0
-309 -435 0
-309 -444 0
-309 -447 0
-398 -425 0
-398 -435 0
-398 -444 0
-398 -447 0
-425 -435 0
-425 -444 0
-425 -447 0
-435 -444 0
-435 -447 0
-444 -447 0
71 103 198 218 235 298 331 337 406 420 441 0
-71 -103 0
-71 -198 0
-71 -218 0
-71 -235 0
-71 -298 0
-71 -331 0
-71 -337 0
-71 -406 0
-71 -420 0
-71 -441 0
-103 -198 0
-103 -218 0
-103 -235 0
-103 -298 0
-103 -331 0
-103 -337 0
-103 -406 0
-103 -420 0
-103 -441 0
-198 -218 0
-198 -235 0
-198 -298 0
-198 -331 0
-198 -337 0
-198 -406 0
-198 -420 0
-198 -441 0
-218 -235 0
-218 -298 0
-218 -331 0
-218 -337 0
-218 -406 0
-218 -420 0
-218 -441 0
-235 -298 0
-235 -331 0
-235 -337 0
-235 -406 0
-235 -420 0
-235 -441 0
-298 -331 0
-298 -337 0
-298 -406 0
-298 -420 0
-298 -441 0
-331 -337 0
-331 -406 0
-331 -420 0
-331 -441 0
-337 -406 0
-337 -420 0
-337 -441 0
-406 -420 0
-406 -441 0
-420 -441 0
72 84 103 208 226 230 311 327 342 397 432 0
-72 -84 0
-72 -103 0
-72 -208 0
-72 -226 0
-72 -230 0
-72 -311 0
-72 -327 0
-72 -342 0
-72 -397 0
-72 -432 0
-84 -103 0
-84 -208 0
-84 -226 0
-84 -230 0
-84 -311 0
-84 -327 0
-84 -342 0
-84 -397 0
-84 -432 0
-103 -208 0
-103 -226 0
-103 -230 0
-103 -311 0
-103 -327 0
-103 -342 0
-103 -397 0
-103 -432 0
-208 -226 0
-208 -230 0
-208 -311 0
-208 -327 0
-208 -342 0
-208 -397 0
-208 -432 0
-226 -230 0
-226 -311 0
-226 -327 0
-226 -342 0
-226 -397 0
-226 -432 0
-230 -311 0
-230 -327 0
-230 -342 0
-230 -397 0
-230 -432 0
-311 -327 0
-311 -342 0
-311 -397 0
-311 -432 0
-327 -342 0
-327 -397 0
-327 -432 0
-342 -397 0
-342 -432 0
-397 -432 0
78 85 96 220 235 241 317 320 354 384 425 0
-78 -85 0
-78 -96 0
-78 -220 0
-78 -235 0
-78 -241 0
-78 -317 0
-78 -320 0
-78 -354 0
-78 -384 0
-78 -425 0
-85 -96 0
-85 -220 0
-85 -235 0
-85 -241 0
-85 -317 0
-85 -320 0
-85 -354 0
-85 -384 0
-85 -425 0
-96 -220 0
-96 -235 0
-96 -241 0
-96 -317 0
-96 -320 0
-96 -354 0
-96 -384 0
-96 -425 0
-220 -235 0
-220 -241 0
-220 -317 0
-220 -320 0
-220 -354 0
-220 -384 0
-220 -425 0
-235 -241 0
-235 -317 0
-235 -320 0
-235 -354 0
-235 -384 0
-235 -425 0
-241 -317 0
-241 -320 0
-241 -354 0
-241 -384 0
-241 -425 0
-317 -320 0
-317 -354 0
-317 -384 0
-317 -425 0
-320 -354 0
-320 -384 0
-320 -425 0
-354 -384 0
-354 -425 0
-384 -425 0
67 78 97 107 205 226 252 305 337 365 435 0
-67 -78 0
-67 -97 0
-67 -107 0
-67 -205 0
-67 -226 0
-67 -252 0
-67 -305 0
-67 -337 0
-67 -365 0
-67 -435 0
-78 -97 0
-78 -107 0
-78 -205 0
-78 -226 0
-78 -252 0
-78 -305 0
-78 -337 0
-78 -365 0
-78 -435 0
-97 -107 0
-97 -205 0
-97 -226 0
-97 -252 0
-97 -305 0
-97 -337 0
-97 -365 0
-97 -435 0
-107 -205 0
-107 -226 0
-107 -252 0
-107 -305 0
-107 -337 0
-107 -365 0
-107 -435 0
-205 -226 0
-205 -252 0
-205 -305 0
-205 -337 0
-205 -365 0
-205 -435 0
-226 -252 0
-226 -305 0
-226 -337 0
-226 -365 0
-226 -435 0
-252 -305 0
-252 -337 0
-252 -365 0
-252 -435 0
-305 -337 0
-305 -365 0
-305 -435 0
-337 -365 0
-337 -435 0
-365 -435 0
56 67 108 118 193 243 295 327 344 406 447 0
-56 -67 0
-56 -108 0
-56 -118 0
-56 -193 0
-56 -243 0
-56 -295 0
-56 -327 0
-56 -344 0
-56 -406 0
-56 -447 0
-67 -108 0
-67 -118 0
-67 -193 0
-67 -243 0
-67 -295 0
-67 -327 0
-67 -344 0
-67 -406 0
-67 -447 0
-108 -118 0
-108 -193 0
-108 -243 0
-108 -295 0
-108 -327 0
-108 -344 0
-108 -406 0
-108 -447 0
-118 -193 0
-118 -243 0
-118 -295 0
-118 -327 0
-118 -344 0
-118 -406 0
-118 -447 0
-193 -243 0
-193 -295 0
-193 -327 0
-193 -344 0
-193 -406 0
-193 -447 0
-243 -295 0
-243 -327 0
-243 -344 0
-243 -406 0
-243 -447 0
-295 -327 0
-295 -344 0
-295 -406 0
-295 -447 0
-327 -344 0
-327 -406 0
-327 -447 0
-344 -406 0
-344 -447 0
-406 -447 0
56 119 128 183 205 254 276 317 356 397 441 444 0
-56 -119 0
-56 -128 0
-56 -183 0
-56 -205 0
-56 -254 0
-56 -276 0
-56 -317 0
-56 -356 0
-56 -397 0
-56 -441 0
-56 -444 0
-119 -128 0
-119 -183 0
-119 -205 0
-119 -254 0
-119 -276 0
-119 -317 0
-119 -356 0
-119 -397 0
-119 -441 0
-119 -444 0
-128 -183 0
-128 -205 0
-128 -254 0
-128 -276 0
-128 -317 0
-128 -356 0
-128 -397 0
-128 -441 0
-128 -444 0
-183 -205 0
-183 -254 0
-183 -276 0
-183 -317 0
-183 -356 0
-183 -397 0
-183 -441 0
-183 -444 0
-205 -254 0
-205 -276 0
-205 -317 0
-205 -356 0
-205 -397 0
-205 -441 0
-205 -444 0
-254 -276 0
-254 -317 0
-254 -356 0
-254 -397 0
-254 -441 0
-254 -444 0
-276 -317 0
-276 -356 0
-276 -397 0
-276 -441 0
-276 -444 0
-317 -356 0
-317 -397 0
-317 -441 0
-317 -444 0
-356 -397 0
-356 -441 0
-356 -444 0
-397 -441 0
-397 -444 0
-441 -444 0
34 139 172 193 264 305 366 384 398 420 432 0
-34 -139 0
-34 -172 0
-34 -193 0
-34 -264 0
-34 -305 0
-34 -366 0
-34 -384 0
-34 -398 0
-34 -420 0
-34 -432 0
-139 -172 0
-139 -193 0
-139 -264 0
-139 -305 0
-139 -366 0
-139 -384 0
-139 -398 0
-139 -420 0
-139 -432 0
-172 -193 0
-172 -264 0
-172 -305 0
-172 -366 0
-172 -384 0
-172 -398 0
-172 -420 0
-172 -432 0
-193 -264 0
-193 -305 0
-193 -366 0
-193 -384 0
-193 -398 0
-193 -420 0
-193 -432 0
-264 -305 0
-264 -366 0
-264 -384 0
-264 -398 0
-264 -420 0
-264 -432 0
-305 -366 0
-305 -384 0
-305 -398 0
-305 -420 0
-305 -432 0
-366 -384 0
-366 -398 0
-366 -420 0
-366 -432 0
-384 -398 0
-384 -420 0
-384 -432 0
-398 -420 0
-398 -432 0
-420 -432 0
4 5 15 26 37 60 73 98 109 129 141 0
-4 -5 0
-4 -15 0
-4 -26 0
-4 -37 0
-4 -60 0
-4 -73 0
-4 -98 0
-4 -109 0
-4 -129 0
-4 -141 0
-5 -15 0
-5 -26 0
-5 -37 0
-5 -60 0
-5 -73 0
-5 -98 0
-5 -109 0
-5 -129 0
-5 -141 0
-15 -26 0
-15 -37 0
-15 -60 0
-15 -73 0
-15 -98 0
-15 -109 0
-15 -129 0
-15 -141 0
-26 -37 0
-26 -60 0
-26 -73 0
-26 -98 0
-26 -109 0
-26 -129 0
-26 -141 0
-37 -60 0
-37 -73 0
-37 -98 0
-37 -109 0
-37 -129 0
-37 -141 0
-60 -73 0
-60 -98 0
-60 -109 0
-60 -129 0
-60 -141 0
-73 -98 0
-73 -109 0
-73 -129 0
-73 -141 0
-98 -109 0
-98 -129 0
-98 -141 0
-109 -129 0
-109 -141 0
-129 -141 0
5 14 155 164 165 175 199 209 232 244 265 0
-5 -14 0
-5 -155 0
-5 -164 0
-5 -165 0
-5 -175 0
-5 -199 0
-5 -209 0
-5 -232 0
-5 -244 0
-5 -265 0
-14 -155 0
-14 -164 0
-14 -165 0
-14 -175 0
-14 -199 0
-14 -209 0
-14 -232 0
-14 -244 0
-14 -265 0
-155 -164 0
-155 -165 0
-155 -175 0
-155 -199 0
-155 -209 0
-155 -232 0
-155 -244 0
-155 -265 0
-164 -165 0
-164 -175 0
-164 -199 0
-164 -209 0
-164 -232 0
-164 -244 0
-164 -265 0
-165 -175 0
-165 -199 0
-165 -209 0
-165 -232 0
-165 -244 0
-165 -265 0
-175 -199 0
-175 -209 0
-175 -232 0
-175 -244 0
-175 -265 0
-199 -209 0
-199 -232 0
-199 -244 0
-199 -265 0
-209 -232 0
-209 -244 0
-209 -265 0
-232 -244 0
-232 -265 0
-244 -265 0
15 142 155 173 279 287 299 312 321 333 367 0
-15 -142 0
-15 -155 0
-15 -173 0
-15 -279 0
-15 -287 0
-15 -299 0
-15 -312 0
-15 -321 0
-15 -333 0
-15 -367 0
-142 -155 0
-142 -173 0
-142 -279 0
-142 -287 0
-142 -299 0
-142 -312 0
-142 -321 0
-142 -333 0
-142 -367 0
-155 -173 0
-155 -279 0
-155 -287 0
-155 -299 0
-155 -312 0
-155 -321 0
-155 -333 0
-155 -367 0
-173 -279 0
-173 -287 0
-173 -299 0
-173 -312 0
-173 -321 0
-173 -333 0
-173 -367 0
-279 -287 0
-279 -299 0
-279 -312 0
-279 -321 0
-279 -333 0
-279 -367 0
-287 -299 0
-287 -312 0
-287 -321 0
-287 -333 0
-287 -367 0
-299 -312 0
-299 -321 0
-299 -333 0
-299 -367 0
-312 -321 0
-312 -333 0
-312 -367 0
-321 -333 0
-321 -367 0
-333 -367 0
26 36 131 142 165 185 297 376 379 390 401 412 0
-26 -36 0
-26 -131 0
-26 -142 0
-26 -165 0
-26 -185 0
-26 -297 0
-26 -376 0
-26 -379 0
-26 -390 0
-26 -401 0
-26 -412 0
-36 -131 0
-36 -142 0
-36 -165 0
-36 -185 0
-36 -297 0
-36 -376 0
-36 -379 0
-36 -390 0
-36 -401 0
-36 -412 0
-131 -142 0
-131 -165 0
-131 -185 0
-131 -297 0
-131 -376 0
-131 -379 0
-131 -390 0
-131 -401 0
-131 -412 0
-142 -165 0
-142 -185 0
-142 -297 0
-142 -376 0
-142 -379 0
-142 -390 0
-142 -401 0
-142 -412 0
-165 -185 0
-165 -297 0
-165 -376 0
-165 -379 0
-165 -390 0
-165 -401 0
-165 -412 0
-185 -297 0
-185 -376 0
-185 -379 0
-185 -390 0
-185 -401 0
-185 -412 0
-297 -376 0
-297 -379 0
-297 -390 0
-297 -401 0
-297 -412 0
-376 -379 0
-376 -390 0
-376 -401 0
-376 -412 0
-379 -390 0
-379 -401 0
-379 -412 0
-390 -401 0
-390 -412 0
-401 -412 0
37 131 175 256 279 310 359 387 426 436 448 0
-37 -131 0
-37 -175 0
-37 -256 0
-37 -279 0
-37 -310 0
-37 -359 0
-37 -387 0
-37 -426 0
-37 -436 0
-37 -448 0
-131 -175 0
-131 -256 0
-131 -279 0
-131 -310 0
-131 -359 0
-131 -387 0
-131 -426 0
-131 -436 0
-131 -448 0
-175 -256 0
-175 -279 0
-175 -310 0
-175 -359 0
-175 -387 0
-175 -426 0
-175 -436 0
-175 -448 0
-256 -279 0
-256 -310 0
-256 -359 0
-256 -387 0
-256 -426 0
-256 -436 0
-256 -448 0
-279 -310 0
-279 -359 0
-279 -387 0
-279 -426 0
-279 -436 0
-279 -448 0
-310 -359 0
-310 -387 0
-310 -426 0
-310 -436 0
-310 -448 0
-359 -387 0
-359 -426 0
-359 -436 0
-359 -448 0
-387 -426 0
-387 -436 0
-387 -448 0
-426 -436 0
-426 -448 0
-436 -448 0
60 72 199 219 236 256 299 332 338 407 410 0
-60 -72 0
-60 -199 0
-60 -219 0
-60 -236 0
-60 -256 0
-60 -299 0
-60 -332 0
-60 -338 0
-60 -407 0
-60 -410 0
-72 -199 0
-72 -219 0
-72 -236 0
-72 -256 0
-72 -299 0
-72 -332 0
-72 -338 0
-72 -407 0
-72 -410 0
-199 -219 0
-199 -236 0
-199 -256 0
-199 -299 0
-199 -332 0
-199 -338 0
-199 -407 0
-199 -410 0
-219 -236 0
-219 -256 0
-219 -299 0
-219 -332 0
-219 -338 0
-219 -407 0
-219 -410 0
-236 -256 0
-236 -299 0
-236 -332 0
-236 -338 0
-236 -407 0
-236 -410 0
-256 -299 0
-256 -332 0
-256 -338 0
-256 -407 0
-256 -410 0
-299 -332 0
-299 -338 0
-299 -407 0
-299 -410 0
-332 -338 0
-332 -407 0
-332 -410 0
-338 -407 0
-338 -410 0
-407 -410 0
73 85 91 209 231 312 328 343 359 379 421 0
-73 -85 0
-73 -91 0
-73 -209 0
-73 -231 0
-73 -312 0
-73 -328 0
-73 -343 0
-73 -359 0
-73 -379 0
-73 -421 0
-85 -91 0
-85 -209 0
-85 -231 0
-85 -312 0
-85 -328 0
-85 -343 0
-85 -359 0
-85 -379 0
-85 -421 0
-91 -209 0
-91 -231 0
-91 -312 0
-91 -328 0
-91 -343 0
-91 -359 0
-91 -379 0
-91 -421 0
-209 -231 0
-209 -312 0
-209 -328 0
-209 -343 0
-209 -359 0
-209 -379 0
-209 -421 0
-231 -312 0
-231 -328 0
-231 -343 0
-231 -359 0
-231 -379 0
-231 -421 0
-312 -328 0
-312 -343 0
-312 -359 0
-312 -379 0
-312 -421 0
-328 -343 0
-328 -359 0
-328 -379 0
-328 -421 0
-343 -359 0
-343 -379 0
-343 -421 0
-359 -379 0
-359 -421 0
-379 -421 0
79 91 97 214 236 242 321 355 385 390 426 0
-79 -91 0
-79 -97 0
-79 -214 0
-79 -236 0
-79 -242 0
-79 -321 0
-79 -355 0
-79 -385 0
-79 -390 0
-79 -426 0
-91 -97 0
-91 -214 0
-91 -236 0
-91 -242 0
-91 -321 0
-91 -355 0
-91 -385 0
-91 -390 0
-91 -426 0
-97 -214 0
-97 -236 0
-97 -242 0
-97 -321 0
-97 -355 0
-97 -385 0
-97 -390 0
-97 -426 0
-214 -236 0
-214 -242 0
-214 -321 0
-214 -355 0
-214 -385 0
-214 -390 0
-214 -426 0
-236 -242 0
-236 -321 0
-236 -355 0
-236 -385 0
-236 -390 0
-236 -426 0
-242 -321 0
-242 -355 0
-242 -385 0
-242 -390 0
-242 -426 0
-321 -355 0
-321 -385 0
-321 -390 0
-321 -426 0
-355 -385 0
-355 -390 0
-355 -426 0
-385 -390 0
-385 -426 0
-390 -426 0
68 79 98 108 232 253 306 333 338 401 436 0
-68 -79 0
-68 -98 0
-68 -108 0
-68 -232 0
-68 -253 0
-68 -306 0
-68 -333 0
-68 -338 0
-68 -401 0
-68 -436 0
-79 -98 0
-79 -108 0
-79 -232 0
-79 -253 0
-79 -306 0
-79 -333 0
-79 -338 0
-79 -401 0
-79 -436 0
-98 -108 0
-98 -232 0
-98 -253 0
-98 -306 0
-98 -333 0
-98 -338 0
-98 -401 0
-98 -436 0
-108 -232 0
-108 -253 0
-108 -306 0
-108 -333 0
-108 -338 0
-108 -401 0
-108 -436 0
-232 -253 0
-232 -306 0
-232 -333 0
-232 -338 0
-232 -401 0
-232 -436 0
-253 -306 0
-253 -333 0
-253 -338 0
-253 -401 0
-253 -436 0
-306 -333 0
-306 -338 0
-306 -401 0
-306 -436 0
-333 -338 0
-333 -401 0
-333 -436 0
-338 -401 0
-338 -436 0
-401 -436 0
68 109 119 194 214 244 263 296 328 407 412 448 0
-68 -109 0
-68 -119 0
-68 -194 0
-68 -214 0
-68 -244 0
-68 -263 0
-68 -296 0
-68 -328 0
-68 -407 0
-68 -412 0
-68 -448 0
-109 -119 0
-109 -194 0
-109 -214 0
-109 -244 0
-109 -263 0
-109 -296 0
-109 -328 0
-109 -407 0
-109 -412 0
-109 -448 0
-119 -194 0
-119 -214 0
-119 -244 0
-119 -263 0
-119 -296 0
-119 -328 0
-119 -407 0
-119 -412 0
-119 -448 0
-194 -214 0
-194 -244 0
-194 -263 0
-194 -296 0
-194 -328 0
-194 -407 0
-194 -412 0
-194 -448 0
-214 -244 0
-214 -263 0
-214 -296 0
-214 -328 0
-214 -407 0
-214 -412 0
-214 -448 0
-244 -263 0
-244 -296 0
-244 -328 0
-244 -407 0
-244 -412 0
-244 -448 0
-263 -296 0
-263 -328 0
-263 -407 0
-263 -412 0
-263 -448 0
-296 -328 0
-296 -407 0
-296 -412 0
-296 -448 0
-328 -407 0
-328 -412 0
-328 -448 0
-407 -412 0
-407 -448 0
-412 -448 0
5 6 16 27 38 48 61 86 99 110 120 154 0
-5 -6 0
-5 -16 0
-5 -27 0
-5 -38 0
-5 -48 0
-5 -61 0
-5 -86 0
-5 -99 0
-5 -110 0
-5 -120 0
-5 -154 0
-6 -16 0
-6 -27 0
-6 -38 0
-6 -48 0
-6 -61 0
-6 -86 0
-6 -99 0
-6 -110 0
-6 -120 0
-6 -154 0
-16 -27 0
-16 -38 0
-16 -48 0
-16 -61 0
-16 -86 0
-16 -99 0
-16 -110 0
-16 -120 0
-16 -154 0
-27 -38 0
-27 -48 0
-27 -61 0
-27 -86 0
-27 -99 0
-27 -110 0
-27 -120 0
-27 -154 0
-38 -48 0
-38 -61 0
-38 -86 0
-38 -99 0
-38 -110 0
-38 -120 0
-38 -154 0
-48 -61 0
-48 -86 0
-48 -99 0
-48 -110 0
-48 -120 0
-48 -154 0
-61 -86 0
-61 -99 0
-61 -110 0
-61 -120 0
-61 -154 0
-86 -99 0
-86 -110 0
-86 -120 0
-86 -154 0
-99 -110 0
-99 -120 0
-99 -154 0
-110 -120 0
-110 -154 0
-120 -154 0
6 15 156 166 176 186 200 221 245 255 266 0
-6 -15 0
-6 -156 0
-6 -166 0
-6 -176 0
-6 -186 0
-6 -200 0
-6 -221 0
-6 -245 0
-6 -255 0
-6 -266 0
-15 -156 0
-15 -166 0
-15 -176 0
-15 -186 0
-15 -200 0
-15 -221 0
-15 -245 0
-15 -255 0
-15 -266 0
-156 -166 0
-156 -176 0
-156 -186 0
-156 -200 0
-156 -221 0
-156 -245 0
-156 -255 0
-156 -266 0
-166 -176 0
-166 -186 0
-166 -200 0
-166 -221 0
-166 -245 0
-166 -255 0
-166 -266 0
-176 -186 0
-176 -200 0
-176 -221 0
-176 -245 0
-176 -255 0
-176 -266 0
-186 -200 0
-186 -221 0
-186 -245 0
-186 -255 0
-186 -266 0
-200 -221 0
-200 -245 0
-200 -255 0
-200 -266 0
-221 -245 0
-221 -255 0
-221 -266 0
-245 -255 0
-245 -266 0
-255 -266 0
16 26 143 156 174 300 322 334 345 357 368 0
-16 -26 0
-16 -143 0
-16 -156 0
-16 -174 0
-16 -300 0
-16 -322 0
-16 -334 0
-16 -345 0
-16 -357 0
-16 -368 0
-26 -143 0
-26 -156 0
-26 -174 0
-26 -300 0
-26 -322 0
-26 -334 0
-26 -345 0
-26 -357 0
-26 -368 0
-143 -156 0
-143 -174 0
-143 -300 0
-143 -322 0
-143 -334 0
-143 -345 0
-143 -357 0
-143 -368 0
-156 -174 0
-156 -300 0
-156 -322 0
-156 -334 0
-156 -345 0
-156 -357 0
-156 -368 0
-174 -300 0
-174 -322 0
-174 -334 0
-174 -345 0
-174 -357 0
-174 -368 0
-300 -322 0
-300 -334 0
-300 -345 0
-300 -357 0
-300 -368 0
-322 -334 0
-322 -345 0
-322 -357 0
-322 -368 0
-334 -345 0
-334 -357 0
-334 -368 0
-345 -357 0
-345 -368 0
-357 -368 0
27 37 132 143 166 268 369 377 391 402 413 423 0
-27 -37 0
-27 -132 0
-27 -143 0
-27 -166 0
-27 -268 0
-27 -369 0
-27 -377 0
-27 -391 0
-27 -402 0
-27 -413 0
-27 -423 0
-37 -132 0
-37 -143 0
-37 -166 0
-37 -268 0
-37 -369 0
-37 -377 0
-37 -391 0
-37 -402 0
-37 -413 0
-37 -423 0
-132 -143 0
-132 -166 0
-132 -268 0
-132 -369 0
-132 -377 0
-132 -391 0
-132 -402 0
-132 -413 0
-132 -423 0
-143 -166 0
-143 -268 0
-143 -369 0
-143 -377 0
-143 -391 0
-143 -402 0
-143 -413 0
-143 -423 0
-166 -268 0
-166 -369 0
-166 -377 0
-166 -391 0
-166 -402 0
-166 -413 0
-166 -423 0
-268 -369 0
-268 -377 0
-268 -391 0
-268 -402 0
-268 -413 0
-268 -423 0
-369 -377 0
-369 -391 0
-369 -402 0
-369 -413 0
-369 -423 0
-377 -391 0
-377 -402 0
-377 -413 0
-377 -423 0
-391 -402 0
-391 -413 0
-391 -423 0
-402 -413 0
-402 -423 0
-413 -423 0
38 122 132 176 198 257 388 427 433 437 449 0
-38 -122 0
-38 -132 0
-38 -176 0
-38 -198 0
-38 -257 0
-38 -388 0
-38 -427 0
-38 -433 0
-38 -437 0
-38 -449 0
-122 -132 0
-122 -176 0
-122 -198 0
-122 -257 0
-122 -388 0
-122 -427 0
-122 -433 0
-122 -437 0
-122 -449 0
-132 -176 0
-132 -198 0
-132 -257 0
-132 -388 0
-132 -427 0
-132 -433 0
-132 -437 0
-132 -449 0
-176 -198 0
-176 -257 0
-176 -388 0
-176 -427 0
-176 -433 0
-176 -437 0
-176 -449 0
-198 -257 0
-198 -388 0
-198 -427 0
-198 -433 0
-198 -437 0
-198 -449 0
-257 -388 0
-257 -427 0
-257 -433 0
-257 -437 0
-257 -449 0
-388 -427 0
-388 -433 0
-388 -437 0
-388 -449 0
-427 -433 0
-427 -437 0
-427 -449 0
-433 -437 0
-433 -449 0
-437 -449 0
48 60 122 186 208 268 348 399 417 445 453 0
-48 -60 0
-48 -122 0
-48 -186 0
-48 -208 0
-48 -268 0
-48 -348 0
-48 -399 0
-48 -417 0
-48 -445 0
-48 -453 0
-60 -122 0
-60 -186 0
-60 -208 0
-60 -268 0
-60 -348 0
-60 -399 0
-60 -417 0
-60 -445 0
-60 -453 0
-122 -186 0
-122 -208 0
-122 -268 0
-122 -348 0
-122 -399 0
-122 -417 0
-122 -445 0
-122 -453 0
-186 -208 0
-186 -268 0
-186 -348 0
-186 -399 0
-186 -417 0
-186 -445 0
-186 -453 0
-208 -268 0
-208 -348 0
-208 -399 0
-208 -417 0
-208 -445 0
-208 -453 0
-268 -348 0
-268 -399 0
-268 -417 0
-268 -445 0
-268 -453 0
-348 -399 0
-348 -417 0
-348 -445 0
-348 -453 0
-399 -417 0
-399 -445 0
-399 -453 0
-417 -445 0
-417 -453 0
-445 -453 0
61 73 200 220 257 300 339 369 408 411 442 0
-61 -73 0
-61 -200 0
-61 -220 0
-61 -257 0
-61 -300 0
-61 -339 0
-61 -369 0
-61 -408 0
-61 -411 0
-61 -442 0
-73 -200 0
-73 -220 0
-73 -257 0
-73 -300 0
-73 -339 0
-73 -369 0
-73 -408 0
-73 -411 0
-73 -442 0
-200 -220 0
-200 -257 0
-200 -300 0
-200 -339 0
-200 -369 0
-200 -408 0
-200 -411 0
-200 -442 0
-220 -257 0
-220 -300 0
-220 -339 0
-220 -369 0
-220 -408 0
-220 -411 0
-220 -442 0
-257 -300 0
-257 -339 0
-257 -369 0
-257 -408 0
-257 -411 0
-257 -442 0
-300 -339 0
-300 -369 0
-300 -408 0
-300 -411 0
-300 -442 0
-339 -369 0
-339 -408 0
-339 -411 0
-339 -442 0
-369 -408 0
-369 -411 0
-369 -442 0
-408 -411 0
-408 -442 0
-411 -442 0
80 86 98 215 221 243 318 322 348 391 427 0
-80 -86 0
-80 -98 0
-80 -215 0
-80 -221 0
-80 -243 0
-80 -318 0
-80 -322 0
-80 -348 0
-80 -391 0
-80 -427 0
-86 -98 0
-86 -215 0
-86 -221 0
-86 -243 0
-86 -318 0
-86 -322 0
-86 -348 0
-86 -391 0
-86 -427 0
-98 -215 0
-98 -221 0
-98 -243 0
-98 -318 0
-98 -322 0
-98 -348 0
-98 -391 0
-98 -427 0
-215 -221 0
-215 -243 0
-215 -318 0
-215 -322 0
-215 -348 0
-215 -391 0
-215 -427 0
-221 -243 0
-221 -318 0
-221 -322 0
-221 -348 0
-221 -391 0
-221 -427 0
-243 -318 0
-243 -322 0
-243 -348 0
-243 -391 0
-243 -427 0
-318 -322 0
-318 -348 0
-318 -391 0
-318 -427 0
-322 -348 0
-322 -391 0
-322 -427 0
-348 -391 0
-348 -427 0
-391 -427 0
80 99 109 206 254 307 334 339 402 417 437 0
-80 -99 0
-80 -109 0
-80 -206 0
-80 -254 0
-80 -307 0
-80 -334 0
-80 -339 0
-80 -402 0
-80 -417 0
-80 -437 0
-99 -109 0
-99 -206 0
-99 -254 0
-99 -307 0
-99 -334 0
-99 -339 0
-99 -402 0
-99 -417 0
-99 -437 0
-109 -206 0
-109 -254 0
-109 -307 0
-109 -334 0
-109 -339 0
-109 -402 0
-109 -417 0
-109 -437 0
-206 -254 0
-206 -307 0
-206 -334 0
-206 -339 0
-206 -402 0
-206 -417 0
-206 -437 0
-254 -307 0
-254 -334 0
-254 -339 0
-254 -402 0
-254 -417 0
-254 -437 0
-307 -334 0
-307 -339 0
-307 -402 0
-307 -417 0
-307 -437 0
-334 -339 0
-334 -402 0
-334 -417 0
-334 -437 0
-339 -402 0
-339 -417 0
-339 -437 0
-402 -417 0
-402 -437 0
-417 -437 0
57 110 195 215 245 264 345 408 413 449 453 0
-57 -110 0
-57 -195 0
-57 -215 0
-57 -245 0
-57 -264 0
-57 -345 0
-57 -408 0
-57 -413 0
-57 -449 0
-57 -453 0
-110 -195 0
-110 -215 0
-110 -245 0
-110 -264 0
-110 -345 0
-110 -408 0
-110 -413 0
-110 -449 0
-110 -453 0
-195 -215 0
-195 -245 0
-195 -264 0
-195 -345 0
-195 -408 0
-195 -413 0
-195 -449 0
-195 -453 0
-215 -245 0
-215 -264 0
-215 -345 0
-215 -408 0
-215 -413 0
-215 -449 0
-215 -453 0
-245 -264 0
-245 -345 0
-245 -408 0
-245 -413 0
-245 -449 0
-245 -453 0
-264 -345 0
-264 -408 0
-264 -413 0
-264 -449 0
-264 -453 0
-345 -408 0
-345 -413 0
-345 -449 0
-345 -453 0
-408 -413 0
-408 -449 0
-408 -453 0
-413 -449 0
-413 -453 0
-449 -453 0
6 7 17 28 39 49 74 100 111 130 155 0
-6 -7 0
-6 -17 0
-6 -28 0
-6 -39 0
-6 -49 0
-6 -74 0
-6 -100 0
-6 -111 0
-6 -130 0
-6 -155 0
-7 -17 0
-7 -28 0
-7 -39 0
-7 -49 0
-7 -74 0
-7 -100 0
-7 -111 0
-7 -130 0
-7 -155 0
-17 -28 0
-17 -39 0
-17 -49 0
-17 -74 0
-17 -100 0
-17 -111 0
-17 -130 0
-17 -155 0
-28 -39 0
-28 -49 0
-28 -74 0
-28 -100 0
-28 -111 0
-28 -130 0
-28 -155 0
-39 -49 0
-39 -74 0
-39 -100 0
-39 -111 0
-39 -130 0
-39 -155 0
-49 -74 0
-49 -100 0
-49 -111 0
-49 -130 0
-49 -155 0
-74 -100 0
-74 -111 0
-74 -130 0
-74 -155 0
-100 -111 0
-100 -130 0
-100 -155 0
-111 -130 0
-111 -155 0
-130 -155 0
7 16 157 165 187 210 222 233 246 267 278 0
-7 -16 0
-7 -157 0
-7 -165 0
-7 -187 0
-7 -210 0
-7 -222 0
-7 -233 0
-7 -246 0
-7 -267 0
-7 -278 0
-16 -157 0
-16 -165 0
-16 -187 0
-16 -210 0
-16 -222 0
-16 -233 0
-16 -246 0
-16 -267 0
-16 -278 0
-157 -165 0
-157 -187 0
-157 -210 0
-157 -222 0
-157 -233 0
-157 -246 0
-157 -267 0
-157 -278 0
-165 -187 0
-165 -210 0
-165 -222 0
-165 -233 0
-165 -246 0
-165 -267 0
-165 -278 0
-187 -210 0
-187 -222 0
-187 -233 0
-187 -246 0
-187 -267 0
-187 -278 0
-210 -222 0
-210 -233 0
-210 -246 0
-210 -267 0
-210 -278 0
-222 -233 0
-222 -246 0
-222 -267 0
-222 -278 0
-233 -246 0
-233 -267 0
-233 -278 0
-246 -267 0
-246 -278 0
-267 -278 0
17 27 144 157 175 280 288 313 323 335 346 0
-17 -27 0
-17 -144 0
-17 -157 0
-17 -175 0
-17 -280 0
-17 -288 0
-17 -313 0
-17 -323 0
-17 -335 0
-17 -346 0
-27 -144 0
-27 -157 0
-27 -175 0
-27 -280 0
-27 -288 0
-27 -313 0
-27 -323 0
-27 -335 0
-27 -346 0
-144 -157 0
-144 -175 0
-144 -280 0
-144 -288 0
-144 -313 0
-144 -323 0
-144 -335 0
-144 -346 0
-157 -175 0
-157 -280 0
-157 -288 0
-157 -313 0
-157 -323 0
-157 -335 0
-157 -346 0
-175 -280 0
-175 -288 0
-175 -313 0
-175 -323 0
-175 -335 0
-175 -346 0
-280 -288 0
-280 -313 0
-280 -323 0
-280 -335 0
-280 -346 0
-288 -313 0
-288 -323 0
-288 -335 0
-288 -346 0
-313 -323 0
-313 -335 0
-313 -346 0
-323 -335 0
-323 -346 0
-335 -346 0
28 38 133 144 269 298 378 380 392 403 414 0
-28 -38 0
-28 -133 0
-28 -144 0
-28 -269 0
-28 -298 0
-28 -378 0
-28 -380 0
-28 -392 0
-28 -403 0
-28 -414 0
-38 -133 0
-38 -144 0
-38 -269 0
-38 -298 0
-38 -378 0
-38 -380 0
-38 -392 0
-38 -403 0
-38 -414 0
-133 -144 0
-133 -269 0
-133 -298 0
-133 -378 0
-133 -380 0
-133 -392 0
-133 -403 0
-133 -414 0
-144 -269 0
-144 -298 0
-144 -378 0
-144 -380 0
-144 -392 0
-144 -403 0
-144 -414 0
-269 -298 0
-269 -378 0
-269 -380 0
-269 -392 0
-269 -403 0
-269 -414 0
-298 -378 0
-298 -380 0
-298 -392 0
-298 -403 0
-298 -414 0
-378 -380 0
-378 -392 0
-378 -403 0
-378 -414 0
-380 -392 0
-380 -403 0
-380 -414 0
-392 -403 0
-392 -414 0
-403 -414 0
39 48 133 199 280 311 360 389 428 438 450 0
-39 -48 0
-39 -133 0
-39 -199 0
-39 -280 0
-39 -311 0
-39 -360 0
-39 -389 0
-39 -428 0
-39 -438 0
-39 -450 0
-48 -133 0
-48 -199 0
-48 -280 0
-48 -311 0
-48 -360 0
-48 -389 0
-48 -428 0
-48 -438 0
-48 -450 0
-133 -199 0
-133 -280 0
-133 -311 0
-133 -360 0
-133 -389 0
-133 -428 0
-133 -438 0
-133 -450 0
-199 -280 0
-199 -311 0
-199 -360 0
-199 -389 0
-199 -428 0
-199 -438 0
-199 -450 0
-280 -311 0
-280 -360 0
-280 -389 0
-280 -428 0
-280 -438 0
-280 -450 0
-311 -360 0
-311 -389 0
-311 -428 0
-311 -438 0
-311 -450 0
-360 -389 0
-360 -428 0
-360 -438 0
-360 -450 0
-389 -428 0
-389 -438 0
-389 -450 0
-428 -438 0
-428 -450 0
-438 -450 0
49 61 187 209 269 288 320 349 400 418 454 0
-49 -61 0
-49 -187 0
-49 -209 0
-49 -269 0
-49 -288 0
-49 -320 0
-49 -349 0
-49 -400 0
-49 -418 0
-49 -454 0
-61 -187 0
-61 -209 0
-61 -269 0
-61 -288 0
-61 -320 0
-61 -349 0
-61 -400 0
-61 -418 0
-61 -454 0
-187 -209 0
-187 -269 0
-187 -288 0
-187 -320 0
-187 -349 0
-187 -400 0
-187 -418 0
-187 -454 0
-209 -269 0
-209 -288 0
-209 -320 0
-209 -349 0
-209 -400 0
-209 -418 0
-209 -454 0
-269 -288 0
-269 -320 0
-269 -349 0
-269 -400 0
-269 -418 0
-269 -454 0
-288 -320 0
-288 -349 0
-288 -400 0
-288 -418 0
-288 -454 0
-320 -349 0
-320 -400 0
-320 -418 0
-320 -454 0
-349 -400 0
-349 -418 0
-349 -454 0
-400 -418 0
-400 -454 0
-418 -454 0
74 86 92 210 227 232 313 329 344 360 380 422 0
-74 -86 0
-74 -92 0
-74 -210 0
-74 -227 0
-74 -232 0
-74 -313 0
-74 -329 0
-74 -344 0
-74 -360 0
-74 -380 0
-74 -422 0
-86 -92 0
-86 -210 0
-86 -227 0
-86 -232 0
-86 -313 0
-86 -329 0
-86 -344 0
-86 -360 0
-86 -380 0
-86 -422 0
-92 -210 0
-92 -227 0
-92 -232 0
-92 -313 0
-92 -329 0
-92 -344 0
-92 -360 0
-92 -380 0
-92 -422 0
-210 -227 0
-210 -232 0
-210 -313 0
-210 -329 0
-210 -344 0
-210 -360 0
-210 -380 0
-210 -422 0
-227 -232 0
-227 -313 0
-227 -329 0
-227 -344 0
-227 -360 0
-227 -380 0
-227 -422 0
-232 -313 0
-232 -329 0
-232 -344 0
-232 -360 0
-232 -380 0
-232 -422 0
-313 -329 0
-313 -344 0
-313 -360 0
-313 -380 0
-313 -422 0
-329 -344 0
-329 -360 0
-329 -380 0
-329 -422 0
-344 -360 0
-344 -380 0
-344 -422 0
-360 -380 0
-360 -422 0
-380 -422 0
92 99 216 222 244 323 349 356 386 392 428 0
-92 -99 0
-92 -216 0
-92 -222 0
-92 -244 0
-92 -323 0
-92 -349 0
-92 -356 0
-92 -386 0
-92 -392 0
-92 -428 0
-99 -216 0
-99 -222 0
-99 -244 0
-99 -323 0
-99 -349 0
-99 -356 0
-99 -386 0
-99 -392 0
-99 -428 0
-216 -222 0
-216 -244 0
-216 -323 0
-216 -349 0
-216 -356 0
-216 -386 0
-216 -392 0
-216 -428 0
-222 -244 0
-222 -323 0
-222 -349 0
-222 -356 0
-222 -386 0
-222 -392 0
-222 -428 0
-244 -323 0
-244 -349 0
-244 -356 0
-244 -386 0
-244 -392 0
-244 -428 0
-323 -349 0
-323 -356 0
-323 -386 0
-323 -392 0
-323 -428 0
-349 -356 0
-349 -386 0
-349 -392 0
-349 -428 0
-356 -386 0
-356 -392 0
-356 -428 0
-386 -392 0
-386 -428 0
-392 -428 0
69 100 110 227 233 308 335 366 403 418 438 0
-69 -100 0
-69 -110 0
-69 -227 0
-69 -233 0
-69 -308 0
-69 -335 0
-69 -366 0
-69 -403 0
-69 -418 0
-69 -438 0
-100 -110 0
-100 -227 0
-100 -233 0
-100 -308 0
-100 -335 0
-100 -366 0
-100 -403 0
-100 -418 0
-100 -438 0
-110 -227 0
-110 -233 0
-110 -308 0
-110 -335 0
-110 -366 0
-110 -403 0
-110 -418 0
-110 -438 0
-227 -233 0
-227 -308 0
-227 -335 0
-227 -366 0
-227 -403 0
-227 -418 0
-227 -438 0
-233 -308 0
-233 -335 0
-233 -366 0
-233 -403 0
-233 -418 0
-233 -438 0
-308 -335 0
-308 -366 0
-308 -403 0
-308 -418 0
-308 -438 0
-335 -366 0
-335 -403 0
-335 -418 0
-335 -438 0
-366 -403 0
-366 -418 0
-366 -438 0
-403 -418 0
-403 -438 0
-418 -438 0
7 8 40 50 62 87 101 112 121 142 156 0
-7 -8 0
-7 -40 0
-7 -50 0
-7 -62 0
-7 -87 0
-7 -101 0
-7 -112 0
-7 -121 0
-7 -142 0
-7 -156 0
-8 -40 0
-8 -50 0
-8 -62 0
-8 -87 0
-8 -101 0
-8 -112 0
-8 -121 0
-8 -142 0
-8 -156 0
-40 -50 0
-40 -62 0
-40 -87 0
-40 -101 0
-40 -112 0
-40 -121 0
-40 -142 0
-40 -156 0
-50 -62 0
-50 -87 0
-50 -101 0
-50 -112 0
-50 -121 0
-50 -142 0
-50 -156 0
-62 -87 0
-62 -101 0
-62 -112 0
-62 -121 0
-62 -142 0
-62 -156 0
-87 -101 0
-87 -112 0
-87 -121 0
-87 -142 0
-87 -156 0
-101 -112 0
-101 -121 0
-101 -142 0
-101 -156 0
-112 -121 0
-112 -142 0
-112 -156 0
-121 -142 0
-121 -156 0
-142 -156 0
8 17 158 166 167 177 188 201 223 234 247 279 0
-8 -17 0
-8 -158 0
-8 -166 0
-8 -167 0
-8 -177 0
-8 -188 0
-8 -201 0
-8 -223 0
-8 -234 0
-8 -247 0
-8 -279 0
-17 -158 0
-17 -166 0
-17 -167 0
-17 -177 0
-17 -188 0
-17 -201 0
-17 -223 0
-17 -234 0
-17 -247 0
-17 -279 0
-158 -166 0
-158 -167 0
-158 -177 0
-158 -188 0
-158 -201 0
-158 -223 0
-158 -234 0
-158 -247 0
-158 -279 0
-166 -167 0
-166 -177 0
-166 -188 0
-166 -201 0
-166 -223 0
-166 -234 0
-166 -247 0
-166 -279 0
-167 -177 0
-167 -188 0
-167 -201 0
-167 -223 0
-167 -234 0
-167 -247 0
-167 -279 0
-177 -188 0
-177 -201 0
-177 -223 0
-177 -234 0
-177 -247 0
-177 -279 0
-188 -201 0
-188 -223 0
-188 -234 0
-188 -247 0
-188 -279 0
-201 -223 0
-201 -234 0
-201 -247 0
-201 -279 0
-223 -234 0
-223 -247 0
-223 -279 0
-234 -247 0
-234 -279 0
-247 -279 0
28 145 158 176 281 289 301 324 336 347 358 0
-28 -145 0
-28 -158 0
-28 -176 0
-28 -281 0
-28 -289 0
-28 -301 0
-28 -324 0
-28 -336 0
-28 -347 0
-28 -358 0
-145 -158 0
-145 -176 0
-145 -281 0
-145 -289 0
-145 -301 0
-145 -324 0
-145 -336 0
-145 -347 0
-145 -358 0
-158 -176 0
-158 -281 0
-158 -289 0
-158 -301 0
-158 -324 0
-158 -336 0
-158 -347 0
-158 -358 0
-176 -281 0
-176 -289 0
-176 -301 0
-176 -324 0
-176 -336 0
-176 -347 0
-176 -358 0
-281 -289 0
-281 -301 0
-281 -324 0
-281 -336 0
-281 -347 0
-281 -358 0
-289 -301 0
-289 -324 0
-289 -336 0
-289 -347 0
-289 -358 0
-301 -324 0
-301 -336 0
-301 -347 0
-301 -358 0
-324 -336 0
-324 -347 0
-324 -358 0
-336 -347 0
-336 -358 0
-347 -358 0
39 145 167 186 270 299 370 393 404 415 424 0
-39 -145 0
-39 -167 0
-39 -186 0
-39 -270 0
-39 -299 0
-39 -370 0
-39 -393 0
-39 -404 0
-39 -415 0
-39 -424 0
-145 -167 0
-145 -186 0
-145 -270 0
-145 -299 0
-145 -370 0
-145 -393 0
-145 -404 0
-145 -415 0
-145 -424 0
-167 -186 0
-167 -270 0
-167 -299 0
-167 -370 0
-167 -393 0
-167 -404 0
-167 -415 0
-167 -424 0
-186 -270 0
-186 -299 0
-186 -370 0
-186 -393 0
-186 -404 0
-186 -415 0
-186 -424 0
-270 -299 0
-270 -370 0
-270 -393 0
-270 -404 0
-270 -415 0
-270 -424 0
-299 -370 0
-299 -393 0
-299 -404 0
-299 -415 0
-299 -424 0
-370 -393 0
-370 -404 0
-370 -415 0
-370 -424 0
-393 -404 0
-393 -415 0
-393 -424 0
-404 -415 0
-404 -424 0
-415 -424 0
40 49 123 177 200 281 312 429 434 439 451 0
-40 -49 0
-40 -123 0
-40 -177 0
-40 -200 0
-40 -281 0
-40 -312 0
-40 -429 0
-40 -434 0
-40 -439 0
-40 -451 0
-49 -123 0
-49 -177 0
-49 -200 0
-49 -281 0
-49 -312 0
-49 -429 0
-49 -434 0
-49 -439 0
-49 -451 0
-123 -177 0
-123 -200 0
-123 -281 0
-123 -312 0
-123 -429 0
-123 -434 0
-123 -439 0
-123 -451 0
-177 -200 0
-177 -281 0
-177 -312 0
-177 -429 0
-177 -434 0
-177 -439 0
-177 -451 0
-200 -281 0
-200 -312 0
-200 -429 0
-200 -434 0
-200 -439 0
-200 -451 0
-281 -312 0
-281 -429 0
-281 -434 0
-281 -439 0
-281 -451 0
-312 -429 0
-312 -434 0
-312 -439 0
-312 -451 0
-429 -434 0
-429 -439 0
-429 -451 0
-434 -439 0
-434 -451 0
-439 -451 0
50 113 123 188 270 289 321 350 419 446 455 0
-50 -113 0
-50 -123 0
-50 -188 0
-50 -270 0
-50 -289 0
-50 -321 0
-50 -350 0
-50 -419 0
-50 -446 0
-50 -455 0
-113 -123 0
-113 -188 0
-113 -270 0
-113 -289 0
-113 -321 0
-113 -350 0
-113 -419 0
-113 -446 0
-113 -455 0
-123 -188 0
-123 -270 0
-123 -289 0
-123 -321 0
-123 -350 0
-123 -419 0
-123 -446 0
-123 -455 0
-188 -270 0
-188 -289 0
-188 -321 0
-188 -350 0
-188 -419 0
-188 -446 0
-188 -455 0
-270 -289 0
-270 -321 0
-270 -350 0
-270 -419 0
-270 -446 0
-270 -455 0
-289 -321 0
-289 -350 0
-289 -419 0
-289 -446 0
-289 -455 0
-321 -350 0
-321 -419 0
-321 -446 0
-321 -455 0
-350 -419 0
-350 -446 0
-350 -455 0
-419 -446 0
-419 -455 0
-446 -455 0
62 74 113 201 221 237 301 333 340 370 443 0
-62 -74 0
-62 -113 0
-62 -201 0
-62 -221 0
-62 -237 0
-62 -301 0
-62 -333 0
-62 -340 0
-62 -370 0
-62 -443 0
-74 -113 0
-74 -201 0
-74 -221 0
-74 -237 0
-74 -301 0
-74 -333 0
-74 -340 0
-74 -370 0
-74 -443 0
-113 -201 0
-113 -221 0
-113 -237 0
-113 -301 0
-113 -333 0
-113 -340 0
-113 -370 0
-113 -443 0
-201 -221 0
-201 -237 0
-201 -301 0
-201 -333 0
-201 -340 0
-201 -370 0
-201 -443 0
-221 -237 0
-221 -301 0
-221 -333 0
-221 -340 0
-221 -370 0
-221 -443 0
-237 -301 0
-237 -333 0
-237 -340 0
-237 -370 0
-237 -443 0
-301 -333 0
-301 -340 0
-301 -370 0
-301 -443 0
-333 -340 0
-333 -370 0
-333 -443 0
-340 -370 0
-340 -443 0
-370 -443 0
81 87 100 217 223 237 245 319 324 350 393 429 0
-81 -87 0
-81 -100 0
-81 -217 0
-81 -223 0
-81 -237 0
-81 -245 0
-81 -319 0
-81 -324 0
-81 -350 0
-81 -393 0
-81 -429 0
-87 -100 0
-87 -217 0
-87 -223 0
-87 -237 0
-87 -245 0
-87 -319 0
-87 -324 0
-87 -350 0
-87 -393 0
-87 -429 0
-100 -217 0
-100 -223 0
-100 -237 0
-100 -245 0
-100 -319 0
-100 -324 0
-100 -350 0
-100 -393 0
-100 -429 0
-217 -223 0
-217 -237 0
-217 -245 0
-217 -319 0
-217 -324 0
-217 -350 0
-217 -393 0
-217 -429 0
-223 -237 0
-223 -245 0
-223 -319 0
-223 -324 0
-223 -350 0
-223 -393 0
-223 -429 0
-237 -245 0
-237 -319 0
-237 -324 0
-237 -350 0
-237 -393 0
-237 -429 0
-245 -319 0
-245 -324 0
-245 -350 0
-245 -393 0
-245 -429 0
-319 -324 0
-319 -350 0
-319 -393 0
-319 -429 0
-324 -350 0
-324 -393 0
-324 -429 0
-350 -393 0
-350 -429 0
-393 -429 0
8 29 41 51 63 75 88 102 131 143 157 0
-8 -29 0
-8 -41 0
-8 -51 0
-8 -63 0
-8 -75 0
-8 -88 0
-8 -102 0
-8 -131 0
-8 -143 0
-8 -157 0
-29 -41 0
-29 -51 0
-29 -63 0
-29 -75 0
-29 -88 0
-29 -102 0
-29 -131 0
-29 -143 0
-29 -157 0
-41 -51 0
-41 -63 0
-41 -75 0
-41 -88 0
-41 -102 0
-41 -131 0
-41 -143 0
-41 -157 0
-51 -63 0
-51 -75 0
-51 -88 0
-51 -102 0
-51 -131 0
-51 -143 0
-51 -157 0
-63 -75 0
-63 -88 0
-63 -102 0
-63 -131 0
-63 -143 0
-63 -157 0
-75 -88 0
-75 -102 0
-75 -131 0
-75 -143 0
-75 -157 0
-88 -102 0
-88 -131 0
-88 -143 0
-88 -157 0
-102 -131 0
-102 -143 0
-102 -157 0
-131 -143 0
-131 -157 0
-143 -157 0
29 40 134 187 300 371 379 381 394 405 416 425 0
-29 -40 0
-29 -134 0
-29 -187 0
-29 -300 0
-29 -371 0
-29 -379 0
-29 -381 0
-29 -394 0
-29 -405 0
-29 -416 0
-29 -425 0
-40 -134 0
-40 -187 0
-40 -300 0
-40 -371 0
-40 -379 0
-40 -381 0
-40 -394 0
-40 -405 0
-40 -416 0
-40 -425 0
-134 -187 0
-134 -300 0
-134 -371 0
-134 -379 0
-134 -381 0
-134 -394 0
-134 -405 0
-134 -416 0
-134 -425 0
-187 -300 0
-187 -371 0
-187 -379 0
-187 -381 0
-187 -394 0
-187 -405 0
-187 -416 0
-187 -425 0
-300 -371 0
-300 -379 0
-300 -381 0
-300 -394 0
-300 -405 0
-300 -416 0
-300 -425 0
-371 -379 0
-371 -381 0
-371 -394 0
-371 -405 0
-371 -416 0
-371 -425 0
-379 -381 0
-379 -394 0
-379 -405 0
-379 -416 0
-379 -425 0
-381 -394 0
-381 -405 0
-381 -416 0
-381 -425 0
-394 -405 0
-394 -416 0
-394 -425 0
-405 -416 0
-405 -425 0
-416 -425 0
41 50 124 134 258 361 390 430 435 440 452 0
-41 -50 0
-41 -124 0
-41 -134 0
-41 -258 0
-41 -361 0
-41 -390 0
-41 -430 0
-41 -435 0
-41 -440 0
-41 -452 0
-50 -124 0
-50 -134 0
-50 -258 0
-50 -361 0
-50 -390 0
-50 -430 0
-50 -435 0
-50 -440 0
-50 -452 0
-124 -134 0
-124 -258 0
-124 -361 0
-124 -390 0
-124 -430 0
-124 -435 0
-124 -440 0
-124 -452 0
-134 -258 0
-134 -361 0
-134 -390 0
-134 -430 0
-134 -435 0
-134 -440 0
-134 -452 0
-258 -361 0
-258 -390 0
-258 -430 0
-258 -435 0
-258 -440 0
-258 -452 0
-361 -390 0
-361 -430 0
-361 -435 0
-361 -440 0
-361 -452 0
-390 -430 0
-390 -435 0
-390 -440 0
-390 -452 0
-430 -435 0
-430 -440 0
-430 -452 0
-435 -440 0
-435 -452 0
-440 -452 0
51 62 114 124 210 248 322 351 401 447 456 0
-51 -62 0
-51 -114 0
-51 -124 0
-51 -210 0
-51 -248 0
-51 -322 0
-51 -351 0
-51 -401 0
-51 -447 0
-51 -456 0
-62 -114 0
-62 -124 0
-62 -210 0
-62 -248 0
-62 -322 0
-62 -351 0
-62 -401 0
-62 -447 0
-62 -456 0
-114 -124 0
-114 -210 0
-114 -248 0
-114 -322 0
-114 -351 0
-114 -401 0
-114 -447 0
-114 -456 0
-124 -210 0
-124 -248 0
-124 -322 0
-124 -351 0
-124 -401 0
-124 -447 0
-124 -456 0
-210 -248 0
-210 -322 0
-210 -351 0
-210 -401 0
-210 -447 0
-210 -456 0
-248 -322 0
-248 -351 0
-248 -401 0
-248 -447 0
-248 -456 0
-322 -351 0
-322 -401 0
-322 -447 0
-322 -456 0
-351 -401 0
-351 -447 0
-351 -456 0
-401 -447 0
-401 -456 0
-447 -456 0
63 114 222 238 258 334 341 371 409 412 444 0
-63 -114 0
-63 -222 0
-63 -238 0
-63 -258 0
-63 -334 0
-63 -341 0
-63 -371 0
-63 -409 0
-63 -412 0
-63 -444 0
-114 -222 0
-114 -238 0
-114 -258 0
-114 -334 0
-114 -341 0
-114 -371 0
-114 -409 0
-114 -412 0
-114 -444 0
-222 -238 0
-222 -258 0
-222 -334 0
-222 -341 0
-222 -371 0
-222 -409 0
-222 -412 0
-222 -444 0
-238 -258 0
-238 -334 0
-238 -341 0
-238 -371 0
-238 -409 0
-238 -412 0
-238 -444 0
-258 -334 0
-258 -341 0
-258 -371 0
-258 -409 0
-258 -412 0
-258 -444 0
-334 -341 0
-334 -371 0
-334 -409 0
-334 -412 0
-334 -444 0
-341 -371 0
-341 -409 0
-341 -412 0
-341 -444 0
-371 -409 0
-371 -412 0
-371 -444 0
-409 -412 0
-409 -444 0
-412 -444 0
75 87 93 228 233 248 330 345 361 381 398 0
-75 -87 0
-75 -93 0
-75 -228 0
-75 -233 0
-75 -248 0
-75 -330 0
-75 -345 0
-75 -361 0
-75 -381 0
-75 -398 0
-87 -93 0
-87 -228 0
-87 -233 0
-87 -248 0
-87 -330 0
-87 -345 0
-87 -361 0
-87 -381 0
-87 -398 0
-93 -228 0
-93 -233 0
-93 -248 0
-93 -330 0
-93 -345 0
-93 -361 0
-93 -381 0
-93 -398 0
-228 -233 0
-228 -248 0
-228 -330 0
-228 -345 0
-228 -361 0
-228 -381 0
-228 -398 0
-233 -248 0
-233 -330 0
-233 -345 0
-233 -361 0
-233 -381 0
-233 -398 0
-248 -330 0
-248 -345 0
-248 -361 0
-248 -381 0
-248 -398 0
-330 -345 0
-330 -361 0
-330 -381 0
-330 -398 0
-345 -361 0
-345 -381 0
-345 -398 0
-361 -381 0
-361 -398 0
-381 -398 0
9 18 30 42 52 64 76 89 132 144 158 0
-9 -18 0
-9 -30 0
-9 -42 0
-9 -52 0
-9 -64 0
-9 -76 0
-9 -89 0
-9 -132 0
-9 -144 0
-9 -158 0
-18 -30 0
-18 -42 0
-18 -52 0
-18 -64 0
-18 -76 0
-18 -89 0
-18 -132 0
-18 -144 0
-18 -158 0
-30 -42 0
-30 -52 0
-30 -64 0
-30 -76 0
-30 -89 0
-30 -132 0
-30 -144 0
-30 -158 0
-42 -52 0
-42 -64 0
-42 -76 0
-42 -89 0
-42 -132 0
-42 -144 0
-42 -158 0
-52 -64 0
-52 -76 0
-52 -89 0
-52 -132 0
-52 -144 0
-52 -158 0
-64 -76 0
-64 -89 0
-64 -132 0
-64 -144 0
-64 -158 0
-76 -89 0
-76 -132 0
-76 -144 0
-76 -158 0
-89 -132 0
-89 -144 0
-89 -158 0
-132 -144 0
-132 -158 0
-144 -158 0
9 167 168 178 189 202 211 224 256 268 280 0
-9 -167 0
-9 -168 0
-9 -178 0
-9 -189 0
-9 -202 0
-9 -211 0
-9 -224 0
-9 -256 0
-9 -268 0
-9 -280 0
-167 -168 0
-167 -178 0
-167 -189 0
-167 -202 0
-167 -211 0
-167 -224 0
-167 -256 0
-167 -268 0
-167 -280 0
-168 -178 0
-168 -189 0
-168 -202 0
-168 -211 0
-168 -224 0
-168 -256 0
-168 -268 0
-168 -280 0
-178 -189 0
-178 -202 0
-178 -211 0
-178 -224 0
-178 -256 0
-178 -268 0
-178 -280 0
-189 -202 0
-189 -211 0
-189 -224 0
-189 -256 0
-189 -268 0
-189 -280 0
-202 -211 0
-202 -224 0
-202 -256 0
-202 -268 0
-202 -280 0
-211 -224 0
-211 -256 0
-211 -268 0
-211 -280 0
-224 -256 0
-224 -268 0
-224 -280 0
-256 -268 0
-256 -280 0
-268 -280 0
18 29 146 177 288 290 302 314 325 359 369 0
-18 -29 0
-18 -146 0
-18 -177 0
-18 -288 0
-18 -290 0
-18 -302 0
-18 -314 0
-18 -325 0
-18 -359 0
-18 -369 0
-29 -146 0
-29 -177 0
-29 -288 0
-29 -290 0
-29 -302 0
-29 -314 0
-29 -325 0
-29 -359 0
-29 -369 0
-146 -177 0
-146 -288 0
-146 -290 0
-146 -302 0
-146 -314 0
-146 -325 0
-146 -359 0
-146 -369 0
-177 -288 0
-177 -290 0
-177 -302 0
-177 -314 0
-177 -325 0
-177 -359 0
-177 -369 0
-288 -290 0
-288 -302 0
-288 -314 0
-288 -325 0
-288 -359 0
-288 -369 0
-290 -302 0
-290 -314 0
-290 -325 0
-290 -359 0
-290 -369 0
-302 -314 0
-302 -325 0
-302 -359 0
-302 -369 0
-314 -325 0
-314 -359 0
-314 -369 0
-325 -359 0
-325 -369 0
-359 -369 0
30 41 135 146 168 188 271 372 382 395 426 0
-30 -41 0
-30 -135 0
-30 -146 0
-30 -168 0
-30 -188 0
-30 -271 0
-30 -372 0
-30 -382 0
-30 -395 0
-30 -426 0
-41 -135 0
-41 -146 0
-41 -168 0
-41 -188 0
-41 -271 0
-41 -372 0
-41 -382 0
-41 -395 0
-41 -426 0
-135 -146 0
-135 -168 0
-135 -188 0
-135 -271 0
-135 -372 0
-135 -382 0
-135 -395 0
-135 -426 0
-146 -168 0
-146 -188 0
-146 -271 0
-146 -372 0
-146 -382 0
-146 -395 0
-146 -426 0
-168 -188 0
-168 -271 0
-168 -372 0
-168 -382 0
-168 -395 0
-168 -426 0
-188 -271 0
-188 -372 0
-188 -382 0
-188 -395 0
-188 -426 0
-271 -372 0
-271 -382 0
-271 -395 0
-271 -426 0
-372 -382 0
-372 -395 0
-372 -426 0
-382 -395 0
-382 -426 0
-395 -426 0
42 51 125 135 178 201 259 313 362 391 436 0
-42 -51 0
-42 -125 0
-42 -135 0
-42 -178 0
-42 -201 0
-42 -259 0
-42 -313 0
-42 -362 0
-42 -391 0
-42 -436 0
-51 -125 0
-51 -135 0
-51 -178 0
-51 -201 0
-51 -259 0
-51 -313 0
-51 -362 0
-51 -391 0
-51 -436 0
-125 -135 0
-125 -178 0
-125 -201 0
-125 -259 0
-125 -313 0
-125 -362 0
-125 -391 0
-125 -436 0
-135 -178 0
-135 -201 0
-135 -259 0
-135 -313 0
-135 -362 0
-135 -391 0
-135 -436 0
-178 -201 0
-178 -259 0
-178 -313 0
-178 -362 0
-178 -391 0
-178 -436 0
-201 -259 0
-201 -313 0
-201 -362 0
-201 -391 0
-201 -436 0
-259 -313 0
-259 -362 0
-259 -391 0
-259 -436 0
-313 -362 0
-313 -391 0
-313 -436 0
-362 -391 0
-362 -436 0
-391 -436 0
52 63 125 189 249 271 290 323 352 402 448 0
-52 -63 0
-52 -125 0
-52 -189 0
-52 -249 0
-52 -271 0
-52 -290 0
-52 -323 0
-52 -352 0
-52 -402 0
-52 -448 0
-63 -125 0
-63 -189 0
-63 -249 0
-63 -271 0
-63 -290 0
-63 -323 0
-63 -352 0
-63 -402 0
-63 -448 0
-125 -189 0
-125 -249 0
-125 -271 0
-125 -290 0
-125 -323 0
-125 -352 0
-125 -402 0
-125 -448 0
-189 -249 0
-189 -271 0
-189 -290 0
-189 -323 0
-189 -352 0
-189 -402 0
-189 -448 0
-249 -271 0
-249 -290 0
-249 -323 0
-249 -352 0
-249 -402 0
-249 -448 0
-271 -290 0
-271 -323 0
-271 -352 0
-271 -402 0
-271 -448 0
-290 -323 0
-290 -352 0
-290 -402 0
-290 -448 0
-323 -352 0
-323 -402 0
-323 -448 0
-352 -402 0
-352 -448 0
-402 -448 0
64 75 104 202 223 239 259 302 335 372 413 0
-64 -75 0
-64 -104 0
-64 -202 0
-64 -223 0
-64 -239 0
-64 -259 0
-64 -302 0
-64 -335 0
-64 -372 0
-64 -413 0
-75 -104 0
-75 -202 0
-75 -223 0
-75 -239 0
-75 -259 0
-75 -302 0
-75 -335 0
-75 -372 0
-75 -413 0
-104 -202 0
-104 -223 0
-104 -239 0
-104 -259 0
-104 -302 0
-104 -335 0
-104 -372 0
-104 -413 0
-202 -223 0
-202 -239 0
-202 -259 0
-202 -302 0
-202 -335 0
-202 -372 0
-202 -413 0
-223 -239 0
-223 -259 0
-223 -302 0
-223 -335 0
-223 -372 0
-223 -413 0
-239 -259 0
-239 -302 0
-239 -335 0
-239 -372 0
-239 -413 0
-259 -302 0
-259 -335 0
-259 -372 0
-259 -413 0
-302 -335 0
-302 -372 0
-302 -413 0
-335 -372 0
-335 -413 0
-372 -413 0
9 19 31 43 53 65 77 90 103 122 133 145 0
-9 -19 0
-9 -31 0
-9 -43 0
-9 -53 0
-9 -65 0
-9 -77 0
-9 -90 0
-9 -103 0
-9 -122 0
-9 -133 0
-9 -145 0
-19 -31 0
-19 -43 0
-19 -53 0
-19 -65 0
-19 -77 0
-19 -90 0
-19 -103 0
-19 -122 0
-19 -133 0
-19 -145 0
-31 -43 0
-31 -53 0
-31 -65 0
-31 -77 0
-31 -90 0
-31 -103 0
-31 -122 0
-31 -133 0
-31 -145 0
-43 -53 0
-43 -65 0
-43 -77 0
-43 -90 0
-43 -103 0
-43 -122 0
-43 -133 0
-43 -145 0
-53 -65 0
-53 -77 0
-53 -90 0
-53 -103 0
-53 -122 0
-53 -133 0
-53 -145 0
-65 -77 0
-65 -90 0
-65 -103 0
-65 -122 0
-65 -133 0
-65 -145 0
-77 -90 0
-77 -103 0
-77 -122 0
-77 -133 0
-77 -145 0
-90 -103 0
-90 -122 0
-90 -133 0
-90 -145 0
-103 -122 0
-103 -133 0
-103 -145 0
-122 -133 0
-122 -145 0
-133 -145 0
18 159 179 190 203 212 225 235 257 269 281 0
-18 -159 0
-18 -179 0
-18 -190 0
-18 -203 0
-18 -212 0
-18 -225 0
-18 -235 0
-18 -257 0
-18 -269 0
-18 -281 0
-159 -179 0
-159 -190 0
-159 -203 0
-159 -212 0
-159 -225 0
-159 -235 0
-159 -257 0
-159 -269 0
-159 -281 0
-179 -190 0
-179 -203 0
-179 -212 0
-179 -225 0
-179 -235 0
-179 -257 0
-179 -269 0
-179 -281 0
-190 -203 0
-190 -212 0
-190 -225 0
-190 -235 0
-190 -257 0
-190 -269 0
-190 -281 0
-203 -212 0
-203 -225 0
-203 -235 0
-203 -257 0
-203 -269 0
-203 -281 0
-212 -225 0
-212 -235 0
-212 -257 0
-212 -269 0
-212 -281 0
-225 -235 0
-225 -257 0
-225 -269 0
-225 -281 0
-235 -257 0
-235 -269 0
-235 -281 0
-257 -269 0
-257 -281 0
-269 -281 0
19 30 147 159 282 289 291 303 315 326 337 0
-19 -30 0
-19 -147 0
-19 -159 0
-19 -282 0
-19 -289 0
-19 -291 0
-19 -303 0
-19 -315 0
-19 -326 0
-19 -337 0
-30 -147 0
-30 -159 0
-30 -282 0
-30 -289 0
-30 -291 0
-30 -303 0
-30 -315 0
-30 -326 0
-30 -337 0
-147 -159 0
-147 -282 0
-147 -289 0
-147 -291 0
-147 -303 0
-147 -315 0
-147 -326 0
-147 -337 0
-159 -282 0
-159 -289 0
-159 -291 0
-159 -303 0
-159 -315 0
-159 -326 0
-159 -337 0
-282 -289 0
-282 -291 0
-282 -303 0
-282 -315 0
-282 -326 0
-282 -337 0
-289 -291 0
-289 -303 0
-289 -315 0
-289 -326 0
-289 -337 0
-291 -303 0
-291 -315 0
-291 -326 0
-291 -337 0
-303 -315 0
-303 -326 0
-303 -337 0
-315 -326 0
-315 -337 0
-326 -337 0
31 42 136 147 272 301 373 380 396 406 427 0
-31 -42 0
-31 -136 0
-31 -147 0
-31 -272 0
-31 -301 0
-31 -373 0
-31 -380 0
-31 -396 0
-31 -406 0
-31 -427 0
-42 -136 0
-42 -147 0
-42 -272 0
-42 -301 0
-42 -373 0
-42 -380 0
-42 -396 0
-42 -406 0
-42 -427 0
-136 -147 0
-136 -272 0
-136 -301 0
-136 -373 0
-136 -380 0
-136 -396 0
-136 -406 0
-136 -427 0
-147 -272 0
-147 -301 0
-147 -373 0
-147 -380 0
-147 -396 0
-147 -406 0
-147 -427 0
-272 -301 0
-272 -373 0
-272 -380 0
-272 -396 0
-272 -406 0
-272 -427 0
-301 -373 0
-301 -380 0
-301 -396 0
-301 -406 0
-301 -427 0
-373 -380 0
-373 -396 0
-373 -406 0
-373 -427 0
-380 -396 0
-380 -406 0
-380 -427 0
-396 -406 0
-396 -427 0
-406 -427 0
43 52 136 179 260 282 363 392 431 437 441 0
-43 -52 0
-43 -136 0
-43 -179 0
-43 -260 0
-43 -282 0
-43 -363 0
-43 -392 0
-43 -431 0
-43 -437 0
-43 -441 0
-52 -136 0
-52 -179 0
-52 -260 0
-52 -282 0
-52 -363 0
-52 -392 0
-52 -431 0
-52 -437 0
-52 -441 0
-136 -179 0
-136 -260 0
-136 -282 0
-136 -363 0
-136 -392 0
-136 -431 0
-136 -437 0
-136 -441 0
-179 -260 0
-179 -282 0
-179 -363 0
-179 -392 0
-179 -431 0
-179 -437 0
-179 -441 0
-260 -282 0
-260 -363 0
-260 -392 0
-260 -431 0
-260 -437 0
-260 -441 0
-282 -363 0
-282 -392 0
-282 -431 0
-282 -437 0
-282 -441 0
-363 -392 0
-363 -431 0
-363 -437 0
-363 -441 0
-392 -431 0
-392 -437 0
-392 -441 0
-431 -437 0
-431 -441 0
-437 -441 0
53 64 115 190 250 272 291 324 353 403 420 449 0
-53 -64 0
-53 -115 0
-53 -190 0
-53 -250 0
-53 -272 0
-53 -291 0
-53 -324 0
-53 -353 0
-53 -403 0
-53 -420 0
-53 -449 0
-64 -115 0
-64 -190 0
-64 -250 0
-64 -272 0
-64 -291 0
-64 -324 0
-64 -353 0
-64 -403 0
-64 -420 0
-64 -449 0
-115 -190 0
-115 -250 0
-115 -272 0
-115 -291 0
-115 -324 0
-115 -353 0
-115 -403 0
-115 -420 0
-115 -449 0
-190 -250 0
-190 -272 0
-190 -291 0
-190 -324 0
-190 -353 0
-190 -403 0
-190 -420 0
-190 -449 0
-250 -272 0
-250 -291 0
-250 -324 0
-250 -353 0
-250 -403 0
-250 -420 0
-250 -449 0
-272 -291 0
-272 -324 0
-272 -353 0
-272 -403 0
-272 -420 0
-272 -449 0
-291 -324 0
-291 -353 0
-291 -403 0
-291 -420 0
-291 -449 0
-324 -353 0
-324 -403 0
-324 -420 0
-324 -449 0
-353 -403 0
-353 -420 0
-353 -449 0
-403 -420 0
-403 -449 0
-420 -449 0
19 160 168 169 180 191 204 213 226 236 270 0
-19 -160 0
-19 -168 0
-19 -169 0
-19 -180 0
-19 -191 0
-19 -204 0
-19 -213 0
-19 -226 0
-19 -236 0
-19 -270 0
-160 -168 0
-160 -169 0
-160 -180 0
-160 -191 0
-160 -204 0
-160 -213 0
-160 -226 0
-160 -236 0
-160 -270 0
-168 -169 0
-168 -180 0
-168 -191 0
-168 -204 0
-168 -213 0
-168 -226 0
-168 -236 0
-168 -270 0
-169 -180 0
-169 -191 0
-169 -204 0
-169 -213 0
-169 -226 0
-169 -236 0
-169 -270 0
-180 -191 0
-180 -204 0
-180 -213 0
-180 -226 0
-180 -236 0
-180 -270 0
-191 -204 0
-191 -213 0
-191 -226 0
-191 -236 0
-191 -270 0
-204 -213 0
-204 -226 0
-204 -236 0
-204 -270 0
-213 -226 0
-213 -236 0
-213 -270 0
-226 -236 0
-226 -270 0
-236 -270 0
31 148 160 178 283 292 316 327 338 348 360 370 0
-31 -148 0
-31 -160 0
-31 -178 0
-31 -283 0
-31 -292 0
-31 -316 0
-31 -327 0
-31 -338 0
-31 -348 0
-31 -360 0
-31 -370 0
-148 -160 0
-148 -178 0
-148 -283 0
-148 -292 0
-148 -316 0
-148 -327 0
-148 -338 0
-148 -348 0
-148 -360 0
-148 -370 0
-160 -178 0
-160 -283 0
-160 -292 0
-160 -316 0
-160 -327 0
-160 -338 0
-160 -348 0
-160 -360 0
-160 -370 0
-178 -283 0
-178 -292 0
-178 -316 0
-178 -327 0
-178 -338 0
-178 -348 0
-178 -360 0
-178 -370 0
-283 -292 0
-283 -316 0
-283 -327 0
-283 -338 0
-283 -348 0
-283 -360 0
-283 -370 0
-292 -316 0
-292 -327 0
-292 -338 0
-292 -348 0
-292 -360 0
-292 -370 0
-316 -327 0
-316 -338 0
-316 -348 0
-316 -360 0
-316 -370 0
-327 -338 0
-327 -348 0
-327 -360 0
-327 -370 0
-338 -348 0
-338 -360 0
-338 -370 0
-348 -360 0
-348 -370 0
-360 -370 0
43 148 169 189 273 374 383 397 407 417 428 0
-43 -148 0
-43 -169 0
-43 -189 0
-43 -273 0
-43 -374 0
-43 -383 0
-43 -397 0
-43 -407 0
-43 -417 0
-43 -428 0
-148 -169 0
-148 -189 0
-148 -273 0
-148 -374 0
-148 -383 0
-148 -397 0
-148 -407 0
-148 -417 0
-148 -428 0
-169 -189 0
-169 -273 0
-169 -374 0
-169 -383 0
-169 -397 0
-169 -407 0
-169 -417 0
-169 -428 0
-189 -273 0
-189 -374 0
-189 -383 0
-189 -397 0
-189 -407 0
-189 -417 0
-189 -428 0
-273 -374 0
-273 -383 0
-273 -397 0
-273 -407 0
-273 -417 0
-273 -428 0
-374 -383 0
-374 -397 0
-374 -407 0
-374 -417 0
-374 -428 0
-383 -397 0
-383 -407 0
-383 -417 0
-383 -428 0
-397 -407 0
-397 -417 0
-397 -428 0
-407 -417 0
-407 -428 0
-417 -428 0
53 126 180 202 261 283 364 393 432 438 453 0
-53 -126 0
-53 -180 0
-53 -202 0
-53 -261 0
-53 -283 0
-53 -364 0
-53 -393 0
-53 -432 0
-53 -438 0
-53 -453 0
-126 -180 0
-126 -202 0
-126 -261 0
-126 -283 0
-126 -364 0
-126 -393 0
-126 -432 0
-126 -438 0
-126 -453 0
-180 -202 0
-180 -261 0
-180 -283 0
-180 -364 0
-180 -393 0
-180 -432 0
-180 -438 0
-180 -453 0
-202 -261 0
-202 -283 0
-202 -364 0
-202 -393 0
-202 -432 0
-202 -438 0
-202 -453 0
-261 -283 0
-261 -364 0
-261 -393 0
-261 -432 0
-261 -438 0
-261 -453 0
-283 -364 0
-283 -393 0
-283 -432 0
-283 -438 0
-283 -453 0
-364 -393 0
-364 -432 0
-364 -438 0
-364 -453 0
-393 -432 0
-393 -438 0
-393 -453 0
-432 -438 0
-432 -453 0
-438 -453 0
20 32 44 54 66 78 91 123 134 146 159 0
-20 -32 0
-20 -44 0
-20 -54 0
-20 -66 0
-20 -78 0
-20 -91 0
-20 -123 0
-20 -134 0
-20 -146 0
-20 -159 0
-32 -44 0
-32 -54 0
-32 -66 0
-32 -78 0
-32 -91 0
-32 -123 0
-32 -134 0
-32 -146 0
-32 -159 0
-44 -54 0
-44 -66 0
-44 -78 0
-44 -91 0
-44 -123 0
-44 -134 0
-44 -146 0
-44 -159 0
-54 -66 0
-54 -78 0
-54 -91 0
-54 -123 0
-54 -134 0
-54 -146 0
-54 -159 0
-66 -78 0
-66 -91 0
-66 -123 0
-66 -134 0
-66 -146 0
-66 -159 0
-78 -91 0
-78 -123 0
-78 -134 0
-78 -146 0
-78 -159 0
-91 -123 0
-91 -134 0
-91 -146 0
-91 -159 0
-123 -134 0
-123 -146 0
-123 -159 0
-134 -146 0
-134 -159 0
-146 -159 0
20 179 284 290 293 304 317 328 339 349 371 0
-20 -179 0
-20 -284 0
-20 -290 0
-20 -293 0
-20 -304 0
-20 -317 0
-20 -328 0
-20 -339 0
-20 -349 0
-20 -371 0
-179 -284 0
-179 -290 0
-179 -293 0
-179 -304 0
-179 -317 0
-179 -328 0
-179 -339 0
-179 -349 0
-179 -371 0
-284 -290 0
-284 -293 0
-284 -304 0
-284 -317 0
-284 -328 0
-284 -339 0
-284 -349 0
-284 -371 0
-290 -293 0
-290 -304 0
-290 -317 0
-290 -328 0
-290 -339 0
-290 -349 0
-290 -371 0
-293 -304 0
-293 -317 0
-293 -328 0
-293 -339 0
-293 -349 0
-293 -371 0
-304 -317 0
-304 -328 0
-304 -339 0
-304 -349 0
-304 -371 0
-317 -328 0
-317 -339 0
-317 -349 0
-317 -371 0
-328 -339 0
-328 -349 0
-328 -371 0
-339 -349 0
-339 -371 0
-349 -371 0
32 137 190 274 302 375 381 384 408 418 429 0
-32 -137 0
-32 -190 0
-32 -274 0
-32 -302 0
-32 -375 0
-32 -381 0
-32 -384 0
-32 -408 0
-32 -418 0
-32 -429 0
-137 -190 0
-137 -274 0
-137 -302 0
-137 -375 0
-137 -381 0
-137 -384 0
-137 -408 0
-137 -418 0
-137 -429 0
-190 -274 0
-190 -302 0
-190 -375 0
-190 -381 0
-190 -384 0
-190 -408 0
-190 -418 0
-190 -429 0
-274 -302 0
-274 -375 0
-274 -381 0
-274 -384 0
-274 -408 0
-274 -418 0
-274 -429 0
-302 -375 0
-302 -381 0
-302 -384 0
-302 -408 0
-302 -418 0
-302 -429 0
-375 -381 0
-375 -384 0
-375 -408 0
-375 -418 0
-375 -429 0
-381 -384 0
-381 -408 0
-381 -418 0
-381 -429 0
-384 -408 0
-384 -418 0
-384 -429 0
-408 -418 0
-408 -429 0
-418 -429 0
10 21 33 55 67 79 113 124 135 147 160 0
-10 -21 0
-10 -33 0
-10 -55 0
-10 -67 0
-10 -79 0
-10 -113 0
-10 -124 0
-10 -135 0
-10 -147 0
-10 -160 0
-21 -33 0
-21 -55 0
-21 -67 0
-21 -79 0
-21 -113 0
-21 -124 0
-21 -135 0
-21 -147 0
-21 -160 0
-33 -55 0
-33 -67 0
-33 -79 0
-33 -113 0
-33 -124 0
-33 -135 0
-33 -147 0
-33 -160 0
-55 -67 0
-55 -79 0
-55 -113 0
-55 -124 0
-55 -135 0
-55 -147 0
-55 -160 0
-67 -79 0
-67 -113 0
-67 -124 0
-67 -135 0
-67 -147 0
-67 -160 0
-79 -113 0
-79 -124 0
-79 -135 0
-79 -147 0
-79 -160 0
-113 -124 0
-113 -135 0
-113 -147 0
-113 -160 0
-124 -135 0
-124 -147 0
-124 -160 0
-135 -147 0
-135 -160 0
-147 -160 0
10 20 169 170 181 192 205 214 258 271 282 0
-10 -20 0
-10 -169 0
-10 -170 0
-10 -181 0
-10 -192 0
-10 -205 0
-10 -214 0
-10 -258 0
-10 -271 0
-10 -282 0
-20 -169 0
-20 -170 0
-20 -181 0
-20 -192 0
-20 -205 0
-20 -214 0
-20 -258 0
-20 -271 0
-20 -282 0
-169 -170 0
-169 -181 0
-169 -192 0
-169 -205 0
-169 -214 0
-169 -258 0
-169 -271 0
-169 -282 0
-170 -181 0
-170 -192 0
-170 -205 0
-170 -214 0
-170 -258 0
-170 -271 0
-170 -282 0
-181 -192 0
-181 -205 0
-181 -214 0
-181 -258 0
-181 -271 0
-181 -282 0
-192 -205 0
-192 -214 0
-192 -258 0
-192 -271 0
-192 -282 0
-205 -214 0
-205 -258 0
-205 -271 0
-205 -282 0
-214 -258 0
-214 -271 0
-214 -282 0
-258 -271 0
-258 -282 0
-271 -282 0
21 32 149 180 285 291 294 305 350 361 372 0
-21 -32 0
-21 -149 0
-21 -180 0
-21 -285 0
-21 -291 0
-21 -294 0
-21 -305 0
-21 -350 0
-21 -361 0
-21 -372 0
-32 -149 0
-32 -180 0
-32 -285 0
-32 -291 0
-32 -294 0
-32 -305 0
-32 -350 0
-32 -361 0
-32 -372 0
-149 -180 0
-149 -285 0
-149 -291 0
-149 -294 0
-149 -305 0
-149 -350 0
-149 -361 0
-149 -372 0
-180 -285 0
-180 -291 0
-180 -294 0
-180 -305 0
-180 -350 0
-180 -361 0
-180 -372 0
-285 -291 0
-285 -294 0
-285 -305 0
-285 -350 0
-285 -361 0
-285 -372 0
-291 -294 0
-291 -305 0
-291 -350 0
-291 -361 0
-291 -372 0
-294 -305 0
-294 -350 0
-294 -361 0
-294 -372 0
-305 -350 0
-305 -361 0
-305 -372 0
-350 -361 0
-350 -372 0
-361 -372 0
10 22 45 56 68 80 92 114 125 136 148 0
-10 -22 0
-10 -45 0
-10 -56 0
-10 -68 0
-10 -80 0
-10 -92 0
-10 -114 0
-10 -125 0
-10 -136 0
-10 -148 0
-22 -45 0
-22 -56 0
-22 -68 0
-22 -80 0
-22 -92 0
-22 -114 0
-22 -125 0
-22 -136 0
-22 -148 0
-45 -56 0
-45 -68 0
-45 -80 0
-45 -92 0
-45 -114 0
-45 -125 0
-45 -136 0
-45 -148 0
-56 -68 0
-56 -80 0
-56 -92 0
-56 -114 0
-56 -125 0
-56 -136 0
-56 -148 0
-68 -80 0
-68 -92 0
-68 -114 0
-68 -125 0
-68 -136 0
-68 -148 0
-80 -92 0
-80 -114 0
-80 -125 0
-80 -136 0
-80 -148 0
-92 -114 0
-92 -125 0
-92 -136 0
-92 -148 0
-114 -125 0
-114 -136 0
-114 -148 0
-125 -136 0
-125 -148 0
-136 -148 0
21 161 182 193 215 227 237 248 259 272 283 0
-21 -161 0
-21 -182 0
-21 -193 0
-21 -215 0
-21 -227 0
-21 -237 0
-21 -248 0
-21 -259 0
-21 -272 0
-21 -283 0
-161 -182 0
-161 -193 0
-161 -215 0
-161 -227 0
-161 -237 0
-161 -248 0
-161 -259 0
-161 -272 0
-161 -283 0
-182 -193 0
-182 -215 0
-182 -227 0
-182 -237 0
-182 -248 0
-182 -259 0
-182 -272 0
-182 -283 0
-193 -215 0
-193 -227 0
-193 -237 0
-193 -248 0
-193 -259 0
-193 -272 0
-193 -283 0
-215 -227 0
-215 -237 0
-215 -248 0
-215 -259 0
-215 -272 0
-215 -283 0
-227 -237 0
-227 -248 0
-227 -259 0
-227 -272 0
-227 -283 0
-237 -248 0
-237 -259 0
-237 -272 0
-237 -283 0
-248 -259 0
-248 -272 0
-248 -283 0
-259 -272 0
-259 -283 0
-272 -283 0
-1 -15 -29 -39 -50 -66 -79 -84 -104 -110 -122 -136 -144 -153 -164 -174 -191 -206 -210 -228 -235 -247 -256 -271 -283 -295 -305 -315 -328 -336 -353 -356 -374 -376 -391 -409 -411 -429 -443 -454 0
-1 -22 -28 -37 -52 -65 -81 -86 -102 -108 -124 -128 -142 -159 -164 -181 -188 -198 -213 -222 -230 -250 -259 -266 -280 -286 -305 -314 -330 -339 -343 -357 -370 -385 -396 -407 -418 -425 -434 -453 0
-1 -18 -34 -36 -49 -62 -77 -91 -98 -110 -118 -135 -148 -157 -164 -181 -186 -202 -213 -228 -234 -241 -254 -272 -284 -287 -300 -311 -329 -337 -350 -358 -375 -377 -392 -409 -410 -430 -433 -448 0
-1 -15 -34 -36 -49 -64 -79 -84 -101 -110 -125 -134 -145 -157 -164 -180 -194 -198 -212 -228 -237 -247 -252 -268 -282 -292 -307 -317 -322 -332 -344 -359 -375 -382 -396 -409 -414 -428 -442 -446 0
-1 -20 -28 -43 -57 -60 -80 -84 -102 -108 -124 -132 -142 -154 -164 -177 -194 -204 -211 -225 -233 -250 -259 -266 -276 -294 -300 -309 -323 -337 -343 -360 -373 -384 -393 -409 -419 -426 -443 -454 0
-1 -21 -26 -42 -54 -61 -80 -85 -100 -112 -118 -137 -145 -157 -164 -177 -194 -198 -211 -225 -236 -250 -255 -271 -276 -286 -303 -310 -330 -333 -351 -360 -371 -383 -392 -399 -413 -432 -435 -446 0
-1 -22 -28 -42 -55 -62 -73 -90 -96 -108 -126 -134 -143 -154 -165 -173 -195 -205 -212 -227 -230 -247 -255 -270 -280 -290 -303 -309 -330 -341 -348 -355 -372 -386 -387 -407 -420 -429 -437 -454 0
-1 -17 -34 -43 -50 -64 -72 -92 -102 -107 -120 -135 -141 -159 -165 -173 -191 -200 -214 -218 -237 -249 -254 -268 -285 -293 -306 -316 -320 -336 -345 -359 -375 -378 -394 -409 -415 -427 -438 -447 0
-1 -14 -28 -45 -48 -62 -76 -90 -98 -107 -123 -131 -147 -161 -170 -173 -189 -197 -212 -223 -236 -246 -261 -266 -277 -296 -308 -313 -327 -334 -349 -361 -369 -384 -395 -404 -416 -421 -441 -449 0
-1 -17 -26 -40 -51 -64 -71 -86 -97 -113 -122 -136 -149 -159 -163 -173 -193 -204 -209 -228 -238 -245 -256 -271 -278 -296 -306 -316 -325 -339 -347 -354 -375 -386 -397 -404 -414 -423 -438 -452 0
-1 -18 -31 -36 -49 -63 -79 -92 -101 -109 -126 -134 -139 -154 -170 -173 -188 -199 -213 -221 -233 -241 -259 -268 -285 -295 -304 -310 -324 -337 -346 -363 -368 -378 -397 -408 -415 -421 -433 -456 0
-1 -14 -31 -45 -48 -69 -74 -84 -102 -109 -123 -135 -144 -156 -163 -181 -185 -202 -215 -222 -236 -250 -257 -273 -279 -290 -306 -319 -326 -336 -343 -361 -365 -384 -394 -400 -415 -423 -441 -447 0
-1 -18 -34 -38 -49 -66 -75 -90 -97 -109 -124 -128 -148 -156 -168 -181 -185 -197 -215 -220 -232 -246 -260 -274 -279 -291 -308 -311 -323 -332 -347 -362 -371 -377 -393 -406 -419 -421 -443 -445 0
-1 -16 -25 -42 -49 -63 -80 -85 -101 -113 -122 -129 -149 -159 -166 -182 -185 -205 -213 -218 -239 -244 -260 -264 -280 -287 -304 -314 -329 -338 -342 -358 -374 -381 -393 -403 -411 -426 -440 -447 0
-1 -21 -29 -37 -49 -64 -77 -87 -97 -110 -126 -136 -139 -159 -167 -176 -185 -206 -213 -220 -232 -246 -258 -274 -276 -287 -304 -311 -323 -331 -348 -362 -368 -378 -395 -407 -419 -421 -443 -447 0
-1 -17 -25 -38 -56 -63 -76 -85 -98 -113 -126 -134 -145 -156 -170 -179 -185 -197 -217 -226 -233 -244 -259 -268 -277 -294 -307 -315 -325 -332 -351 -360 -367 -383 -396 -408 -420 -426 -434 -454 0
-1 -15 -33 -39 -51 -65 -80 -91 -101 -107 -120 -137 -140 -158 -168 -175 -185 -197 -208 -222 -237 -249 -261 -269 -282 -296 -300 -317 -325 -338 -353 -361 -366 -383 -388 -406 -413 -422 -434 -455 0
-1 -21 -30 -39 -54 -61 -77 -87 -97 -109 -125 -137 -139 -157 -169 -176 -195 -202 -208 -219 -235 -247 -260 -265 -276 -292 -297 -309 -322 -333 -344 -359 -371 -386 -396 -403 -419 -423 -434 -452 0
-1 -14 -34 -44 -49 -67 -71 -89 -99 -112 -125 -129 -145 -157 -166 -174 -195 -204 -211 -219 -238 -241 -257 -272 -282 -296 -304 -319 -321 -340 -348 -359 -372 -381 -397 -401 -414 -422 -438 -452 0
-1 -18 -28 -36 -51 -67 -80 -91 -101 -115 -122 -129 -139 -154 -167 -175 -191 -200 -217 -219 -230 -249 -258 -267 -283 -296 -304 -315 -329 -333 -345 -354 -372 -377 -396 -405 -418 -428 -441 -446 0
-1 -22 -26 -40 -54 -67 -81 -89 -103 -110 -119 -130 -139 -157 -163 -176 -190 -201 -211 -219 -232 -248 -261 -270 -282 -287 -304 -309 -320 -341 -348 -359 -372 -385 -396 -402 -414 -428 -442 -452 0
-1 -22 -25 -42 -49 -66 -81 -86 -97 -109 -121 -133 -143 -160 -163 -182 -186 -202 -212 -219 -233 -247 -258 -265 -285 -289 -297 -317 -323 -333 -342 -359 -374 -382 -394 -408 -420 -431 -433 -447 0
-1 -22 -28 -36 -53 -61 -71 -89 -101 -109 -124 -137 -146 -157 -166 -179 -189 -205 -217 -219 -232 -241 -259 -270 -277 -294 -303 -312 -327 -341 -345 -355 -366 -386 -387 -399 -416 -427 -443 -450 0
-1 -17 -30 -37 -47 -66 -79 -85 -102 -110 -125 -133 -142 -161 -169 -176 -187 -203 -211 -219 -238 -250 -252 -265 -277 -296 -302 -319 -322 -339 -344 -361 -370 -386 -396 -399 -419 -432 -441 -451 0
-1 -17 -26 -40 -54 -61 -75 -89 -103 -113 -118 -136 -149 -153 -168 -176 -195 -203 -214 -219 -232 -249 -254 -267 -283 -286 -304 -319 -326 -341 -351 -359 -367 -384 -391 -403 -415 -428 -435 -445 0
-1 -20 -34 -38 -55 -64 -74 -84 -98 -112 -125 -131 -145 -153 -168 -177 -194 -199 -212 -220 -231 -248 -255 -267 -285 -292 -303 -319 -321 -334 -346 -356 -374 -377 -394 -406 -418 -431 -435 -453 0
-1 -18 -28 -36 -50 -65 -78 -88 -98 -110 -118 -136 -149 -160 -166 -175 -194 -198 -210 -224 -231 -250 -259 -271 -276 -286 -299 -319 -326 -340 -349 -355 -368 -381 -389 -409 -417 -432 -442 -451 0
-1 -14 -29 -38 -49 -65 -78 -84 -98 -112 -125 -137 -147 -158 -170 -174 -195 -204 -212 -222 -231 -248 -255 -268 -276 -295 -308 -310 -321 -339 -346 -360 -372 -376 -393 -407 -420 -431 -443 -452 0
-1 -14 -33 -45 -49 -60 -77 -84 -101 -115 -120 -134 -143 -158 -168 -179 -193 -197 -214 -222 -231 -245 -254 -273 -285 -287 -302 -313 -330 -337 -352 -354 -370 -378 -387 -401 -411 -427 -438 -446 0
-1 -21 -34 -41 -54 -62 -77 -85 -98 -110 -125 -128 -144 -155 -169 -177 -190 -197 -208 -222 -239 -242 -256 -266 -284 -296 -300 -316 -330 -337 -344 -358 -373 -376 -393 -400 -419 -423 -437 -450 0
-1 -20 -28 -37 -53 -61 -76 -87 -96 -108 -124 -137 -148 -157 -168 -177 -194 -199 -212 -221 -230 -242 -259 -264 -285 -287 -308 -309 -329 -337 -352 -356 -368 -379 -396 -409 -419 -424 -437 -445 0
-1 -19 -32 -38 -52 -60 -71 -93 -97 -113 -121 -131 -148 -155 -163 -177 -192 -206 -212 -222 -239 -245 -253 -272 -280 -296 -300 -317 -329 -336 -342 -364 -366 -382 -391 -400 -415 -421 -440 -447 0
-1 -22 -26 -41 -49 -67 -77 -84 -101 -115 -120 -132 -140 -159 -163 -178 -191 -199 -214 -221 -239 -248 -253 -267 -279 -294 -304 -314 -323 -341 -343 -358 -366 -380 -393 -408 -417 -425 -441 -455 0
-1 -22 -28 -42 -50 -65 -81 -91 -99 -107 -119 -129 -143 -160 -172 -181 -189 -199 -208 -221 -235 -248 -253 -267 -279 -291 -297 -309 -325 -335 -344 -364 -371 -382 -388 -408 -415 -431 -434 -454 0
-1 -21 -26 -44 -49 -62 -75 -90 -97 -115 -125 -128 -144 -154 -168 -176 -195 -199 -212 -222 -230 -247 -253 -273 -282 -296 -308 -309 -329 -339 -348 -359 -367 -384 -393 -406 -416 -423 -440 -446 0
-1 -22 -25 -43 -48 -66 -81 -89 -98 -113 -121 -131 -140 -155 -166 -181 -195 -197 -211 -222 -236 -248 -254 -263 -281 -290 -300 -313 -327 -337 -343 -364 -372 -384 -396 -403 -415 -430 -433 -454 0
-1 -21 -30 -36 -48 -63 -81 -92 -98 -107 -123 -130 -145 -156 -170 -175 -187 -201 -211 -225 -236 -241 -261 -263 -277 -287 -302 -316 -330 -339 -351 -363 -366 -377 -397 -406 -414 -421 -440 -449 0
-1 -20 -25 -39 -55 -63 -76 -90 -99 -108 -126 -129 -148 -156 -165 -183 -195 -197 -208 -224 -236 -248 -257 -263 -279 -288 -301 -319 -329 -337 -343 -363 -372 -384 -391 -403 -416 -430 -439 -455 0
-1 -18 -25 -38 -55 -60 -78 -90 -102 -111 -126 -136 -142 -153 -167 -174 -193 -204 -209 -221 -233 -250 -258 -263 -284 -289 -307 -319 -323 -331 -351 -360 -372 -385 -397 -408 -416 -423 -436 -451 0
-1 -21 -29 -37 -50 -61 -80 -91 -96 -115 -122 -130 -140 -158 -163 -181 -189 -199 -212 -226 -239 -246 -255 -263 -284 -292 -297 -313 -326 -333 -345 -364 -366 -382 -392 -406 -415 -429 -444 -456 0
-2 -21 -28 -41 -56 -65 -81 -89 -98 -112 -120 -127 -140 -159 -164 -174 -195 -200 -214 -226 -233 -249 -251 -268 -279 -293 -302 -313 -320 -332 -351 -364 -370 -379 -396 -409 -420 -428 -437 -446 0
-2 -15 -33 -40 -53 -66 -75 -89 -99 -111 -119 -137 -148 -150 -165 -179 -195 -201 -208 -227 -236 -240 -253 -271 -280 -289 -305 -319 -320 -331 -343 -357 -369 -378 -387 -409 -415 -427 -440 -447 0
-2 -18 -32 -40 -57 -61 -77 -85 -98 -114 -116 -131 -147 -155 -169 -176 -194 -201 -217 -219 -229 -246 -254 -268 -283 -295 -304 -311 -330 -335 -352 -355 -368 -382 -392 -404 -420 -422 -435 -446 0
-2 -21 -28 -36 -56 -64 -77 -93 -102 -110 -116 -134 -141 -156 -168 -181 -184 -201 -217 -222 -232 -242 -257 -273 -277 -288 -299 -311 -328 -337 -348 -364 -373 -384 -387 -402 -419 -431 -434 -456 0
-2 -16 -31 -44 -56 -60 -74 -89 -101 -105 -124 -131 -140 -161 -167 -176 -190 -206 -217 -226 -229 -244 -253 -264 -282 -290 -298 -312 -330 -341 -346 -355 -372 -383 -391 -400 -411 -425 -438 -446 0
-2 -19 -28 -41 -54 -68 -70 -89 -97 -113 -121 -129 -149 -154 -164 -179 -192 -200 -217 -222 -229 -249 -259 -268 -279 -288 -307 -316 -329 -332 -345 -354 -375 -379 -397 -404 -420 -427 -438 -447 0
-2 -23 -33 -37 -53 -63 -78 -92 -94 -108 -120 -130 -144 -156 -168 -181 -194 -199 -217 -225 -234 -242 -259 -264 -278 -289 -297 -312 -325 -339 -342 -361 -370 -383 -394 -399 -418 -427 -441 -456 0
-2 -16 -32 -37 -50 -63 -72 -93 -94 -111 -122 -136 -144 -160 -167 -173 -192 -206 -217 -221 -232 -240 -259 -264 -281 -295 -297 -314 -328 -337 -353 -356 -374 -385 -395 -400 -411 -425 -438 -456 0
-2 -14 -31 -39 -51 -68 -78 -86 -104 -113 -121 -129 -144 -150 -166 -174 -193 -204 -217 -225 -233 -242 -256 -271 -275 -291 -297 -312 -325 -336 -342 -364 -371 -386 -388 -408 -417 -430 -441 -454 0
-2 -16 -34 -36 -55 -62 -75 -91 -103 -109 -116 -136 -144 -155 -162 -180 -188 -205 -217 -227 -238 -243 -255 -268 -281 -290 -303 -310 -320 -338 -353 -362 -374 -386 -388 -408 -416 -424 -440 -450 0
-2 -23 -29 -44 -55 -64 -72 -90 -101 -105 -125 -130 -141 -154 -165 -180 -193 -206 -214 -228 -231 -245 -257 -268 -279 -289 -306 -317 -322 -331 -346 -363 -370 -380 -395 -409 -418 -428 -435 -451 0
-2 -18 -32 -43 -48 -63 -80 -85 -104 -105 -121 -129 -147 -155 -166 -174 -187 -205 -216 -228 -237 -242 -256 -270 -275 -296 -304 -313 -327 -331 -347 -364 -366 -378 -395 -401 -411 -430 -439 -449 0
-2 -15 -29 -39 -50 -66 -81 -85 -103 -105 -120 -135 -148 -158 -164 -181 -193 -203 -207 -228 -236 -249 -254 -268 -278 -291 -306 -310 -322 -335 -349 -364 -365 -380 -388 -408 -412 -431 -443 -451 0
-2 -23 -27 -41 -55 -58 -73 -90 -97 -114 -123 -130 -142 -158 -170 -180 -189 -203 -208 -228 -232 -245 -259 -263 -278 -295 -307 -315 -325 -332 -349 -357 -370 -384 -387 -403 -416 -427 -441 -450 0
-2 -19 -26 -45 -48 -62 -78 -89 -104 -111 -116 -135 -140 -157 -166 -173 -189 -198 -214 -228 -232 -240 -260 -272 -281 -294 -307 -318 -327 -332 -349 -359 -366 -378 -393 -408 -416 -430 -444 -455 0
-2 -18 -28 -40 -54 -58 -79 -90 -104 -114 -119 -129 -143 -154 -165 -182 -191 -201 -207 -228 -231 -245 -260 -271 -280 -291 -299 -310 -329 -339 -348 -354 -374 -386 -388 -406 -418 -432 -435 -446 0
-2 -23 -26 -40 -54 -63 -80 -82 -103 -108 -120 -130 -144 -160 -167 -176 -190 -205 -210 -228 -231 -244 -259 -264 -284 -287 -303 -309 -320 -340 -350 -363 -369 -383 -396 -399 -410 -426 -438 -452 0
-2 -21 -34 -42 -53 -61 -72 -88 -100 -114 -116 -129 -146 -156 -167 -175 -191 -205 -216 -228 -229 -243 -253 -267 -281 -287 -298 -315 -328 -340 -352 -360 -375 -383 -390 -399 -413 -425 -437 -446 0
-2 -14 -27 -39 -53 -63 -76 -92 -98 -112 -123 -127 -147 -161 -168 -176 -192 -201 -212 -219 -239 -246 -251 -273 -277 -296 -305 -319 -327 -339 -345 -359 -367 -378 -390 -399 -418 -425 -441 -456 0
-2 -19 -29 -45 -52 -66 -74 -85 -98 -115 -124 -127 -142 -154 -162 -175 -188 -206 -214 -222 -239 -245 -257 -268 -283 -293 -305 -309 -330 -332 -347 -362 -368 -378 -397 -406 -418 -424 -439 -450 0
-2 -17 -29 -38 -53 -58 -76 -87 -98 -114 -123 -135 -140 -161 -170 -173 -186 -204 -207 -225 -239 -244 -256 -264 -278 -294 -301 -317 -327 -337 -343 -363 -368 -383 -390 -402 -418 -422 -442 -450 0
-2 -21 -34 -40 -56 -63 -77 -85 -98 -110 -116 -132 -146 -155 -171 -174 -190 -201 -210 -226 -239 -242 -256 -266 -282 -296 -298 -316 -330 -339 -346 -358 -373 -376 -393 -400 -419 -428 -440 -445 0
-2 -15 -32 -35 -49 -63 -81 -90 -99 -113 -121 -136 -140 -158 -164 -182 -192 -198 -212 -226 -239 -246 -251 -273 -280 -296 -303 -317 -322 -338 -344 -362 -369 -379 -398 -403 -415 -426 -440 -453 0
-2 -21 -28 -41 -52 -60 -77 -93 -99 -114 -121 -127 -140 -159 -167 -175 -184 -205 -213 -220 -239 -245 -253 -273 -278 -296 -304 -314 -321 -340 -353 -360 -368 -379 -391 -406 -418 -432 -433 -451 0
-2 -16 -33 -45 -54 -63 -77 -93 -100 -112 -119 -132 -141 -150 -168 -177 -184 -203 -209 -219 -239 -243 -255 -272 -282 -294 -298 -313 -321 -339 -342 -358 -370 -384 -387 -401 -416 -428 -435 -453 0
-2 -15 -28 -42 -48 -66 -72 -90 -101 -113 -126 -131 -148 -150 -168 -177 -184 -203 -209 -227 -239 -243 -258 -263 -278 -291 -306 -319 -323 -339 -345 -355 -365 -384 -388 -405 -415 -423 -441 -456 0
-2 -20 -34 -39 -56 -63 -70 -85 -103 -109 -121 -135 -144 -154 -165 -177 -191 -203 -216 -227 -239 -242 -255 -268 -275 -287 -301 -315 -322 -338 -350 -364 -374 -381 -387 -400 -411 -431 -435 -449 0
-2 -23 -33 -41 -52 -66 -70 -92 -103 -108 -120 -130 -141 -156 -169 -175 -194 -201 -211 -219 -239 -248 -254 -269 -278 -293 -305 -315 -321 -336 -348 -354 -369 -379 -396 -409 -415 -429 -438 -449 0
-2 -18 -27 -44 -51 -58 -72 -93 -98 -113 -121 -133 -148 -155 -167 -176 -187 -204 -214 -227 -231 -250 -260 -264 -275 -286 -297 -317 -326 -334 -352 -364 -372 -386 -387 -406 -411 -429 -435 -445 0
-2 -16 -30 -36 -51 -67 -80 -90 -104 -112 -123 -130 -141 -150 -166 -175 -189 -204 -214 -227 -231 -250 -257 -264 -275 -294 -301 -311 -325 -338 -349 -354 -367 -381 -393 -409 -414 -430 -441 -445 0
-2 -18 -26 -35 -49 -68 -75 -85 -99 -112 -126 -134 -145 -160 -166 -173 -193 -199 -208 -224 -238 -250 -251 -271 -278 -293 -308 -313 -326 -340 -350 -355 -365 -383 -387 -408 -414 -427 -441 -456 0
-2 -22 -29 -44 -48 -65 -81 -82 -97 -113 -121 -129 -144 -155 -167 -182 -184 -204 -210 -220 -231 -250 -258 -266 -281 -293 -297 -309 -326 -338 -345 -356 -372 -383 -391 -406 -418 -432 -437 -448 0
-2 -23 -26 -45 -50 -65 -79 -86 -102 -111 -116 -132 -140 -159 -164 -181 -189 -206 -213 -220 -233 -250 -259 -266 -279 -288 -305 -311 -328 -332 -351 -358 -370 -382 -392 -406 -416 -429 -444 -453 0
-2 -16 -28 -42 -55 -62 -80 -90 -102 -108 -116 -134 -141 -161 -166 -181 -185 -196 -211 -226 -238 -250 -257 -265 -277 -290 -303 -312 -320 -335 -350 -360 -375 -386 -398 -407 -415 -426 -441 -453 0
-2 -23 -31 -41 -55 -61 -72 -91 -98 -114 -121 -127 -144 -155 -169 -176 -193 -201 -211 -225 -233 -250 -260 -263 -277 -293 -302 -310 -329 -337 -350 -356 -368 -376 -389 -402 -415 -425 -439 -453 0
-2 -21 -27 -41 -57 -60 -80 -89 -97 -111 -123 -127 -145 -156 -165 -178 -190 -198 -213 -223 -229 -249 -261 -263 -282 -287 -306 -317 -330 -341 -342 -359 -366 -380 -394 -400 -411 -428 -443 -447 0
-2 -14 -29 -44 -48 -67 -74 -82 -103 -109 -121 -136 -144 -161 -171 -181 -189 -200 -212 -223 -231 -246 -261 -270 -277 -287 -308 -316 -326 -336 -349 -361 -368 -384 -391 -401 -410 -426 -444 -449 0
-2 -18 -32 -45 -48 -62 -79 -82 -103 -111 -119 -131 -141 -161 -164 -178 -188 -200 -213 -222 -229 -243 -261 -273 -282 -293 -299 -319 -320 -335 -347 -357 -365 -380 -398 -402 -416 -421 -440 -449 0
-2 -21 -34 -41 -49 -64 -72 -90 -98 -110 -125 -127 -142 -159 -166 -175 -184 -205 -211 -220 -238 -242 -261 -270 -278 -296 -304 -319 -325 -340 -347 -360 -368 -381 -392 -406 -417 -421 -433 -456 0
-2 -21 -30 -45 -54 -63 -72 -82 -100 -112 -122 -137 -141 -154 -169 -177 -184 -206 -210 -221 -231 -244 -261 -269 -280 -292 -300 -317 -321 -336 -353 -363 -365 -376 -398 -406 -413 -424 -436 -452 0
-2 -21 -28 -42 -48 -62 -75 -90 -98 -115 -119 -127 -148 -159 -167 -175 -187 -198 -216 -226 -231 -245 -261 -271 -275 -287 -308 -309 -325 -339 -344 -363 -368 -384 -390 -409 -410 -423 -439 -446 0
-2 -20 -34 -38 -53 -58 -76 -85 -102 -114 -121 -135 -141 -155 -167 -182 -191 -206 -208 -221 -233 -242 -251 -274 -281 -288 -300 -315 -329 -338 -350 -356 -374 -376 -389 -406 -413 -431 -435 -448 0
-2 -18 -24 -44 -49 -60 -75 -90 -99 -112 -119 -135 -148 -161 -167 -175 -192 -204 -207 -220 -231 -249 -255 -274 -278 -289 -305 -319 -322 -333 -342 -363 -371 -377 -390 -406 -414 -422 -438 -449 0
-2 -15 -30 -45 -48 -58 -75 -85 -100 -113 -121 -134 -145 -161 -164 -177 -189 -204 -214 -225 -238 -240 -254 -274 -278 -294 -297 -313 -322 -338 -349 -363 -365 -377 -387 -406 -414 -432 -442 -449 0
-2 -19 -26 -41 -49 -67 -80 -91 -94 -112 -119 -132 -149 -154 -167 -181 -184 -199 -210 -225 -238 -245 -253 -274 -283 -290 -301 -310 -330 -335 -342 -362 -367 -383 -392 -399 -420 -425 -442 -446 0
-2 -15 -33 -42 -57 -58 -74 -91 -102 -108 -121 -133 -148 -154 -164 -182 -188 -205 -213 -222 -229 -249 -256 -274 -281 -296 -304 -315 -322 -335 -342 -361 -369 -376 -393 -399 -420 -425 -437 -454 0
-2 -15 -24 -43 -56 -64 -72 -87 -102 -110 -123 -130 -147 -161 -171 -181 -191 -198 -210 -225 -234 -244 -253 -274 -280 -290 -305 -309 -320 -334 -347 -364 -370 -379 -391 -399 -414 -426 -442 -452 0
-2 -19 -24 -39 -55 -63 -78 -89 -98 -112 -119 -137 -148 -154 -170 -175 -188 -196 -211 -219 -233 -245 -259 -269 -285 -293 -301 -312 -329 -331 -353 -357 -369 -386 -390 -399 -416 -432 -437 -447 0
-2 -20 -24 -38 -57 -64 -73 -90 -97 -111 -124 -136 -142 -157 -168 -177 -193 -199 -208 -221 -235 -249 -251 -263 -285 -292 -303 -309 -330 -334 -347 -356 -374 -377 -393 -405 -418 -422 -436 -446 0
-3 -17 -34 -40 -46 -66 -70 -89 -98 -110 -125 -133 -143 -160 -170 -179 -186 -202 -209 -220 -237 -240 -252 -274 -278 -289 -307 -314 -329 -332 -353 -361 -367 -386 -397 -406 -412 -426 -433 -456 0
-3 -22 -28 -43 -46 -62 -79 -89 -104 -109 -123 -127 -143 -154 -167 -182 -184 -199 -213 -225 -233 -245 -261 -271 -276 -291 -297 -313 -327 -331 -349 -359 -367 -384 -394 -409 -411 -427 -435 -445 0
-3 -12 -27 -42 -46 -68 -78 -87 -102 -115 -124 -133 -141 -155 -167 -181 -193 -198 -212 -221 -236 -249 -261 -262 -278 -289 -308 -316 -329 -334 -349 -359 -372 -376 -397 -408 -416 -431 -439 -445 0
-3 -16 -29 -35 -46 -67 -73 -87 -103 -111 -123 -136 -144 -161 -172 -176 -191 -201 -212 -224 -229 -244 -254 -271 -284 -291 -299 -309 -320 -341 -348 -355 -375 -383 -387 -401 -413 -422 -438 -452 0
-3 -22 -24 -39 -46 -67 -76 -90 -102 -109 -123 -137 -142 -154 -172 -182 -189 -204 -209 -223 -235 -246 -255 -262 -282 -293 -301 -313 -322 -338 -342 -361 -369 -386 -388 -403 -416 -426 -444 -453 0
-3 -21 -34 -37 -46 -61 -76 -91 -100 -105 -125 -133 -142 -157 -163 -177 -186 -202 -207 -226 -235 -250 -258 -265 -284 -296 -301 -318 -326 -338 -345 -356 -375 -383 -395 -405 -419 -422 -437 -447 0
-3 -21 -31 -45 -46 -63 -70 -86 -100 -109 -126 -134 -144 -156 -165 -177 -184 -205 -213 -225 -239 -241 -260 -268 -277 -289 -299 -311 -330 -340 -349 -355 -374 -382 -388 -408 -420 -421 -436 -447 0
-3 -23 -33 -41 -46 -60 -78 -90 -100 -105 -120 -132 -148 -156 -165 -177 -192 -203 -215 -218 -239 -249 -254 -270 -280 -291 -301 -309 -328 -341 -344 -355 -367 -381 -392 -400 -411 -432 -436 -456 0
-3 -19 -29 -37 -48 -59 -80 -91 -104 -113 -116 -130 -142 -158 -163 -178 -194 -200 -217 -225 -232 -246 -258 -272 -275 -294 -298 -317 -323 -332 -345 -363 -365 -383 -395 -404 -418 -432 -433 -447 0
-3 -15 -28 -35 -50 -59 -76 -91 -103 -114 -126 -131 -147 -154 -169 -182 -194 -201 -217 -225 -232 -246 -252 -262 -280 -295 -300 -317 -325 -332 -348 -363 -372 -386 -398 -402 -418 -424 -439 -449 0
-3 -16 -24 -40 -52 -59 -73 -93 -100 -114 -122 -131 -146 -160 -163 -181 -193 -206 -212 -221 -232 -247 -261 -262 -280 -291 -298 -317 -321 -336 -342 -362 -375 -386 -396 -407 -413 -424 -435 -454 0
-3 -21 -34 -41 -53 -61 -74 -83 -98 -112 -125 -127 -144 -159 -163 -177 -192 -199 -216 -226 -239 -245 -251 -268 -278 -292 -308 -317 -321 -336 -343 -357 -374 -381 -387 -406 -412 -424 -437 -456 0
-3 -19 -28 -44 -51 -67 -76 -83 -99 -112 -126 -136 -141 -150 -166 -182 -187 -196 -208 -224 -232 -241 -257 -271 -285 -286 -304 -318 -321 -335 -345 -359 -370 -376 -389 -407 -420 -429 -444 -452 0
-3 -22 -31 -38 -57 -60 -78 -83 -100 -112 -124 -127 -143 -158 -172 -179 -192 -200 -207 -224 -232 -243 -259 -270 -278 -291 -307 -314 -323 -331 -343 -364 -367 -381 -397 -400 -412 -426 -443 -450 0
-3 -17 -34 -35 -55 -62 -76 -83 -102 -109 -125 -134 -145 -154 -165 -181 -190 -200 -207 -227 -236 -241 -261 -268 -284 -287 -306 -319 -327 -337 -345 -359 -372 -383 -392 -400 -419 -427 -444 -450 0
-3 -22 -27 -42 -50 -63 -78 -83 -104 -105 -122 -130 -141 -160 -167 -181 -193 -197 -217 -221 -232 -246 -254 -262 -281 -291 -304 -311 -325 -331 -345 -364 -367 -379 -392 -407 -418 -426 -442 -456 0
-3 -20 -24 -38 -53 -63 -74 -89 -95 -109 -121 -136 -149 -160 -167 -182 -187 -199 -208 -228 -235 -245 -251 -273 -276 -295 -302 -312 -326 -336 -346 -357 -366 -386 -391 -401 -411 -426 -435 -455 0
-3 -21 -24 -44 -49 -63 -81 -89 -95 -109 -121 -136 -145 -154 -169 -183 -188 -199 -211 -228 -235 -246 -252 -266 -275 -293 -300 -313 -326 -333 -348 -359 -375 -386 -390 -403 -413 -432 -433 -447 0
-3 -18 -26 -35 -55 -65 -78 -88 -95 -110 -121 -136 -149 -155 -171 -176 -187 -202 -208 -228 -237 -247 -258 -270 -276 -286 -306 -315 -323 -339 -343 -360 -375 -378 -391 -407 -420 -426 -439 -447 0
-3 -23 -24 -37 -53 -67 -76 -91 -95 -110 -125 -130 -142 -157 -168 -183 -192 -197 -208 -223 -232 -248 -257 -266 -285 -289 -298 -318 -325 -334 -349 -363 -370 -384 -396 -407 -416 -430 -439 -450 0
-3 -21 -26 -35 -53 -63 -81 -91 -95 -110 -121 -132 -148 -155 -168 -177 -186 -205 -210 -218 -239 -243 -260 -269 -275 -296 -301 -311 -326 -339 -346 -354 -375 -386 -398 -405 -410 -430 -436 -455 0
-3 -19 -34 -45 -50 -67 -73 -86 -95 -111 -116 -132 -146 -157 -170 -179 -189 -201 -207 -218 -239 -244 -254 -266 -283 -294 -299 -311 -324 -341 -345 -355 -373 -378 -387 -401 -418 -425 -434 -445 0
-3 -20 -24 -43 -48 -68 -73 -88 -95 -112 -126 -132 -147 -155 -163 -182 -188 -206 -212 -226 -233 -245 -256 -262 -285 -295 -302 -313 -322 -336 -352 -356 -370 -378 -390 -409 -420 -425 -434 -454 0
-3 -15 -28 -40 -53 -58 -76 -91 -95 -113 -125 -131 -149 -154 -167 -183 -195 -197 -212 -226 -232 -248 -258 -267 -275 -296 -304 -319 -326 -335 -348 -357 -369 -384 -395 -406 -410 -428 -437 -454 0
-3 -16 -31 -35 -51 -68 -73 -89 -95 -113 -121 -134 -149 -155 -169 -177 -186 -202 -217 -227 -238 -243 -252 -269 -275 -293 -297 -311 -326 -336 -346 -354 -375 -386 -398 -402 -410 -426 -441 -449 0
-3 -16 -24 -43 -56 -66 -73 -88 -95 -113 -126 -130 -142 -158 -171 -181 -186 -197 -217 -226 -235 -244 -259 -264 -280 -286 -303 -318 -325 -338 -353 -361 -371 -380 -388 -402 -418 -426 -439 -456 0
-3 -12 -28 -40 -53 -60 -80 -89 -104 -106 -120 -135 -143 -159 -167 -175 -193 -198 -214 -226 -233 -240 -260 -266 -285 -290 -297 -319 -320 -333 -351 -360 -374 -386 -396 -408 -419 -421 -444 -452 0
-3 -23 -32 -41 -55 -68 -74 -90 -94 -106 -121 -132 -141 -154 -165 -178 -186 -206 -215 -228 -236 -247 -252 -269 -282 -290 -300 -312 -324 -335 -351 -354 -374 -386 -387 -406 -419 -432 -444 -450 0
-3 -16 -32 -39 -57 -68 -76 -87 -102 -106 -122 -135 -141 -150 -169 -179 -193 -202 -209 -221 -230 -250 -254 -262 -279 -286 -308 -316 -323 -337 -351 -358 -369 -380 -390 -409 -410 -425 -439 -455 0
-3 -15 -31 -38 -55 -62 -70 -92 -100 -106 -123 -137 -143 -158 -163 -183 -193 -196 -211 -226 -235 -250 -258 -265 -278 -288 -303 -318 -330 -339 -352 -355 -372 -379 -389 -407 -415 -431 -436 -453 0
-3 -15 -29 -45 -48 -58 -74 -87 -103 -106 -123 -137 -147 -158 -163 -180 -193 -206 -209 -224 -229 -250 -257 -271 -278 -292 -308 -317 -322 -341 -346 -355 -365 -376 -392 -407 -413 -424 -436 -452 0
-3 -22 -28 -35 -48 -65 -75 -91 -98 -106 -124 -132 -149 -156 -168 -175 -187 -201 -207 -227 -235 -250 -252 -264 -282 -286 -297 -314 -327 -339 -352 -364 -367 -386 -396 -407 -415 -429 -444 -446 0
-3 -15 -28 -40 -48 -58 -76 -90 -102 -106 -124 -136 -149 -159 -168 -182 -184 -198 -214 -223 -232 -250 -252 -273 -278 -295 -307 -317 -323 -332 -345 -359 -370 -376 -391 -409 -418 -432 -442 -446 0
-3 -16 -34 -43 -49 -68 -73 -87 -94 -106 -124 -131 -146 -158 -170 -182 -190 -197 -208 -224 -236 -240 -255 -265 -285 -287 -307 -317 -323 -337 -344 -362 -370 -378 -394 -409 -413 -427 -438 -446 0
-3 -17 -32 -41 -48 -62 -77 -82 -98 -106 -125 -132 -147 -161 -170 -174 -187 -202 -207 -228 -236 -245 -252 -265 -281 -287 -307 -317 -327 -331 -353 -359 -366 -383 -392 -404 -412 -422 -442 -446 0
-3 -21 -27 -45 -50 -69 -76 -90 -102 -105 -117 -130 -141 -159 -172 -178 -194 -200 -209 -222 -236 -243 -251 -271 -279 -293 -302 -311 -330 -340 -347 -357 -365 -380 -393 -401 -417 -425 -441 -449 0
-3 -18 -26 -38 -50 -65 -70 -91 -100 -114 -117 -137 -147 -157 -163 -180 -193 -201 -216 -224 -232 -250 -255 -271 -275 -296 -299 -311 -330 -339 -348 -358 -365 -383 -387 -400 -413 -425 -441 -451 0
-3 -16 -34 -39 -52 -62 -73 -90 -102 -105 -117 -135 -148 -159 -166 -182 -184 -206 -214 -226 -232 -243 -256 -274 -276 -287 -298 -314 -324 -335 -349 -361 -373 -376 -388 -409 -419 -425 -434 -453 0
-3 -17 -24 -37 -48 -64 -79 -88 -103 -112 -117 -136 -146 -161 -165 -178 -191 -205 -216 -221 -229 -241 -261 -269 -277 -289 -299 -319 -328 -334 -352 -361 -366 -383 -388 -408 -416 -422 -439 -447 0
-3 -17 -26 -35 -56 -63 -79 -93 -103 -112 -117 -132 -146 -154 -172 -180 -187 -199 -212 -224 -229 -245 -259 -273 -282 -296 -301 -312 -329 -339 -348 -354 -375 -386 -387 -403 -419 -424 -435 -456 0
-3 -21 -24 -41 -49 -60 -78 -93 -103 -112 -125 -132 -138 -154 -172 -179 -191 -206 -214 -224 -232 -245 -251 -267 -279 -295 -302 -315 -322 -336 -346 -364 -370 -379 -396 -403 -411 -428 -444 -446 0
-3 -17 -33 -35 -52 -60 -81 -88 -99 -114 -123 -133 -138 -156 -168 -182 -190 -197 -214 -220 -233 -240 -261 -265 -284 -287 -305 -315 -325 -331 -344 -358 -370 -379 -397 -400 -413 -427 -436 -452 0
-3 -21 -30 -35 -54 -62 -77 -93 -98 -110 -125 -130 -138 -157 -172 -174 -186 -202 -209 -226 -235 -247 -258 -262 -284 -295 -297 -316 -321 -336 -353 -356 -369 -380 -387 -407 -416 -429 -437 -450 0
-3 -22 -30 -43 -54 -63 -81 -82 -99 -113 -121 -129 -138 -155 -167 -174 -193 -205 -210 -218 -236 -240 -261 -266 -281 -294 -297 -311 -328 -335 -348 -354 -369 -381 -396 -400 -414 -430 -436 -449 0
-3 -23 -29 -38 -52 -66 -79 -90 -100 -114 -116 -129 -138 -156 -168 -175 -190 -205 -216 -218 -234 -243 -259 -267 -285 -289 -297 -312 -320 -339 -342 -360 -373 -377 -398 -407 -415 -430 -443 -453 0
-3 -15 -28 -45 -52 -66 -70 -90 -104 -110 -121 -135 -143 -151 -169 -183 -184 -198 -212 -222 -232 -247 -252 -272 -280 -296 -303 -318 -320 -339 -350 -359 -370 -381 -390 -399 -410 -432 -439 -447 0
-3 -17 -24 -45 -51 -66 -73 -86 -103 -115 -121 -132 -147 -151 -169 -179 -186 -199 -216 -224 -233 -240 -252 -264 -283 -295 -307 -314 -320 -333 -347 -357 -372 -378 -390 -405 -419 -429 -444 -448 0
-3 -12 -27 -44 -49 -64 -79 -93 -102 -109 -121 -136 -145 -151 -165 -178 -188 -198 -213 -225 -237 -249 -258 -266 -275 -293 -305 -315 -322 -332 -344 -359 -367 -386 -397 -408 -414 -425 -438 -445 0
-3 -20 -31 -35 -55 -62 -81 -86 -102 -109 -125 -130 -144 -151 -165 -174 -193 -200 -216 -225 -236 -240 -252 -268 -279 -289 -306 -314 -320 -331 -343 -363 -372 -381 -397 -409 -415 -430 -438 -449 0
-3 -17 -31 -41 -55 -58 -76 -93 -99 -114 -123 -129 -142 -151 -171 -179 -191 -198 -214 -221 -232 -241 -259 -268 -278 -295 -305 -315 -324 -332 -352 -359 -368 -378 -397 -408 -416 -424 -438 -454 0
-3 -18 -32 -38 -53 -67 -80 -93 -100 -112 -116 -129 -143 -151 -167 -175 -184 -200 -210 -218 -236 -249 -259 -264 -282 -296 -304 -316 -320 -333 -342 -358 -373 -379 -395 -399 -419 -428 -444 -452 0
-4 -12 -28 -43 -47 -61 -80 -89 -101 -106 -124 -137 -143 -159 -170 -177 -184 -199 -211 -226 -233 -245 -259 -263 -285 -287 -306 -317 -323 -341 -344 -364 -370 -379 -396 -399 -420 -426 -433 -446 0
-4 -12 -31 -44 -51 -59 -79 -92 -104 -110 -118 -130 -144 -156 -162 -181 -188 -199 -213 -224 -237 -246 -260 -274 -281 -287 -304 -318 -320 -337 -353 -361 -369 -379 -388 -404 -417 -432 -444 -448 0
-4 -12 -30 -44 -57 -61 -80 -87 -103 -107 -124 -130 -143 -151 -162 -180 -186 -199 -214 -224 -234 -246 -259 -273 -281 -293 -297 -316 -323 -333 -344 -359 -373 -384 -388 -403 -416 -431 -444 -455 0
-4 -12 -27 -39 -57 -59 -78 -90 -101 -114 -118 -131 -147 -158 -168 -181 -184 -203 -217 -221 -232 -249 -259 -263 -278 -292 -300 -312 -325 -332 -349 -361 -375 -385 -388 -403 -417 -432 -441 -446 0
-4 -12 -32 -43 -50 -69 -75 -89 -99 -107 -125 -130 -147 -151 -165 -181 -194 -200 -215 -225 -236 -240 -253 -268 -279 -288 -298 -317 -324 -340 -343 -360 -368 -382 -394 -409 -415 -432 -433 -447 0
-4 -12 -33 -38 -49 -59 -78 -89 -103 -115 -118 -136 -142 -157 -162 -181 -195 -201 -213 -225 -232 -249 -255 -268 -283 -289 -302 -319 -322 -339 -343 -361 -366 -386 -394 -407 -415 -426 -444 -450 0
-4 -12 -28 -41 -47 -67 -77 -86 -104 -112 -123 -132 -148 -151 -164 -180 -192 -201 -216 -225 -233 -245 -256 -272 -275 -288 -303 -311 -328 -334 -352 -355 -367 -384 -394 -401 -411 -424 -441 -445 0
-4 -13 -29 -35 -47 -61 -78 -90 -100 -112 -126 -136 -144 -160 -172 -181 -186 -199 -212 -224 -234 -246 -259 -262 -284 -289 -306 -312 -322 -331 -344 -361 -375 -386 -397 -402 -412 -426 -443 -449 0
-4 -17 -29 -38 -52 -68 -78 -93 -103 -112 -118 -127 -138 -160 -172 -183 -185 -202 -212 -227 -229 -245 -258 -265 -278 -291 -301 -312 -322 -332 -349 -362 -375 -377 -389 -404 -417 -426 -442 -446 0
-4 -13 -33 -45 -49 -64 -78 -86 -102 -105 -121 -137 -145 -152 -172 -178 -194 -199 -213 -225 -234 -248 -258 -266 -278 -293 -308 -315 -323 -333 -350 -357 -369 -379 -397 -406 -414 -426 -437 -453 0
-4 -13 -30 -40 -51 -58 -78 -86 -103 -113 -118 -136 -149 -155 -172 -176 -192 -204 -212 -223 -229 -249 -256 -267 -283 -288 -306 -309 -328 -341 -345 -356 -375 -377 -390 -403 -417 -424 -442 -450 0
-4 -23 -24 -38 -49 -65 -71 -91 -101 -106 -125 -131 -147 -158 -172 -180 -190 -205 -210 -224 -237 -244 -253 -266 -284 -286 -299 -318 -327 -335 -345 -363 -369 -382 -389 -409 -417 -425 -440 -446 0
-4 -23 -24 -43 -51 -68 -78 -84 -99 -113 -121 -132 -138 -155 -172 -180 -190 -200 -215 -223 -233 -242 -256 -271 -284 -295 -298 -315 -325 -336 -346 -360 -368 -379 -396 -400 -415 -430 -444 -445 0
-4 -18 -33 -35 -46 -68 -74 -93 -96 -110 -123 -133 -142 -157 -166 -178 -193 -197 -209 -226 -229 -242 -258 -274 -284 -286 -300 -315 -324 -332 -352 -364 -372 -386 -387 -404 -417 -427 -441 -456 0
-4 -13 -32 -45 -57 -65 -75 -86 -100 -107 -124 -127 -144 -156 -168 -183 -193 -197 -207 -222 -235 -247 -261 -265 -282 -293 -301 -311 -321 -338 -353 -362 -369 -379 -388 -400 -417 -424 -439 -448 0
-4 -21 -30 -43 -50 -61 -74 -91 -104 -106 -125 -127 -139 -157 -164 -177 -192 -197 -207 -226 -235 -245 -261 -268 -284 -295 -307 -310 -322 -338 -347 -356 -367 -381 -396 -403 -412 -424 -433 -450 0
-4 -13 -28 -42 -48 -63 -80 -91 -103 -113 -118 -127 -142 -161 -168 -175 -194 -197 -210 -223 -229 -250 -257 -266 -282 -286 -305 -317 -325 -338 -345 -364 -374 -386 -394 -404 -418 -423 -434 -452 0
-4 -13 -31 -35 -52 -68 -75 -86 -101 -115 -123 -135 -139 -155 -170 -176 -187 -197 -212 -226 -237 -247 -251 -268 -285 -295 -298 -317 -326 -334 -346 -359 -374 -386 -390 -408 -410 -424 -438 -456 0
-4 -22 -27 -40 -51 -64 -79 -90 -94 -111 -117 -137 -146 -152 -165 -176 -189 -197 -215 -226 -231 -247 -261 -269 -282 -296 -299 -317 -330 -334 -350 -360 -366 -386 -387 -406 -411 -430 -443 -445 0
-4 -23 -27 -39 -53 -63 -80 -89 -95 -107 -121 -134 -147 -150 -169 -176 -188 -197 -209 -225 -237 -246 -256 -263 -285 -287 -302 -317 -327 -331 -345 -362 -366 -385 -392 -401 -411 -422 -439 -445 0
-4 -19 -25 -39 -50 -67 -81 -91 -94 -110 -125 -131 -144 -151 -166 -181 -194 -197 -211 -219 -232 -246 -257 -262 -283 -287 -301 -318 -325 -334 -349 -354 -372 -381 -397 -399 -420 -431 -434 -456 0
-4 -19 -28 -44 -55 -64 -81 -84 -99 -105 -121 -136 -143 -151 -164 -177 -193 -205 -210 -218 -229 -249 -257 -266 -280 -286 -304 -318 -321 -341 -343 -361 -370 -376 -395 -407 -418 -425 -436 -453 0
-4 -22 -27 -41 -46 -69 -76 -91 -101 -113 -118 -127 -145 -155 -162 -177 -189 -205 -213 -218 -239 -245 -257 -267 -283 -291 -307 -311 -322 -332 -349 -354 -375 -380 -398 -405 -412 -431 -436 -445 0
-4 -16 -29 -35 -52 -68 -74 -90 -96 -112 -123 -135 -138 -161 -166 -175 -184 -204 -211 -218 -239 -242 -258 -269 -284 -291 -299 -319 -327 -336 -343 -356 -365 -376 -398 -408 -417 -427 -438 -456 0
-4 -18 -28 -44 -56 -63 -70 -86 -95 -115 -122 -135 -139 -156 -165 -180 -184 -206 -217 -218 -234 -248 -256 -263 -282 -293 -306 -312 -320 -335 -342 -355 -370 -377 -396 -408 -416 -428 -435 -446 0
-4 -19 -33 -40 -51 -68 -78 -86 -104 -106 -118 -130 -144 -150 -167 -179 -185 -199 -217 -218 -229 -246 -255 -271 -283 -294 -301 -310 -321 -334 -342 -356 -369 -383 -398 -399 -418 -421 -440 -449 0
-4 -23 -25 -39 -50 -68 -78 -86 -102 -105 -122 -135 -138 -158 -169 -183 -185 -203 -209 -218 -233 -245 -256 -272 -285 -287 -302 -316 -326 -340 -346 -357 -371 -385 -392 -402 -411 -432 -434 -447 0
-4 -17 -34 -44 -52 -67 -71 -88 -94 -112 -120 -133 -148 -151 -171 -173 -190 -200 -213 -227 -230 -244 -258 -268 -278 -289 -307 -317 -325 -340 -345 -355 -372 -379 -393 -400 -410 -427 -436 -456 0
-4 -18 -34 -44 -56 -61 -70 -90 -96 -111 -121 -135 -143 -151 -162 -180 -192 -199 -211 -222 -230 -245 -260 -272 -279 -289 -298 -318 -328 -335 -352 -355 -370 -381 -388 -401 -417 -422 -435 -451 0
-4 -21 -24 -43 -48 -68 -75 -91 -96 -111 -126 -132 -138 -156 -165 -178 -195 -203 -207 -219 -230 -249 -258 -270 -279 -288 -308 -318 -326 -339 -347 -356 -365 -380 -395 -405 -420 -429 -443 -447 0
-4 -23 -28 -42 -47 -63 -79 -83 -99 -112 -122 -134 -148 -150 -165 -179 -188 -205 -213 -221 -230 -248 -256 -263 -285 -295 -303 -314 -320 -335 -343 -357 -367 -377 -393 -408 -420 -422 -434 -450 0
-4 -13 -31 -40 -47 -67 -75 -91 -99 -111 -125 -137 -144 -150 -169 -182 -195 -199 -210 -221 -230 -240 -257 -268 -279 -291 -306 -317 -325 -331 -347 -357 -366 -382 -393 -400 -412 -431 -440 -446 0
-4 -23 -25 -45 -53 -63 -79 -83 -100 -112 -120 -127 -144 -159 -165 -176 -195 -205 -211 -219 -230 -248 -260 -270 -279 -296 -300 -309 -325 -340 -349 -360 -372 -384 -391 -406 -417 -421 -434 -452 0
-4 -13 -30 -45 -53 -67 -71 -82 -101 -110 -123 -130 -143 -161 -169 -178 -186 -199 -210 -223 -230 -240 -260 -269 -285 -286 -307 -317 -323 -333 -347 -359 -375 -385 -398 -405 -412 -427 -442 -452 0
-4 -18 -24 -38 -47 -65 -79 -92 -104 -106 -123 -130 -142 -157 -168 -182 -195 -205 -209 -219 -230 -247 -255 -262 -284 -286 -300 -315 -324 -341 -351 -361 -370 -384 -391 -406 -417 -431 -438 -448 0
-4 -16 -32 -43 -49 -69 -76 -87 -102 -114 -118 -127 -147 -151 -166 -183 -185 -196 -213 -225 -232 -241 -259 -271 -280 -296 -298 -318 -321 -339 -347 -359 -370 -386 -394 -399 -410 -432 -435 -449 0
-4 -23 -24 -42 -48 -66 -80 -83 -103 -112 -124 -128 -143 -155 -170 -179 -195 -200 -211 -223 -236 -241 -253 -267 -283 -289 -305 -309 -323 -340 -344 -359 -374 -381 -395 -403 -412 -424 -433 -454 0
-4 -13 -31 -39 -52 -68 -71 -87 -102 -113 -120 -137 -146 -150 -166 -175 -192 -196 -211 -222 -236 -241 -259 -269 -285 -295 -303 -312 -322 -339 -347 -364 -366 -376 -397 -399 -416 -422 -435 -449 0
-4 -23 -27 -39 -50 -59 -79 -82 -103 -107 -125 -131 -146 -158 -169 -183 -190 -202 -209 -222 -237 -241 -255 -263 -285 -287 -303 -316 -329 -339 -345 -363 -366 -378 -394 -399 -410 -427 -434 -447 0
-4 -13 -34 -42 -56 -66 -74 -84 -99 -105 -124 -131 -145 -156 -169 -182 -194 -196 -209 -228 -235 -247 -252 -268 -278 -290 -303 -318 -321 -338 -346 -363 -372 -378 -394 -409 -411 -429 -438 -449 0
-4 -20 -30 -38 -56 -65 -75 -82 -95 -112 -124 -130 -149 -152 -166 -178 -195 -199 -216 -227 -235 -242 -252 -270 -278 -288 -300 -318 -324 -333 -343 -363 -375 -376 -396 -409 -417 -432 -439 -448 0
-4 -20 -24 -43 -51 -64 -79 -92 -101 -110 -118 -130 -138 -161 -166 -183 -185 -199 -217 -224 -235 -240 -252 -270 -278 -288 -301 -312 -326 -334 -348 -361 -375 -382 -388 -405 -414 -432 -442 -448 0
-4 -17 -30 -45 -57 -62 -79 -88 -99 -106 -122 -134 -139 -150 -169 -179 -185 -200 -209 -224 -233 -250 -252 -262 -283 -287 -302 -311 -329 -336 -350 -354 -368 -378 -391 -406 -410 -424 -444 -448 0
-4 -20 -33 -41 -48 -68 -70 -89 -103 -106 -126 -130 -139 -156 -165 -183 -189 -201 -217 -227 -229 -242 -252 -270 -281 -291 -307 -316 -320 -332 -346 -359 -367 -381 -392 -409 -413 -427 -442 -447 0
-4 -13 -34 -41 -48 -68 -74 -91 -103 -105 -121 -128 -147 -158 -169 -175 -184 -202 -215 -225 -233 -250 -252 -266 -284 -294 -299 -316 -320 -334 -352 -362 -369 -376 -392 -405 -419 -429 -433 -447 0
-4 -23 -32 -38 -50 -58 -74 -89 -95 -114 -118 -135 -145 -157 -170 -179 -185 -202 -209 -228 -236 -245 -252 -272 -279 -296 -306 -314 -326 -331 -348 -357 -366 -386 -397 -402 -411 -425 -434 -450 0
-4 -21 -28 -35 -52 -59 -81 -88 -99 -114 -122 -134 -142 -152 -170 -178 -188 -203 -209 -221 -236 -250 -252 -263 -278 -293 -306 -310 -326 -335 -345 -364 -369 -384 -397 -406 -415 -422 -434 -450 0
-4 -16 -29 -44 -49 -62 -76 -92 -103 -105 -118 -135 -138 -161 -166 -175 -189 -206 -207 -225 -239 -242 -252 -270 -282 -286 -297 -319 -328 -338 -347 -361 -367 -384 -389 -403 -411 -427 -444 -453 0
-4 -20 -24 -43 -47 -61 -79 -83 -104 -111 -125 -132 -142 -157 -171 -177 -195 -203 -213 -221 -231 -244 -256 -272 -276 -289 -298 -319 -327 -334 -351 -361 -365 -384 -395 -405 -415 -422 -438 -445 0
-4 -17 -30 -44 -47 -68 -70 -87 -95 -113 -120 -131 -145 -161 -164 -178 -187 -196 -212 -226 -239 -249 -258 -266 -276 -294 -304 -312 -322 -331 -344 -355 -369 -384 -396 -403 -410 -428 -437 -453 0
-4 -13 -25 -45 -54 -63 -70 -90 -99 -111 -121 -135 -144 -161 -169 -179 -194 -200 -209 -223 -233 -250 -256 -262 -276 -289 -305 -314 -322 -333 -342 -360 -375 -377 -390 -406 -415 -425 -433 -453 0
-4 -13 -34 -35 -51 -61 -77 -92 -100 -113 -118 -132 -146 -156 -165 -179 -192 -202 -215 -226 -238 -247 -251 -274 -276 -291 -298 -312 -330 -338 -346 -358 -373 -385 -389 -404 -417 -425 -440 -448 0
-4 -17 -32 -40 -52 -61 -80 -93 -96 -105 -122 -131 -147 -151 -170 -178 -184 -199 -212 -222 -237 -242 -255 -270 -276 -287 -306 -314 -328 -331 -344 -358 -368 -383 -395 -403 -413 -432 -435 -456 0
-4 -20 -27 -35 -52 -62 -71 -92 -95 -115 -122 -131 -147 -155 -171 -178 -191 -200 -215 -228 -234 -246 -253 -269 -276 -295 -308 -311 -325 -334 -347 -355 -372 -384 -393 -407 -416 -421 -435 -446 0
-5 -12 -31 -36 -51 -67 -71 -92 -104 -112 -117 -130 -146 -158 -169 -182 -187 -206 -208 -221 -231 -240 -257 -274 -280 -291 -306 -317 -321 -332 -345 -363 -366 -377 -393 -409 -414 -430 -439 -448 0
-5 -23 -24 -36 -55 -65 -71 -89 -95 -112 -125 -130 -143 -159 -169 -183 -195 -200 -208 -222 -234 -248 -252 -263 -280 -293 -301 -318 -321 -338 -344 -359 -372 -384 -393 -403 -416 -430 -437 -454 0
-5 -22 -25 -36 -57 -63 -79 -82 -100 -112 -117 -132 -145 -159 -163 -180 -188 -205 -210 -221 -229 -250 -259 -263 -280 -293 -300 -316 -330 -332 -342 -359 -367 -384 -392 -406 -417 -430 -434 -454 0
-5 -20 -30 -36 -50 -67 -77 -82 -96 -111 -117 -136 -149 -157 -163 -183 -189 -200 -217 -227 -236 -240 -253 -269 -279 -296 -302 -311 -330 -334 -351 -358 -370 -386 -391 -405 -420 -421 -433 -453 0
-5 -13 -34 -43 -49 -68 -72 -91 -96 -113 -121 -131 -144 -150 -168 -176 -192 -197 -212 -222 -229 -247 -254 -272 -285 -290 -308 -316 -322 -337 -344 -362 -367 -381 -393 -399 -413 -430 -442 -450 0
-5 -23 -31 -39 -51 -68 -72 -83 -96 -113 -121 -127 -144 -159 -166 -180 -193 -198 -211 -222 -239 -242 -260 -271 -276 -286 -297 -318 -324 -339 -345 -359 -367 -383 -394 -399 -418 -422 -435 -451 0
-5 -12 -29 -39 -52 -65 -72 -91 -95 -114 -121 -137 -139 -160 -170 -176 -184 -202 -215 -220 -233 -250 -253 -269 -279 -296 -304 -313 -326 -340 -350 -356 -368 -376 -395 -406 -417 -423 -435 -451 0
-5 -21 -31 -39 -56 -69 -72 -89 -95 -107 -121 -131 -146 -150 -172 -179 -191 -202 -210 -220 -234 -245 -258 -263 -275 -289 -298 -309 -323 -333 -353 -355 -368 -381 -391 -400 -417 -421 -433 -451 0
-5 -19 -25 -35 -55 -62 -72 -88 -100 -106 -123 -136 -144 -161 -166 -173 -187 -197 -216 -224 -229 -243 -257 -271 -285 -296 -302 -317 -330 -334 -347 -360 -365 -383 -390 -404 -420 -421 -436 -453 0
-5 -23 -24 -42 -49 -66 -71 -85 -95 -113 -121 -133 -148 -157 -163 -176 -190 -205 -217 -227 -236 -249 -253 -268 -279 -286 -303 -318 -325 -339 -345 -363 -372 -386 -394 -404 -412 -432 -440 -447 0
-5 -13 -31 -40 -47 -64 -70 -85 -100 -113 -125 -137 -143 -159 -172 -182 -194 -205 -211 -222 -236 -243 -255 -262 -279 -288 -304 -311 -329 -331 -347 -361 -374 -378 -395 -401 -411 -424 -437 -453 0
-5 -18 -24 -44 -46 -62 -80 -93 -97 -111 -118 -133 -147 -157 -167 -176 -185 -197 -213 -227 -229 -250 -258 -273 -277 -293 -300 -312 -320 -338 -350 -362 -375 -386 -395 -399 -413 -432 -441 -448 0
-5 -13 -25 -39 -55 -64 -77 -92 -97 -112 -116 -134 -143 -161 -172 -180 -194 -201 -207 -220 -233 -245 -256 -269 -282 -290 -307 -312 -327 -331 -346 -358 -375 -383 -395 -401 -419 -427 -444 -445 0
-5 -13 -32 -35 -47 -68 -75 -90 -97 -115 -124 -130 -144 -156 -168 -182 -192 -201 -217 -220 -230 -246 -251 -273 -281 -295 -299 -315 -325 -341 -349 -360 -366 -379 -387 -402 -419 -427 -441 -453 0
-5 -12 -28 -45 -52 -59 -77 -84 -101 -108 -126 -135 -143 -159 -167 -173 -195 -198 -216 -221 -236 -248 -258 -262 -278 -296 -305 -317 -325 -335 -353 -360 -373 -379 -387 -400 -417 -429 -442 -455 0
-5 -22 -24 -43 -50 -64 -71 -88 -100 -108 -117 -135 -149 -159 -163 -182 -185 -205 -210 -224 -236 -240 -255 -274 -279 -288 -300 -311 -328 -341 -347 -354 -370 -386 -398 -402 -414 -427 -434 -453 0
-5 -12 -33 -39 -57 -65 -78 -84 -102 -108 -125 -132 -142 -151 -169 -174 -188 -196 -210 -221 -238 -242 -256 -269 -283 -296 -302 -315 -324 -339 -346 -361 -366 -386 -396 -399 -416 -421 -441 -451 0
-5 -18 -28 -43 -54 -59 -71 -87 -94 -108 -125 -131 -147 -161 -172 -174 -194 -200 -210 -226 -231 -247 -258 -262 -280 -286 -307 -317 -321 -332 -348 -364 -372 -386 -394 -404 -418 -423 -443 -449 0
-5 -18 -33 -39 -51 -66 -70 -83 -103 -108 -126 -136 -139 -156 -168 -183 -185 -196 -214 -220 -237 -247 -252 -274 -278 -289 -307 -312 -323 -332 -348 -361 -371 -383 -387 -403 -413 -422 -433 -454 0
-5 -18 -31 -45 -49 -62 -71 -91 -94 -108 -117 -135 -149 -157 -163 -176 -185 -202 -215 -228 -238 -247 -251 -270 -282 -293 -300 -319 -329 -332 -342 -356 -367 -384 -389 -403 -417 -423 -435 -448 0
-5 -18 -25 -35 -49 -66 -80 -90 -101 -108 -124 -137 -143 -151 -168 -173 -186 -197 -214 -220 -233 -247 -259 -273 -275 -293 -301 -315 -323 -332 -350 -360 -365 -379 -387 -409 -414 -432 -441 -449 0
-5 -17 -29 -45 -53 -58 -76 -91 -95 -108 -124 -137 -139 -156 -170 -173 -195 -198 -207 -226 -233 -241 -259 -268 -281 -286 -297 -318 -326 -339 -350 -363 -370 -380 -395 -400 -410 -428 -444 -448 0
-5 -19 -25 -35 -46 -63 -80 -91 -104 -111 -119 -135 -144 -156 -167 -181 -193 -198 -210 -219 -230 -250 -260 -262 -281 -292 -304 -310 -330 -333 -350 -354 -369 -376 -396 -405 -418 -428 -435 -453 0
-5 -23 -24 -43 -47 -67 -74 -88 -95 -114 -119 -132 -142 -159 -170 -180 -187 -200 -208 -218 -231 -247 -259 -274 -280 -290 -307 -318 -324 -338 -345 -354 -366 -386 -396 -404 -414 -426 -440 -446 0
-5 -19 -28 -45 -47 -69 -78 -83 -101 -113 -116 -132 -140 -157 -167 -179 -195 -200 -214 -219 -230 -249 -254 -262 -283 -287 -302 -319 -322 -341 -344 -361 -373 -379 -395 -400 -420 -428 -436 -445 0
-5 -13 -28 -44 -52 -68 -77 -84 -104 -113 -121 -131 -140 -150 -166 -178 -192 -197 -217 -225 -236 -246 -254 -272 -275 -288 -308 -312 -322 -337 -344 -361 -371 -384 -395 -404 -411 -428 -433 -453 0
-5 -18 -28 -43 -47 -63 -80 -83 -101 -113 -126 -134 -140 -150 -172 -173 -186 -204 -214 -220 -233 -247 -256 -272 -275 -294 -304 -313 -327 -337 -343 -356 -368 -382 -389 -401 -413 -429 -433 -454 0
-5 -21 -29 -35 -50 -64 -78 -93 -100 -114 -118 -133 -140 -151 -166 -174 -191 -196 -214 -218 -231 -249 -256 -267 -281 -293 -297 -313 -326 -333 -348 -356 -373 -383 -395 -408 -415 -432 -437 -454 0
-5 -19 -32 -40 -52 -67 -80 -82 -96 -111 -126 -131 -140 -151 -170 -173 -188 -198 -212 -222 -229 -245 -259 -268 -276 -288 -301 -311 -328 -338 -351 -355 -368 -383 -398 -403 -415 -422 -442 -452 0
-5 -17 -31 -45 -52 -67 -81 -91 -94 -112 -117 -131 -139 -153 -162 -183 -191 -200 -208 -224 -235 -248 -258 -274 -278 -289 -307 -314 -329 -333 -349 -357 -372 -378 -391 -407 -416 -424 -438 -449 0
-5 -19 -28 -41 -54 -67 -71 -82 -95 -112 -125 -132 -149 -153 -171 -177 -195 -203 -214 -221 -231 -246 -256 -272 -277 -292 -300 -311 -330 -335 -349 -363 -367 -384 -393 -401 -417 -422 -444 -446 0
-5 -20 -28 -41 -46 -69 -76 -92 -101 -107 -122 -127 -147 -153 -166 -180 -195 -206 -212 -224 -231 -243 -259 -267 -275 -288 -300 -311 -321 -341 -353 -354 -370 -383 -398 -401 -410 -429 -441 -448 0
-5 -22 -29 -43 -55 -62 -78 -83 -104 -111 -116 -128 -144 -153 -168 -181 -190 -200 -207 -227 -231 -247 -261 -264 -278 -289 -299 -319 -327 -331 -349 -361 -368 -385 -389 -402 -412 -427 -436 -445 0
-6 -14 -26 -40 -51 -64 -81 -92 -96 -113 -116 -133 -138 -159 -162 -180 -193 -198 -211 -228 -230 -246 -260 -271 -279 -288 -308 -318 -328 -338 -347 -355 -365 -377 -396 -408 -417 -424 -444 -452 0
-6 -13 -26 -42 -55 -62 -70 -84 -97 -115 -122 -134 -148 -157 -163 -183 -191 -196 -215 -223 -235 -244 -256 -271 -285 -289 -306 -312 -325 -339 -344 -363 -375 -378 -398 -409 -415 -423 -438 -454 0
-6 -21 -26 -43 -50 -59 -80 -88 -96 -115 -119 -132 -146 -150 -163 -178 -192 -199 -210 -226 -239 -240 -253 -269 -279 -286 -308 -315 -323 -340 -343 -358 -371 -385 -398 -406 -415 -429 -442 -453 0
-6 -12 -26 -43 -57 -64 -80 -87 -102 -107 -119 -135 -138 -159 -167 -180 -193 -198 -209 -219 -229 -246 -258 -274 -284 -292 -308 -311 -323 -333 -347 -355 -369 -380 -387 -399 -419 -425 -434 -456 0
-6 -13 -26 -44 -52 -69 -79 -87 -102 -105 -119 -133 -148 -152 -163 -177 -193 -206 -209 -226 -235 -250 -258 -268 -278 -293 -299 -313 -326 -336 -351 -364 -372 -386 -387 -408 -416 -427 -443 -455 0
-6 -18 -32 -37 -50 -67 -72 -88 -95 -115 -122 -127 -148 -152 -168 -182 -194 -201 -209 -218 -239 -242 -254 -267 -282 -287 -304 -318 -323 -341 -345 -358 -366 -380 -393 -401 -411 -425 -439 -450 0
-6 -13 -31 -37 -51 -68 -81 -82 -97 -113 -121 -128 -146 -158 -170 -182 -189 -199 -213 -218 -229 -243 -257 -274 -278 -291 -307 -312 -329 -335 -345 -354 -371 -376 -392 -400 -415 -432 -440 -445 0
-6 -12 -33 -37 -53 -69 -72 -89 -95 -112 -125 -128 -146 -157 -162 -174 -195 -206 -211 -223 -232 -248 -257 -270 -282 -293 -305 -312 -320 -336 -348 -355 -375 -378 -394 -406 -412 -428 -443 -452 0
-6 -19 -25 -37 -52 -58 -80 -85 -102 -113 -126 -134 -142 -151 -170 -177 -193 -198 -212 -222 -229 -242 -252 -265 -280 -296 -304 -309 -324 -338 -345 -362 -372 -380 -397 -399 -418 -424 -442 -456 0
-6 -14 -24 -37 -51 -59 -77 -87 -104 -113 -118 -136 -146 -158 -170 -173 -195 -198 -213 -227 -229 -246 -252 -269 -280 -291 -300 -318 -328 -338 -352 -354 -375 -386 -390 -404 -417 -432 -444 -451 0
-6 -18 -25 -37 -56 -62 -79 -85 -102 -106 -123 -137 -145 -150 -169 -178 -187 -198 -215 -219 -234 -250 -252 -265 -275 -287 -303 -319 -323 -339 -342 -357 -372 -380 -398 -399 -412 -431 -438 -452 0
-6 -12 -25 -42 -53 -60 -80 -85 -95 -113 -121 -134 -143 -161 -168 -175 -195 -198 -214 -223 -233 -249 -253 -262 -281 -287 -305 -315 -325 -341 -349 -360 -375 -376 -397 -404 -414 -431 -442 -447 0
-6 -14 -24 -42 -46 -60 -78 -92 -101 -113 -118 -137 -145 -157 -168 -183 -184 -198 -215 -223 -230 -242 -258 -269 -285 -292 -303 -312 -325 -339 -353 -363 -368 -383 -398 -401 -416 -423 -438 -448 0
-6 -23 -33 -35 -46 -60 -75 -91 -103 -107 -125 -132 -142 -153 -169 -183 -188 -203 -215 -220 -232 -246 -261 -263 -280 -291 -301 -316 -325 -334 -349 -363 -366 -378 -387 -404 -416 -429 -440 -447 0
-6 -14 -32 -41 -47 -69 -73 -89 -101 -106 -125 -133 -147 -150 -163 -182 -191 -205 -210 -223 -229 -242 -261 -268 -281 -288 -297 -318 -327 -333 -345 -354 -371 -386 -387 -407 -420 -424 -437 -455 0
-6 -13 -32 -36 -53 -67 -73 -88 -96 -112 -116 -136 -144 -161 -167 -183 -187 -204 -208 -218 -239 -240 -258 -265 -281 -290 -307 -319 -326 -333 -345 -360 -366 -386 -391 -407 -419 -426 -433 -456 0
-6 -21 -34 -35 -50 -64 -73 -83 -102 -107 -119 -133 -148 -159 -167 -175 -191 -198 -217 -219 -230 -246 -260 -271 -275 -293 -301 -314 -330 -334 -344 -355 -367 -386 -391 -401 -418 -425 -434 -453 0
-6 -20 -33 -42 -53 -63 -73 -92 -101 -105 -119 -137 -138 -152 -168 -182 -187 -197 -217 -219 -235 -243 -260 -265 -279 -289 -305 -311 -325 -335 -345 -355 -370 -378 -388 -401 -417 -423 -434 -452 0
-6 -14 -34 -43 -46 -67 -71 -87 -98 -105 -125 -132 -146 -157 -167 -180 -192 -206 -208 -219 -239 -241 -251 -272 -281 -296 -308 -315 -321 -340 -349 -360 -368 -379 -387 -408 -414 -430 -444 -456 0
-6 -18 -34 -44 -55 -62 -77 -84 -98 -106 -119 -136 -143 -150 -162 -180 -195 -197 -209 -220 -234 -246 -259 -271 -280 -292 -299 -310 -330 -337 -344 -358 -371 -386 -390 -403 -417 -429 -433 -455 0
-6 -21 -30 -45 -47 -58 -78 -87 -98 -106 -126 -131 -145 -153 -169 -183 -184 -201 -210 -219 -239 -244 -257 -264 -280 -290 -298 -312 -327 -334 -353 -363 -373 -385 -394 -399 -418 -423 -440 -446 0
-6 -23 -32 -35 -46 -64 -72 -88 -98 -107 -125 -133 -142 -160 -164 -183 -188 -198 -214 -222 -237 -241 -261 -268 -281 -288 -303 -310 -329 -339 -345 -363 -366 -383 -396 -404 -416 -421 -440 -447 0
-6 -20 -24 -40 -57 -59 -75 -85 -98 -107 -122 -136 -144 -160 -164 -174 -193 -201 -210 -225 -230 -249 -256 -274 -275 -291 -307 -319 -321 -331 -347 -356 -369 -383 -395 -404 -412 -430 -438 -454 0
-6 -14 -24 -45 -47 -66 -76 -90 -98 -112 -126 -135 -143 -151 -167 -173 -184 -206 -208 -222 -236 -248 -252 -269 -282 -295 -301 -317 -325 -335 -350 -360 -374 -379 -388 -408 -420 -430 -439 -448 0
-6 -14 -30 -43 -47 -69 -78 -83 -98 -113 -125 -127 -142 -157 -172 -183 -190 -198 -211 -223 -236 -248 -258 -263 -275 -294 -307 -310 -327 -336 -349 -357 -369 -380 -389 -405 -415 -421 -434 -453 0
-6 -19 -32 -40 -52 -59 -75 -85 -98 -114 -126 -135 -139 -150 -165 -174 -195 -205 -212 -227 -230 -247 -251 -263 -280 -286 -299 -316 -324 -340 -349 -355 -369 -378 -387 -406 -417 -430 -433 -446 0
-6 -13 -31 -44 -55 -64 -70 -84 -98 -114 -121 -131 -140 -161 -171 -174 -187 -201 -217 -225 -236 -244 -252 -271 -280 -289 -308 -312 -325 -339 -344 -361 -374 -384 -388 -404 -414 -423 -441 -453 0
-6 -23 -31 -41 -47 -67 -70 -83 -98 -114 -119 -132 -142 -159 -163 -175 -192 -206 -211 -219 -233 -247 -259 -270 -285 -290 -300 -311 -329 -336 -343 -354 -374 -385 -392 -400 -420 -429 -443 -453 0
-6 -22 -29 -36 -46 -62 -78 -90 -98 -115 -116 -132 -147 -152 -163 -178 -193 -199 -214 -223 -231 -246 -261 -270 -281 -294 -298 -310 -323 -339 -345 -363 -367 -382 -397 -409 -418 -422 -440 -445 0
-6 -20 -33 -41 -47 -62 -70 -90 -98 -115 -125 -132 -138 -153 -164 -182 -187 -206 -211 -220 -236 -247 -251 -274 -281 -286 -305 -315 -327 -335 -345 -359 -367 -380 -393 -399 -412 -428 -441 -446 0
-6 -14 -24 -45 -57 -59 -75 -90 -101 -109 -123 -135 -144 -152 -167 -173 -191 -203 -208 -222 -237 -249 -252 -274 -282 -294 -300 -317 -329 -338 -347 -359 -374 -377 -390 -400 -420 -427 -438 -447 0
-6 -18 -33 -36 -50 -66 -75 -84 -94 -109 -126 -133 -148 -151 -163 -175 -187 -201 -207 -227 -236 -249 -253 -268 -282 -286 -305 -317 -322 -341 -343 -358 -367 -386 -395 -406 -415 -429 -442 -449 0
-6 -20 -24 -40 -47 -69 -76 -85 -103 -109 -117 -135 -148 -157 -163 -180 -193 -199 -212 -228 -238 -240 -253 -268 -279 -289 -302 -319 -322 -340 -352 -356 -365 -380 -390 -400 -415 -431 -442 -449 0
-6 -13 -34 -44 -55 -62 -77 -82 -97 -109 -125 -128 -143 -158 -168 -175 -195 -197 -208 -227 -238 -240 -257 -267 -282 -293 -302 -318 -320 -338 -353 -361 -367 -379 -393 -406 -414 -428 -434 -455 0
-6 -21 -29 -45 -46 -69 -71 -87 -94 -109 -123 -133 -140 -158 -172 -178 -190 -204 -209 -220 -238 -242 -251 -267 -282 -293 -299 -310 -323 -340 -344 -364 -368 -382 -397 -401 -413 -427 -435 -445 0
-6 -21 -25 -40 -52 -58 -78 -93 -95 -108 -122 -129 -148 -157 -168 -181 -195 -197 -212 -223 -231 -244 -254 -262 -284 -289 -299 -310 -322 -331 -353 -362 -369 -380 -390 -409 -418 -432 -443 -450 0
-6 -12 -29 -43 -47 -69 -78 -92 -101 -113 -119 -129 -138 -158 -165 -173 -193 -203 -208 -228 -236 -249 -258 -262 -280 -292 -298 -315 -322 -339 -343 -364 -372 -377 -396 -400 -415 -429 -436 -449 0
-6 -19 -32 -36 -57 -64 -79 -83 -101 -114 -118 -127 -141 -157 -171 -173 -188 -205 -208 -228 -237 -241 -256 -265 -281 -292 -300 -314 -328 -331 -352 -364 -366 -380 -391 -400 -415 -428 -437 -452 0
-6 -22 -29 -44 -57 -65 -72 -82 -95 -112 -118 -132 -141 -160 -172 -181 -188 -196 -212 -220 -232 -242 -259 -267 -280 -286 -301 -312 -322 -337 -349 -361 -375 -376 -393 -403 -417 -431 -444 -448 0
-6 -21 -30 -44 -50 -58 -72 -93 -102 -107 -125 -133 -141 -151 -167 -173 -184 -204 -214 -225 -232 -241 -254 -273 -278 -295 -301 -316 -322 -335 -349 -363 -369 -379 -387 -409 -420 -429 -433 -453 0
-6 -20 -33 -36 -52 -68 -81 -88 -94 -107 -121 -133 -141 -151 -162 -175 -187 -201 -216 -225 -236 -241 -254 -268 -283 -289 -302 -312 -322 -341 -342 -361 -366 -383 -395 -406 -415 -422 -442 -449 0
-6 -23 -31 -45 -46 -66 -76 -84 -101 -113 -119 -127 -141 -157 -167 -180 -185 -199 -216 -218 -239 -248 -257 -264 -282 -290 -306 -312 -324 -334 -344 -354 -374 -378 -391 -405 -418 -426 -435 -445 0
-6 -23 -29 -43 -50 -59 -76 -91 -96 -114 -119 -135 -141 -150 -165 -173 -192 -204 -208 -218 -237 -247 -256 -274 -281 -291 -306 -316 -323 -339 -344 -357 -365 -378 -398 -404 -413 -427 -438 -454 0
-7 -14 -30 -44 -48 -67 -81 -83 -102 -109 -125 -128 -145 -150 -169 -174 -195 -202 -207 -221 -230 -242 -257 -272 -279 -288 -308 -316 -329 -331 -343 -361 -371 -384 -392 -401 -410 -423 -434 -455 0
-7 -14 -29 -38 -52 -58 -78 -92 -103 -109 -118 -135 -149 -151 -163 -183 -190 -200 -207 -224 -237 -242 -258 -270 -279 -293 -297 -315 -322 -338 -346 -358 -373 -383 -398 -400 -413 -421 -438 -445 0
-7 -14 -24 -37 -54 -64 -79 -83 -102 -110 -125 -133 -149 -152 -172 -174 -188 -206 -211 -226 -231 -248 -257 -266 -282 -288 -299 -317 -329 -336 -348 -364 -374 -386 -394 -406 -412 -429 -443 -452 0
-7 -14 -24 -37 -46 -67 -81 -90 -102 -110 -125 -134 -144 -152 -167 -174 -192 -203 -216 -221 -236 -241 -253 -272 -285 -289 -302 -312 -330 -339 -351 -360 -374 -382 -388 -400 -412 -432 -441 -445 0
-7 -14 -24 -45 -46 -63 -76 -90 -96 -109 -120 -135 -149 -159 -166 -174 -193 -205 -207 -218 -239 -242 -256 -270 -284 -288 -308 -312 -324 -340 -342 -360 -374 -381 -392 -401 -411 -427 -440 -453 0
-7 -14 -27 -45 -52 -59 -77 -82 -96 -115 -124 -131 -141 -159 -168 -177 -184 -198 -214 -219 -238 -245 -259 -274 -276 -294 -300 -318 -327 -333 -349 -358 -365 -380 -398 -404 -417 -421 -438 -455 0
-7 -14 -27 -42 -55 -63 -71 -82 -95 -115 -122 -129 -148 -159 -167 -181 -195 -200 -207 -227 -236 -241 -254 -263 -284 -295 -297 -319 -322 -333 -347 -359 -372 -381 -392 -400 -419 -432 -435 -450 0
-7 -14 -32 -42 -56 -61 -70 -83 -98 -107 -124 -133 -143 -161 -162 -179 -195 -198 -216 -224 -236 -241 -255 -271 -279 -296 -303 -314 -324 -335 -342 -364 -370 -379 -398 -409 -417 -422 -434 -455 0
-7 -14 -27 -42 -47 -67 -75 -83 -98 -114 -116 -133 -146 -161 -172 -180 -189 -200 -216 -219 -235 -247 -254 -262 -282 -296 -304 -319 -321 -336 -342 -357 -370 -379 -387 -399 -418 -422 -440 -449 0
-7 -20 -34 -45 -47 -63 -76 -90 -97 -105 -117 -129 -147 -154 -164 -180 -188 -200 -216 -227 -239 -241 -251 -269 -280 -296 -299 -319 -327 -340 -347 -359 -368 -381 -391 -401 -417 -430 -441 -449 0
-7 -15 -24 -36 -48 -69 -79 -90 -102 -106 -125 -134 -139 -158 -164 -180 -190 -205 -217 -220 -230 -248 -256 -273 -275 -288 -307 -315 -328 -331 -344 -357 -370 -382 -392 -409 -413 -427 -439 -446 0
-7 -23 -33 -41 -46 -64 -71 -86 -94 -108 -125 -133 -141 -159 -164 -174 -192 -200 -216 -224 -236 -248 -252 -274 -279 -288 -301 -316 -328 -341 -350 -354 -366 -376 -397 -404 -416 -423 -437 -453 0
-7 -19 -26 -45 -51 -67 -72 -93 -94 -106 -123 -132 -139 -154 -164 -183 -189 -197 -214 -223 -235 -240 -255 -272 -285 -288 -307 -310 -329 -333 -348 -358 -371 -382 -392 -408 -415 -421 -438 -452 0
-7 -23 -33 -36 -46 -65 -78 -88 -98 -110 -125 -128 -144 -150 -164 -177 -193 -198 -213 -225 -230 -250 -255 -268 -282 -286 -301 -310 -321 -334 -349 -360 -372 -381 -393 -407 -411 -421 -440 -456 0
-7 -12 -31 -45 -51 -67 -72 -83 -104 -109 -123 -132 -139 -154 -164 -181 -186 -196 -213 -227 -235 -247 -261 -273 -280 -290 -303 -318 -324 -333 -343 -361 -368 -376 -392 -408 -416 -426 -444 -454 0
-7 -18 -34 -45 -53 -67 -71 -91 -102 -110 -119 -127 -141 -151 -164 -174 -188 -196 -213 -221 -238 -241 -259 -268 -282 -292 -299 -311 -323 -339 -347 -361 -374 -380 -387 -401 -416 -429 -433 -454 0
-7 -15 -29 -45 -53 -58 -72 -89 -95 -107 -123 -137 -147 -154 -168 -175 -193 -197 -207 -223 -231 -249 -258 -269 -285 -296 -308 -317 -329 -331 -345 -358 -370 -385 -391 -401 -411 -428 -437 -445 0
-7 -18 -32 -41 -47 -60 -70 -86 -97 -113 -125 -133 -138 -161 -169 -175 -194 -200 -211 -223 -231 -241 -261 -262 -277 -287 -308 -315 -327 -336 -345 -356 -371 -377 -396 -401 -420 -424 -437 -454 0
-7 -20 -29 -45 -52 -67 -73 -83 -103 -105 -119 -137 -139 -154 -162 -175 -188 -202 -216 -227 -236 -241 -255 -269 -285 -287 -303 -309 -324 -341 -345 -362 -370 -377 -389 -401 -417 -427 -434 -452 0
-7 -22 -24 -36 -52 -61 -81 -90 -102 -109 -117 -134 -147 -152 -167 -175 -191 -205 -208 -218 -231 -248 -261 -266 -281 -293 -308 -314 -321 -338 -344 -357 -372 -384 -391 -409 -414 -428 -443 -449 0
-7 -18 -26 -38 -46 -68 -78 -84 -102 -115 -116 -135 -145 -153 -169 -175 -184 -200 -215 -223 -231 -249 -261 -268 -277 -294 -307 -315 -321 -340 -349 -360 -366 -381 -396 -409 -410 -430 -441 -447 0
-7 -20 -26 -35 -53 -61 -72 -83 -102 -107 -125 -132 -147 -161 -167 -175 -194 -204 -217 -221 -235 -240 -253 -264 -276 -286 -308 -314 -321 -336 -343 -360 -372 -381 -392 -409 -417 -430 -434 -447 0
-7 -15 -25 -35 -54 -59 -80 -89 -97 -110 -122 -137 -143 -160 -172 -177 -189 -199 -216 -220 -229 -248 -253 -269 -282 -296 -304 -313 -324 -340 -342 -364 -372 -379 -387 -406 -415 -430 -444 -446 0
-7 -13 -32 -36 -52 -67 -75 -82 -98 -115 -122 -128 -148 -154 -168 -181 -195 -199 -216 -218 -237 -240 -255 -269 -279 -289 -308 -313 -328 -334 -351 -354 -369 -385 -396 -405 -415 -432 -434 -452 0
-7 -15 -29 -38 -52 -65 -81 -92 -95 -108 -123 -127 -147 -152 -163 -180 -192 -199 -212 -228 -231 -247 -259 -268 -284 -296 -308 -318 -320 -334 -346 -358 -370 -376 -397 -408 -420 -426 -435 -456 0
-7 -22 -27 -42 -46 -69 -78 -84 -102 -105 -119 -129 -145 -160 -163 -182 -189 -199 -207 -221 -231 -250 -258 -269 -279 -293 -300 -314 -326 -331 -344 -355 -372 -386 -398 -401 -419 -429 -437 -453 0
-7 -20 -24 -41 -55 -69 -76 -86 -97 -109 -122 -136 -138 -152 -166 -180 -185 -199 -217 -224 -238 -241 -259 -264 -281 -292 -298 -315 -323 -333 -353 -359 -368 -381 -397 -400 -419 -424 -442 -447 0
-7 -18 -25 -45 -46 -60 -78 -90 -94 -110 -119 -135 -143 -161 -170 -180 -189 -200 -209 -223 -230 -242 -251 -274 -277 -289 -307 -310 -330 -333 -346 -360 -371 -376 -392 -404 -420 -427 -440 -447 0
-7 -23 -25 -45 -53 -60 -70 -89 -95 -110 -123 -135 -143 -153 -167 -183 -191 -203 -209 -220 -237 -242 -258 -266 -285 -293 -302 -318 -327 -337 -346 -358 -367 -380 -398 -401 -416 -428 -437 -448 0
-7 -15 -30 -38 -57 -63 -70 -92 -97 -106 -118 -134 -145 -160 -170 -179 -185 -202 -209 -218 -229 -247 -254 -272 -285 -296 -308 -311 -322 -340 -346 -354 -369 -383 -398 -399 -410 -429 -436 -446 0
-7 -13 -26 -43 -55 -68 -72 -93 -102 -110 -116 -134 -139 -158 -163 -181 -191 -206 -209 -221 -229 -250 -257 -268 -283 -286 -302 -317 -323 -337 -350 -362 -367 -380 -389 -409 -415 -426 -434 -447 0
-7 -23 -30 -38 -54 -59 -80 -82 -103 -107 -124 -129 -143 -153 -170 -178 -193 -203 -209 -220 -236 -250 -253 -266 -279 -290 -301 -309 -329 -335 -350 -356 -374 -381 -389 -404 -412 -431 -434 -453 0
-7 -20 -29 -45 -46 -64 -77 -93 -98 -110 -124 -127 -139 -153 -167 -174 -185 -200 -209 -226 -235 -249 -251 -274 -283 -295 -301 -313 -326 -341 -350 -356 -367 -377 -389 -407 -414 -426 -437 -445 0
-7 -20 -24 -38 -53 -59 -81 -84 -98 -113 -119 -131 -148 -158 -171 -173 -195 -200 -209 -225 -236 -241 -259 -268 -277 -294 -303 -314 -323 -334 -351 -363 -366 -381 -395 -406 -415 -422 -435 -450 0
-7 -13 -26 -45 -48 -63 -72 -89 -96 -115 -124 -127 -145 -159 -169 -178 -194 -197 -215 -223 -232 -240 -261 -266 -277 -293 -305 -312 -330 -340 -346 -356 -369 -378 -394 -406 -418 -426 -437 -446 0
-7 -13 -30 -44 -53 -60 -81 -85 -99 -105 -124 -131 -148 -152 -167 -176 -194 -205 -213 -218 -232 -243 -259 -269 -285 -290 -308 -311 -321 -341 -346 -357 -373 -377 -398 -408 -416 -431 -443 -451 0
-7 -13 -32 -41 -47 -60 -80 -85 -104 -110 -116 -132 -145 -160 -163 -179 -192 -201 -217 -224 -232 -248 -255 -273 -275 -288 -300 -315 -321 -341 -353 -356 -365 -376 -389 -406 -414 -432 -434 -448 0
-7 -13 -27 -45 -47 -64 -72 -91 -94 -109 -124 -131 -145 -161 -163 -178 -188 -204 -217 -221 -232 -249 -257 -262 -282 -286 -305 -317 -325 -341 -345 -364 -367 -378 -394 -406 -418 -428 -434 -445 0
-7 -20 -29 -36 -55 -60 -76 -90 -96 -105 -120 -137 -148 -151 -163 -173 -194 -200 -207 -226 -232 -247 -259 -269 -280 -295 -301 -315 -322 -341 -343 -361 -366 -386 -393 -402 -419 -426 -441 -449 0
-7 -21 -25 -37 -51 -69 -72 -82 -99 -106 -123 -133 -148 -158 -163 -183 -185 -202 -213 -221 -232 -250 -257 -271 -275 -288 -303 -319 -328 -341 -345 -355 -367 -384 -394 -406 -415 -431 -435 -445 0
-7 -15 -29 -36 -54 -61 -81 -84 -94 -113 -125 -133 -138 -158 -163 -179 -191 -206 -207 -228 -232 -242 -258 -268 -283 -295 -308 -310 -322 -337 -346 -356 -372 -384 -396 -407 -415 -421 -434 -449 0
-7 -22 -26 -38 -52 -65 -81 -88 -95 -107 -124 -127 -146 -153 -169 -182 -184 -200 -212 -228 -232 -247 -256 -263 -277 -291 -307 -311 -321 -335 -349 -358 -370 -384 -391 -406 -416 -421 -444 -453 0
-7 -15 -24 -44 -57 -63 -77 -86 -96 -108 -124 -136 -138 -158 -169 -183 -190 -198 -207 -219 -239 -244 -252 -268 -283 -288 -308 -311 -326 -339 -350 -362 -368 -379 -398 -404 -414 -426 -443 -451 0
-7 -12 -27 -36 -57 -60 -76 -90 -102 -107 -124 -136 -138 -159 -170 -178 -193 -198 -207 -221 -231 -244 -261 -270 -279 -290 -306 -319 -320 -334 -347 -355 -372 -381 -397 -403 -411 -422 -439 -450 0
-7 -19 -25 -37 -51 -67 -80 -85 -94 -106 -120 -134 -144 -161 -163 -177 -186 -196 -211 -219 -239 -244 -257 -271 -284 -294 -297 -309 -324 -333 -345 -360 -374 -385 -396 -409 -418 -432 -441 -455 0
-7 -15 -33 -36 -51 -69 -76 -86 -95 -107 -122 -134 -148 -150 -163 -177 -193 -196 -212 -228 -236 -244 -253 -271 -280 -291 -301 -310 -320 -339 -342 -357 -375 -378 -393 -409 -413 -421 -441 -455 0
-7 -23 -31 -44 -51 -60 -80 -82 -97 -113 -118 -132 -138 -154 -172 -179 -185 -202 -213 -227 -238 -244 -255 -271 -279 -288 -306 -315 -324 -331 -343 -361 -368 -378 -397 -408 -415 -425 -434 -450 0
-7 -15 -31 -45 -46 -63 -79 -84 -104 -105 -120 -132 -140 -159 -172 -177 -185 -205 -215 -220 -229 -244 -256 -270 -284 -294 -298 -313 -324 -340 -343 -363 -368 -381 -395 -400 -417 -430 -438 -447 0
-7 -22 -29 -36 -46 -61 -76 -90 -98 -105 -123 -137 -147 -152 -168 -179 -193 -205 -208 -228 -231 -241 -255 -265 -279 -294 -298 -313 -324 -334 -352 -355 -370 -386 -388 -407 -413 -430 -438 -456 0
-7 -18 -32 -45 -57 -61 -70 -85 -98 -106 -124 -133 -143 -152 -163 -176 -185 -202 -214 -226 -237 -250 -260 -265 -279 -292 -308 -313 -326 -332 -352 -356 -371 -382 -398 -406 -417 -424 -439 -455 0
-7 -21 -29 -37 -52 -61 -78 -84 -104 -108 -122 -127 -148 -151 -168 -173 -192 -197 -212 -221 -238 -247 -251 -265 -277 -289 -307 -313 -328 -332 -345 -356 -373 -378 -390 -404 -420 -429 -438 -456 0
-7 -22 -25 -42 -57 -61 -75 -85 -98 -113 -122 -127 -146 -151 -166 -180 -193 -196 -211 -225 -230 -242 -254 -265 -282 -293 -299 -310 -323 -331 -347 -360 -368 -383 -394 -403 -412 -429 -435 -456 0
-7 -20 -25 -42 -46 -60 -79 -92 -104 -110 -119 -133 -143 -150 -163 -182 -189 -200 -212 -226 -231 -240 -261 -265 -279 -288 -297 -318 -326 -336 -350 -354 -370 -381 -395 -409 -420 -430 -437 -447 0
-7 -15 -25 -44 -52 -68 -81 -85 -99 -106 -124 -133 -143 -150 -163 -180 -188 -205 -207 -227 -239 -242 -256 -265 -281 -288 -297 -315 -327 -331 -353 -362 -371 -383 -398 -408 -415 -427 -443 -445 0
-7 -12 -26 -38 -53 -63 -71 -89 -104 -108 -117 -135 -148 -159 -166 -173 -195 -205 -208 -227 -236 -240 -260 -265 -280 -296 -301 -318 -320 -339 -350 -359 -375 -386 -398 -405 -415 -430 -439 -456 0
-8 -15 -34 -43 -46 -61 -80 -89 -100 -108 -123 -128 -147 -150 -168 -175 -190 -198 -214 -222 -231 -241 -259 -262 -285 -290 -297 -311 -329 -336 -345 -364 -370 -378 -394 -399 -410 -423 -435 -456 0
-8 -15 -25 -39 -46 -66 -81 -90 -99 -113 -116 -136 -144 -153 -171 -182 -185 -202 -210 -228 -236 -243 -258 -265 -281 -292 -305 -315 -328 -331 -352 -357 -369 -382 -397 -399 -418 -425 -436 -449 0
-8 -15 -27 -42 -46 -68 -72 -91 -100 -113 -126 -128 -145 -150 -164 -182 -189 -198 -213 -222 -229 -250 -252 -269 -282 -286 -297 -318 -325 -339 -345 -360 -372 -384 -387 -399 -416 -430 -439 -447 0
-8 -15 -33 -42 -47 -58 -80 -93 -97 -110 -123 -130 -145 -151 -169 -183 -190 -198 -209 -222 -237 -241 -251 -263 -280 -290 -300 -316 -326 -332 -344 -363 -372 -377 -387 -401 -414 -432 -440 -445 0
-8 -15 -27 -39 -47 -58 -72 -89 -104 -106 -122 -136 -146 -160 -163 -181 -189 -206 -209 -222 -237 -240 -261 -263 -281 -295 -297 -317 -322 -337 -353 -361 -366 -385 -394 -408 -414 -422 -436 -446 0
-8 -15 -30 -35 -55 -59 -74 -90 -97 -110 -123 -128 -148 -161 -164 -181 -191 -196 -208 -222 -239 -241 -260 -269 -280 -286 -300 -314 -328 -332 -347 -361 -375 -376 -393 -402 -420 -427 -436 -447 0
-8 -15 -28 -42 -56 -59 -81 -84 -94 -113 -122 -134 -140 -154 -171 -180 -189 -199 -215 -222 -235 -242 -252 -274 -282 -292 -307 -310 -328 -335 -353 -357 -369 -382 -398 -401 -415 -422 -434 -454 0
-8 -15 -27 -43 -56 -64 -70 -85 -100 -113 -117 -137 -139 -159 -162 -180 -195 -206 -208 -218 -232 -248 -256 -271 -278 -296 -300 -316 -325 -336 -349 -362 -365 -378 -390 -409 -415 -427 -434 -450 0
-8 -15 -33 -35 -54 -59 -74 -93 -99 -107 -122 -136 -144 -153 -164 -182 -194 -196 -211 -225 -236 -250 -258 -264 -278 -289 -300 -317 -327 -331 -352 -359 -372 -383 -391 -401 -415 -429 -438 -454 0
-8 -15 -34 -35 -54 -67 -72 -92 -96 -110 -122 -130 -144 -151 -169 -179 -194 -202 -209 -218 -229 -242 -254 -272 -278 -289 -297 -316 -322 -340 -352 -361 -369 -382 -394 -409 -415 -429 -436 -450 0
-8 -15 -28 -43 -47 -61 -72 -89 -95 -113 -125 -137 -146 -150 -163 -180 -184 -205 -210 -228 -235 -244 -253 -272 -280 -295 -304 -319 -326 -334 -348 -355 -366 -379 -387 -404 -413 -430 -433 -451 0
-8 -22 -26 -42 -53 -66 -79 -84 -104 -105 -120 -130 -140 -151 -168 -176 -187 -199 -212 -227 -229 -243 -252 -263 -282 -287 -298 -317 -323 -341 -350 -359 -370 -377 -398 -408 -417 -430 -439 -456 0
-8 -18 -26 -35 -53 -67 -71 -91 -95 -110 -119 -137 -148 -155 -172 -176 -192 -196 -208 -222 -237 -249 -253 -270 -280 -286 -303 -310 -330 -339 -351 -363 -372 -380 -391 -400 -410 -425 -440 -451 0
-8 -12 -26 -45 -52 -59 -77 -86 -100 -107 -119 -135 -149 -159 -162 -176 -195 -206 -209 -220 -236 -248 -258 -268 -278 -293 -302 -310 -327 -333 -346 -364 -373 -378 -394 -404 -420 -428 -434 -455 0
-8 -12 -27 -36 -46 -67 -76 -91 -103 -114 -126 -129 -139 -155 -171 -178 -186 -204 -215 -220 -233 -250 -253 -271 -281 -293 -302 -310 -326 -340 -350 -356 -368 -380 -389 -407 -416 -430 -437 -454 0
-8 -22 -28 -35 -46 -64 -81 -90 -96 -109 -123 -135 -140 -154 -164 -182 -186 -203 -211 -218 -236 -246 -261 -262 -282 -293 -305 -310 -323 -333 -345 -360 -369 -379 -397 -409 -418 -427 -440 -447 0
-8 -14 -26 -44 -52 -58 -80 -93 -100 -113 -120 -133 -138 -152 -168 -173 -186 -198 -214 -222 -230 -250 -259 -273 -281 -288 -305 -317 -326 -338 -343 -364 -373 -377 -387 -408 -416 -422 -440 -447 0
-8 -13 -27 -36 -52 -58 -73 -90 -100 -114 -126 -128 -146 -160 -172 -181 -186 -206 -212 -224 -232 -243 -259 -267 -275 -294 -301 -311 -321 -337 -349 -354 -368 -381 -387 -407 -414 -430 -434 -449 0
-8 -16 -33 -37 -52 -59 -80 -82 -103 -107 -123 -137 -140 -155 -169 -178 -186 -196 -217 -225 -238 -248 -253 -264 -276 -288 -301 -315 -328 -332 -344 -364 -372 -386 -390 -403 -411 -425 -433 -450 0
-8 -19 -33 -38 -54 -59 -76 -93 -98 -111 -118 -136 -140 -150 -164 -178 -186 -205 -210 -218 -237 -240 -261 -264 -281 -287 -304 -311 -323 -334 -353 -359 -372 -377 -390 -407 -418 -425 -442 -446 0
-8 -13 -27 -43 -56 -64 -70 -84 -98 -111 -126 -134 -140 -160 -170 -174 -186 -199 -210 -224 -237 -241 -251 -269 -285 -290 -307 -312 -330 -337 -347 -362 -366 -386 -396 -408 -412 -426 -433 -446 0
-8 -19 -32 -38 -46 -67 -80 -89 -100 -115 -116 -129 -139 -153 -165 -181 -189 -200 -208 -225 -238 -248 -261 -263 -275 -286 -301 -313 -321 -338 -349 -359 -368 -382 -389 -404 -413 -425 -441 -452 0
-8 -13 -26 -39 -55 -58 -77 -92 -96 -108 -120 -137 -144 -159 -163 -181 -194 -200 -209 -226 -239 -240 -256 -267 -283 -290 -301 -319 -321 -331 -351 -361 -366 -382 -391 -405 -417 -431 -444 -449 0
-8 -18 -33 -45 -54 -59 -77 -82 -96 -108 -120 -137 -141 -155 -162 -174 -187 -200 -217 -226 -238 -248 -256 -271 -276 -291 -301 -313 -328 -331 -348 -364 -366 -378 -390 -404 -413 -428 -437 -446 0
-8 -22 -30 -36 -54 -59 -79 -93 -94 -109 -120 -128 -145 -155 -163 -179 -187 -200 -217 -226 -231 -240 -258 -268 -283 -294 -302 -313 -322 -332 -352 -354 -366 -378 -387 -406 -419 -428 -443 -449 0
-8 -18 -26 -38 -53 -59 -80 -91 -96 -111 -116 -135 -140 -161 -163 -175 -192 -200 -210 -224 -229 -249 -253 -270 -285 -287 -301 -319 -327 -337 -349 -363 -366 -381 -389 -407 -413 -430 -444 -445 0
-8 -18 -32 -39 -55 -69 -77 -92 -96 -108 -116 -129 -138 -154 -168 -175 -187 -200 -207 -219 -239 -248 -252 -273 -282 -287 -301 -319 -328 -331 -348 -362 -368 -378 -390 -402 -419 -432 -444 -449 0
-8 -18 -28 -36 -48 -65 -71 -82 -98 -114 -117 -134 -147 -161 -169 -178 -194 -200 -209 -219 -230 -246 -251 -274 -277 -287 -305 -317 -330 -335 -344 -363 -368 -386 -393 -402 -419 -426 -443 -449 0
-8 -16 -24 -37 -47 -69 -80 -91 -103 -108 -117 -135 -144 -155 -163 -183 -190 -200 -211 -219 -239 -248 -251 -270 -282 -290 -305 -319 -320 -340 -347 -360 -374 -386 -396 -405 -412 -430 -433 -453 0
-8 -12 -25 -45 -48 -59 -76 -85 -103 -109 -126 -134 -147 -155 -162 -181 -189 -200 -213 -225 -233 -243 -259 -274 -284 -288 -305 -319 -329 -332 -347 -357 -370 -377 -392 -401 -419 -426 -444 -449 0
-8 -21 -24 -37 -56 -64 -74 -85 -103 -110 -117 -137 -139 -159 -163 -173 -187 -200 -207 -228 -236 -244 -260 -271 -280 -286 -304 -316 -325 -334 -347 -362 -374 -378 -393 -401 -419 -427 -435 -445 0
-8 -19 -33 -35 -48 -59 -78 -93 -98 -111 -125 -128 -144 -153 -162 -174 -190 -200 -210 -224 -237 -244 -258 -273 -285 -293 -299 -314 -327 -331 -347 -364 -366 -379 -396 -400 -413 -426 -437 -446 0
-8 -13 -32 -36 -56 -60 -81 -86 -103 -107 -124 -127 -144 -155 -169 -178 -187 -200 -207 -225 -239 -241 -260 -272 -277 -289 -306 -314 -328 -341 -345 -364 -366 -386 -388 -402 -415 -426 -443 -450 0
-8 -23 -33 -36 -53 -60 -70 -83 -96 -114 -120 -130 -144 -159 -163 -183 -187 -200 -211 -226 -237 -244 -253 -271 -285 -293 -302 -310 -321 -336 -345 -360 -366 -383 -391 -406 -415 -421 -437 -452 0
-8 -21 -26 -35 -46 -61 -72 -89 -96 -115 -122 -134 -148 -155 -172 -179 -194 -204 -207 -221 -233 -242 -254 -271 -280 -289 -298 -314 -329 -341 -343 -364 -365 -386 -396 -404 -413 -429 -436 -447 0
-8 -21 -24 -38 -47 -60 -76 -93 -103 -108 -123 -136 -138 -155 -169 -178 -190 -206 -210 -221 -231 -241 -261 -264 -275 -290 -300 -319 -326 -335 -347 -356 -365 -377 -389 -404 -412 -426 -440 -454 0
-8 -18 -28 -43 -57 -60 -78 -92 -95 -108 -116 -128 -147 -154 -165 -181 -184 -197 -217 -221 -238 -242 -259 -270 -280 -292 -300 -310 -328 -331 -353 -361 -367 -382 -388 -402 -418 -432 -434 -456 0
-8 -18 -24 -36 -56 -65 -73 -83 -96 -110 -123 -137 -147 -155 -169 -182 -187 -196 -216 -221 -239 -242 -252 -268 -277 -293 -298 -313 -324 -338 -351 -361 -368 -382 -389 -409 -415 -432 -437 -448 0
-8 -20 -24 -42 -49 -59 -72 -92 -96 -109 -124 -133 -149 -154 -172 -175 -184 -203 -213 -221 -233 -249 -253 -268 -283 -295 -302 -319 -321 -337 -347 -357 -374 -379 -395 -404 -411 -431 -444 -449 0
-8 -12 -25 -44 -46 -61 -76 -90 -97 -111 -125 -129 -147 -161 -168 -175 -192 -198 -207 -221 -233 -250 -253 -273 -281 -296 -299 -317 -325 -334 -350 -360 -375 -379 -392 -399 -413 -432 -440 -447 0
-8 -21 -26 -45 -46 -61 -71 -82 -97 -115 -123 -132 -145 -155 -163 -179 -184 -206 -213 -222 -231 -245 -261 -271 -280 -296 -302 -315 -330 -340 -348 -354 -366 -380 -397 -405 -410 -430 -436 -447 0
-8 -19 -27 -39 -56 -58 -76 -83 -98 -107 -123 -135 -149 -153 -171 -173 -190 -198 -214 -227 -239 -245 -256 -265 -278 -290 -301 -316 -330 -334 -351 -354 -374 -379 -392 -400 -411 -432 -440 -445 0
-8 -16 -31 -35 -56 -64 -74 -85 -98 -106 -123 -135 -139 -161 -169 -175 -184 -197 -208 -224 -238 -245 -257 -263 -285 -287 -298 -314 -326 -336 -349 -363 -365 -381 -390 -402 -410 -424 -438 -456 0
-8 -20 -30 -43 -48 -67 -70 -85 -98 -106 -125 -130 -139 -161 -171 -174 -191 -202 -210 -219 -230 -245 -257 -265 -285 -288 -307 -310 -321 -331 -347 -356 -370 -381 -396 -403 -412 -423 -439 -452 0
-8 -12 -32 -38 -52 -68 -77 -84 -97 -115 -117 -135 -141 -155 -169 -182 -185 -196 -210 -225 -239 -245 -254 -268 -284 -289 -300 -318 -320 -341 -346 -359 -370 -386 -398 -406 -410 -430 -438 -451 0
-8 -12 -28 -45 -52 -61 -72 -83 -104 -107 -122 -129 -146 -160 -165 -174 -184 -203 -214 -227 -231 -245 -261 -273 -280 -291 -307 -310 -330 -333 -351 -356 -371 -384 -391 -406 -419 -424 -440 -451 0
-8 -16 -28 -43 -47 -66 -70 -92 -98 -115 -124 -132 -138 -153 -170 -180 -193 -196 -212 -219 -239 -245 -254 -265 -280 -290 -308 -312 -320 -337 -342 -362 -370 -381 -396 -399 -412 -426 -442 -455 0
-8 -16 -25 -39 -56 -69 -73 -82 -103 -113 -117 -132 -140 -159 -163 -173 -191 -202 -215 -228 -229 -244 -255 -271 -284 -288 -305 -316 -324 -332 -351 -363 -375 -380 -390 -409 -417 -425 -436 -451 0
-8 -16 -28 -42 -46 -60 -80 -90 -104 -105 -124 -128 -146 -153 -170 -175 -189 -203 -207 -220 -237 -242 -255 -270 -285 -286 -306 -312 -327 -337 -349 -363 -375 -377 -398 -405 -412 -422 -438 -449 0
-8 -21 -30 -38 -46 -66 -73 -93 -103 -108 -125 -127 -139 -155 -163 -179 -194 -205 -211 -219 -229 -250 -255 -270 -278 -288 -301 -310 -329 -334 -348 -354 -374 -386 -390 -405 -413 -429 -438 -456 0
-8 -22 -31 -38 -54 -60 -70 -89 -95 -113 -118 -137 -140 -155 -172 -174 -189 -196 -215 -226 -233 -242 -258 -266 -281 -296 -303 -313 -320 -339 -353 -359 -372 -386 -393 -401 -416 -423 -441 -450 0
-8 -18 -24 -36 -54 -68 -73 -83 -100 -113 -122 -137 -139 -154 -168 -175 -187 -206 -207 -228 -230 -242 -258 -266 -283 -291 -299 -317 -322 -336 -352 -362 -365 -383 -392 -406 -413 -422 -434 -450 0
-8 -16 -31 -39 -57 -60 -71 -92 -94 -106 -119 -135 -144 -159 -164 -182 -191 -202 -207 -228 -230 -243 -258 -266 -284 -286 -305 -312 -324 -340 -352 -355 -369 -383 -387 -401 -418 -425 -437 -446 0
-8 -21 -34 -37 -48 -68 -76 -83 -100 -107 -123 -127 -145 -153 -168 -173 -190 -206 -209 -220 -239 -246 -251 -266 -282 -290 -298 -313 -327 -340 -345 -364 -374 -386 -390 -405 -410 -427 -444 -456 0
-8 -18 -32 -37 -49 -68 -81 -82 -99 -107 -122 -135 -138 -153 -165 -182 -189 -204 -207 -220 -231 -250 -258 -266 -284 -286 -303 -318 -321 -335 -345 -358 -370 -380 -389 -405 -410 -432 -441 -447 0
-8 -16 -34 -42 -49 -67 -72 -82 -95 -109 -122 -128 -148 -159 -168 -175 -185 -197 -216 -220 -229 -248 -258 -266 -285 -290 -298 -318 -324 -333 -343 -363 -375 -385 -394 -404 -413 -422 -438 -446 0
-9 -15 -24 -38 -47 -62 -80 -88 -95 -108 -123 -130 -149 -160 -172 -182 -190 -199 -216 -223 -233 -242 -251 -271 -277 -293 -300 -313 -320 -337 -347 -359 -373 -377 -397 -404 -412 -431 -440 -453 0
-9 -15 -24 -39 -47 -62 -78 -86 -102 -108 -117 -135 -148 -161 -165 -180 -184 -198 -214 -219 -234 -250 -260 -269 -276 -289 -304 -319 -323 -334 -342 -359 -366 -381 -396 -399 -413 -430 -442 -451 0
-9 -15 -24 -45 -50 -63 -79 -83 -96 -115 -119 -130 -146 -154 -169 -175 -193 -206 -210 -219 -230 -247 -257 -262 -285 -293 -301 -309 -330 -337 -348 -362 -368 -379 -392 -404 -413 -429 -438 -454 0
-9 -16 -24 -37 -47 -68 -75 -83 -97 -112 -123 -137 -147 -155 -172 -180 -186 -201 -215 -219 -235 -249 -258 -262 -277 -288 -304 -319 -327 -336 -351 -356 -374 -379 -395 -403 -411 -422 -437 -450 0
-9 -23 -24 -36 -50 -66 -73 -88 -95 -114 -120 -128 -147 -155 -170 -177 -186 -203 -217 -218 -236 -243 -253 -267 -283 -293 -305 -313 -320 -340 -342 -358 -368 -381 -395 -403 -413 -428 -437 -448 0
-9 -17 -24 -45 -54 -62 -75 -83 -98 -107 -119 -135 -149 -154 -169 -173 -186 -199 -217 -222 -230 -240 -260 -269 -283 -289 -308 -309 -329 -339 -352 -359 -368 -384 -390 -406 -416 -423 -439 -449 0
-9 -20 -24 -38 -51 -69 -74 -84 -98 -112 -119 -136 -138 -160 -163 -175 -193 -200 -212 -223 -238 -242 -261 -267 -275 -291 -299 -314 -320 -331 -345 -358 -375 -379 -395 -402 -419 -428 -435 -445 0
-9 -14 -24 -45 -48 -69 -74 -91 -96 -109 -117 -131 -147 -156 -169 -173 -188 -198 -212 -228 -229 -249 -259 -267 -276 -288 -305 -318 -324 -338 -342 -364 -371 -377 -392 -408 -415 -430 -439 -447 0
-9 -13 -25 -38 -57 -58 -73 -92 -100 -108 -123 -135 -142 -157 -166 -179 -191 -199 -214 -228 -238 -241 -254 -272 -275 -294 -302 -315 -322 -331 -352 -358 -370 -383 -387 -399 -416 -432 -435 -454 0
-9 -16 -25 -45 -51 -60 -79 -87 -94 -106 -123 -137 -140 -155 -163 -176 -185 -196 -213 -227 -238 -247 -261 -269 -282 -296 -305 -318 -323 -339 -353 -359 -370 -382 -397 -406 -413 -425 -440 -450 0
-9 -17 -25 -36 -48 -59 -75 -82 -98 -113 -125 -134 -149 -156 -172 -182 -192 -204 -212 -222 -231 -240 -260 -265 -277 -287 -307 -317 -327 -337 -351 -358 -369 -380 -393 -407 -418 -426 -439 -449 0
-9 -22 -25 -39 -50 -58 -72 -91 -104 -110 -117 -135 -141 -157 -166 -173 -191 -205 -207 -218 -237 -243 -261 -265 -281 -291 -300 -316 -325 -341 -349 -354 -375 -380 -398 -401 -417 -431 -433 -448 0
-9 -15 -25 -36 -49 -59 -79 -86 -101 -105 -125 -134 -149 -157 -169 -183 -188 -203 -208 -219 -239 -248 -252 -265 -275 -296 -304 -319 -326 -334 -347 -359 -370 -384 -392 -406 -411 -423 -438 -449 0
-9 -17 -25 -37 -56 -58 -79 -87 -102 -110 -123 -137 -138 -153 -169 -176 -187 -206 -212 -220 -231 -240 -259 -265 -285 -290 -299 -309 -322 -337 -353 -360 -373 -382 -392 -399 -412 -432 -443 -452 0
-9 -16 -25 -39 -51 -67 -81 -83 -98 -112 -116 -136 -146 -153 -166 -175 -192 -204 -207 -219 -239 -249 -257 -264 -283 -289 -307 -312 -329 -331 -349 -361 -375 -385 -397 -403 -412 -425 -443 -445 0
-9 -16 -25 -39 -50 -63 -81 -92 -94 -109 -117 -135 -140 -159 -170 -177 -185 -197 -209 -220 -236 -248 -261 -266 -275 -293 -305 -310 -327 -333 -346 -358 -375 -383 -394 -403 -413 -427 -441 -445 0
-9 -13 -26 -35 -48 -66 -71 -85 -102 -114 -121 -137 -147 -155 -170 -182 -187 -200 -212 -226 -234 -240 -261 -264 -276 -290 -306 -309 -324 -335 -344 -361 -370 -386 -391 -407 -414 -426 -437 -455 0
-9 -21 -26 -38 -51 -66 -71 -93 -100 -105 -121 -136 -138 -153 -169 -183 -184 -199 -208 -222 -234 -250 -253 -266 -281 -288 -303 -318 -321 -339 -344 -364 -370 -384 -395 -405 -413 -421 -435 -448 0
-9 -20 -26 -39 -50 -69 -79 -86 -102 -106 -119 -127 -148 -152 -164 -176 -193 -201 -213 -220 -230 -250 -260 -269 -278 -287 -307 -319 -323 -337 -351 -359 -372 -381 -396 -409 -410 -423 -439 -453 0
-9 -12 -26 -41 -54 -67 -80 -85 -95 -110 -121 -128 -149 -155 -169 -182 -194 -201 -208 -228 -229 -242 -257 -266 -278 -289 -302 -310 -323 -338 -351 -363 -371 -380 -393 -400 -420 -423 -439 -450 0
-9 -21 -26 -41 -47 -66 -72 -87 -104 -105 -125 -130 -138 -154 -162 -175 -195 -205 -210 -218 -238 -247 -255 -270 -281 -295 -303 -316 -328 -333 -353 -355 -369 -384 -392 -405 -417 -427 -438 -454 0
-9 -14 -27 -35 -46 -63 -74 -91 -104 -109 -124 -128 -148 -156 -170 -177 -193 -203 -208 -219 -233 -241 -261 -270 -275 -294 -297 -309 -324 -337 -349 -363 -367 -378 -395 -408 -416 -427 -436 -450 0
-9 -13 -27 -40 -47 -66 -80 -88 -94 -113 -119 -129 -149 -155 -172 -176 -190 -196 -208 -222 -236 -247 -259 -271 -284 -295 -308 -316 -320 -337 -345 -359 -374 -380 -393 -401 -411 -431 -440 -450 0
-9 -13 -27 -45 -54 -62 -70 -84 -98 -111 -119 -131 -149 -160 -172 -176 -190 -206 -209 -220 -229 -247 -259 -271 -278 -295 -308 -314 -321 -337 -345 -363 -371 -380 -393 -399 -410 -428 -434 -452 0
-9 -23 -28 -36 -50 -66 -71 -86 -95 -109 -125 -127 -147 -157 -169 -173 -190 -200 -208 -228 -237 -247 -260 -265 -276 -295 -305 -314 -320 -338 -343 -357 -371 -386 -388 -404 -413 -426 -438 -456 0
-9 -13 -28 -37 -56 -61 -81 -91 -102 -107 -124 -127 -140 -156 -165 -180 -188 -203 -208 -218 -238 -240 -259 -274 -282 -290 -307 -318 -330 -333 -346 -360 -366 -386 -396 -407 -415 -425 -434 -449 0
-9 -15 -28 -40 -56 -63 -71 -82 -99 -106 -124 -137 -140 -159 -170 -180 -185 -201 -217 -220 -232 -246 -252 -272 -275 -288 -308 -311 -328 -332 -348 -363 -368 -383 -398 -404 -413 -426 -433 -446 0
-9 -17 -29 -44 -48 -69 -70 -84 -98 -106 -124 -136 -142 -153 -162 -174 -192 -206 -209 -222 -236 -250 -257 -266 -283 -289 -305 -317 -330 -331 -344 -362 -374 -378 -395 -404 -413 -429 -443 -448 0
-9 -13 -29 -36 -54 -58 -73 -86 -100 -114 -118 -137 -147 -156 -171 -180 -188 -199 -214 -228 -230 -246 -259 -264 -281 -292 -298 -317 -323 -333 -353 -363 -365 -377 -387 -400 -417 -424 -433 -452 0
-9 -20 -29 -39 -47 -60 -81 -86 -97 -105 -124 -136 -142 -151 -171 -176 -190 -201 -213 -218 -233 -244 -253 -264 -283 -295 -303 -310 -320 -341 -346 -357 -372 -378 -397 -402 -411 -421 -434 -455 0
-9 -17 -32 -41 -48 -68 -73 -93 -97 -112 -118 -127 -138 -160 -163 -176 -185 -206 -212 -222 -237 -240 -261 -265 -282 -290 -299 -310 -322 -331 -353 -362 -366 -380 -397 -400 -413 -425 -439 -446 0
-9 -14 -32 -41 -48 -58 -73 -87 -104 -114 -118 -130 -147 -151 -166 -174 -192 -206 -215 -219 -229 -246 -252 -270 -281 -292 -297 -313 -325 -333 -349 -354 -374 -385 -388 -403 -416 -432 -441 -448 0
-9 -14 -32 -40 -56 -63 -74 -83 -104 -109 -120 -135 -139 -150 -169 -174 -186 -196 -215 -228 -230 -242 -257 -267 -279 -288 -304 -316 -324 -337 -343 -354 -373 -377 -392 -401 -410 -430 -438 -455 0
-9 -17 -32 -36 -55 -63 -81 -83 -96 -105 -120 -136 -141 -156 -170 -173 -187 -199 -207 -226 -239 -248 -257 -264 -276 -289 -306 -314 -328 -331 -344 -364 -370 -386 -391 -403 -417 -426 -440 -451 0
-9 -16 -32 -39 -47 -58 -72 -87 -102 -115 -124 -136 -141 -151 -171 -177 -193 -205 -213 -221 -231 -241 -257 -265 -277 -292 -298 -315 -321 -335 -349 -358 -374 -382 -394 -402 -412 -422 -436 -453 0
-9 -12 -32 -38 -47 -69 -75 -85 -98 -112 -124 -136 -138 -155 -166 -182 -195 -204 -212 -222 -229 -242 -254 -271 -284 -288 -300 -310 -324 -337 -344 -362 -370 -376 -389 -407 -419 -432 -434 -445 0
-9 -12 -33 -36 -51 -68 -74 -84 -104 -106 -121 -134 -141 -154 -162 -182 -192 -203 -209 -228 -236 -246 -255 -273 -279 -289 -305 -317 -323 -334 -348 -363 -369 -378 -395 -406 -415 -429 -438 -449 0
-9 -15 -33 -39 -50 -66 -70 -86 -97 -115 -118 -136 -138 -157 -169 -183 -184 -201 -217 -219 -230 -244 -257 -264 -283 -290 -298 -315 -330 -334 -343 -358 -372 -377 -387 -401 -418 -425 -439 -445 0
-9 -15 -33 -39 -46 -66 -80 -82 -101 -110 -118 -137 -143 -153 -164 -177 -194 -198 -210 -226 -229 -250 -259 -269 -282 -286 -301 -317 -323 -338 -350 -364 -374 -379 -398 -409 -411 -426 -440 -445 0
-9 -20 -33 -39 -56 -63 -71 -85 -94 -112 -117 -137 -141 -154 -172 -175 -188 -196 -216 -226 -233 -245 -259 -263 -281 -291 -300 -309 -325 -333 -348 -364 -374 -380 -390 -400 -410 -423 -437 -456 0
-9 -17 -34 -37 -47 -67 -75 -85 -94 -110 -125 -134 -142 -151 -164 -180 -192 -198 -210 -225 -238 -240 -255 -272 -276 -289 -306 -311 -325 -339 -348 -355 -368 -382 -392 -407 -415 -429 -443 -454 0
-9 -22 -34 -39 -47 -60 -79 -83 -102 -105 -119 -134 -142 -154 -164 -180 -188 -200 -217 -222 -235 -248 -252 -262 -282 -290 -307 -313 -327 -336 -343 -357 -375 -383 -387 -403 -413 -427 -443 -454 0
-9 -22 -34 -39 -47 -63 -73 -82 -97 -112 -117 -134 -147 -154 -169 -176 -184 -203 -210 -218 -237 -244 -253 -274 -279 -288 -307 -317 -327 -332 -345 -364 -372 -376 -391 -403 -419 -431 -434 -445 0
-9 -16 -34 -39 -54 -58 -79 -83 -102 -107 -121 -129 -148 -153 -171 -179 -191 -200 -208 -219 -237 -244 -261 -271 -279 -289 -307 -314 -320 -335 -351 -361 -375 -379 -391 -406 -414 -422 -444 -449 0
-10 -12 -32 -40 -46 -63 -81 -86 -103 -107 -119 -129 -144 -155 -166 -178 -193 -203 -216 -220 -239 -240 -253 -270 -278 -293 -301 -315 -330 -332 -351 -359 -368 -382 -390 -400 -417 -431 -438 -449 0
-10 -13 -31 -37 -48 -63 -76 -85 -100 -112 -118 -137 -146 -150 -167 -174 -187 -204 -215 -218 -239 -240 -255 -265 -281 -291 -304 -313 -330 -333 -351 -356 -365 -378 -390 -407 -411 -432 -437 -446 0
-10 -13 -31 -37 -48 -63 -78 -82 -100 -108 -126 -128 -142 -158 -168 -182 -184 -206 -209 -221 -230 -250 -257 -264 -278 -293 -302 -313 -326 -331 -351 -361 -368 -385 -392 -407 -416 -424 -439 -455 0
-10 -13 -26 -42 -48 -63 -70 -85 -100 -107 -121 -134 -145 -161 -168 -175 -184 -200 -210 -218 -234 -243 -261 -269 -284 -291 -307 -316 -325 -333 -342 -356 -375 -385 -398 -407 -413 -431 -433 -455 0
-10 -14 -27 -41 -52 -65 -78 -84 -101 -109 -117 -130 -149 -150 -162 -177 -193 -202 -210 -218 -236 -245 -257 -274 -277 -289 -304 -310 -330 -333 -348 -362 -368 -379 -396 -403 -415 -428 -444 -454 0
-10 -14 -27 -35 -51 -66 -76 -90 -101 -109 -118 -130 -138 -161 -162 -180 -188 -197 -208 -222 -239 -245 -256 -273 -281 -290 -300 -315 -330 -333 -343 -360 -365 -384 -390 -403 -415 -427 -441 -454 0
-10 -14 -34 -43 -49 -63 -73 -83 -99 -105 -121 -128 -146 -158 -163 -180 -194 -203 -217 -221 -233 -242 -259 -268 -275 -293 -299 -310 -327 -337 -346 -357 -375 -380 -389 -401 -419 -425 -440 -449 0
-10 -14 -24 -40 -52 -59 -73 -88 -99 -111 -118 -133 -149 -159 -171 -176 -188 -204 -217 -218 -233 -242 -256 -264 -283 -293 -302 -313 -322 -333 -353 -354 -373 -377 -397 -400 -412 -424 -435 -445 0
-10 -14 -27 -42 -46 -60 -77 -93 -102 -111 -116 -128 -146 -156 -172 -182 -189 -198 -210 -223 -231 -240 -260 -270 -281 -291 -307 -318 -327 -333 -349 -355 -365 -378 -387 -408 -412 -425 -438 -452 0
-10 -15 -24 -43 -48 -63 -74 -91 -101 -107 -119 -137 -138 -158 -163 -175 -185 -206 -217 -224 -235 -240 -259 -270 -278 -295 -308 -315 -322 -338 -349 -361 -369 -382 -396 -405 -414 -432 -434 -449 0
-10 -15 -32 -41 -49 -64 -81 -85 -94 -106 -121 -133 -139 -154 -167 -175 -195 -197 -216 -226 -233 -240 -257 -263 -283 -295 -301 -314 -326 -332 -352 -357 -371 -385 -391 -401 -417 -422 -441 -455 0
-10 -16 -31 -37 -49 -63 -72 -93 -95 -107 -121 -134 -144 -150 -167 -180 -190 -197 -217 -221 -231 -244 -259 -264 -275 -289 -308 -317 -325 -331 -344 -355 -367 -382 -388 -401 -417 -431 -442 -450 0
-10 -16 -25 -35 -52 -66 -77 -88 -100 -109 -121 -137 -140 -151 -167 -176 -191 -199 -216 -220 -229 -248 -253 -269 -276 -291 -297 -313 -321 -340 -348 -359 -371 -383 -395 -406 -413 -432 -435 -451 0
-10 -17 -25 -42 -50 -58 -75 -83 -97 -110 -126 -133 -141 -159 -168 -182 -185 -198 -210 -221 -230 -244 -260 -262 -285 -295 -304 -312 -324 -338 -352 -357 -369 -384 -387 -405 -417 -424 -444 -454 0
-10 -17 -31 -38 -51 -60 -76 -93 -95 -107 -119 -127 -146 -156 -171 -179 -195 -202 -209 -218 -237 -243 -253 -270 -278 -291 -308 -310 -329 -341 -342 -358 -367 -384 -390 -402 -416 -428 -442 -451 0
-10 -17 -24 -43 -50 -60 -78 -84 -102 -108 -120 -132 -149 -151 -171 -173 -190 -204 -211 -221 -233 -244 -259 -264 -276 -290 -298 -309 -326 -334 -347 -360 -373 -379 -393 -400 -411 -426 -439 -456 0
-10 -17 -30 -44 -50 -61 -71 -85 -94 -109 -126 -131 -145 -151 -171 -179 -189 -204 -208 -222 -237 -242 -255 -265 -276 -287 -305 -309 -325 -338 -344 -362 -368 -381 -389 -403 -413 -427 -434 -456 0
-10 -17 -24 -38 -52 -59 -75 -90 -97 -109 -126 -134 -142 -152 -172 -178 -190 -199 -208 -227 -238 -245 -253 -270 -278 -294 -303 -317 -322 -340 -347 -359 -374 -386 -395 -406 -411 -423 -434 -454 0
-10 -18 -34 -39 -47 -63 -72 -87 -94 -109 -122 -134 -138 -154 -166 -175 -195 -196 -213 -224 -231 -246 -252 -273 -283 -289 -297 -317 -322 -333 -353 -362 -372 -385 -392 -406 -418 -422 -442 -451 0
-10 -18 -32 -40 -46 -63 -81 -82 -99 -108 -122 -129 -139 -155 -166 -174 -185 -202 -215 -226 -233 -250 -260 -262 -276 -289 -298 -313 -328 -332 -351 -354 -370 -383 -396 -400 -411 -426 -440 -450 0
-10 -18 -24 -39 -46 -60 -81 -85 -103 -110 -118 -134 -142 -157 -163 -180 -188 -200 -207 -224 -232 -242 -259 -274 -284 -292 -301 -315 -322 -341 -353 -356 -365 -383 -398 -400 -414 -423 -437 -448 0
-10 -18 -26 -35 -51 -61 -74 -87 -103 -107 -119 -134 -149 -151 -168 -175 -186 -197 -207 -222 -234 -243 -253 -273 -283 -286 -304 -315 -321 -332 -352 -358 -373 -384 -389 -403 -413 -421 -437 -451 0
-10 -19 -24 -44 -50 -61 -76 -93 -97 -109 -117 -130 -143 -152 -165 -182 -195 -198 -212 -219 -230 -247 -255 -273 -280 -290 -301 -312 -329 -341 -348 -356 -372 -384 -393 -403 -416 -431 -436 -447 0
-10 -19 -24 -37 -51 -64 -74 -93 -97 -110 -121 -128 -146 -151 -165 -174 -186 -206 -211 -225 -230 -247 -253 -262 -283 -295 -298 -312 -323 -336 -350 -363 -371 -384 -389 -407 -411 -427 -440 -454 0
-10 -19 -34 -41 -52 -60 -74 -84 -97 -106 -123 -127 -142 -154 -166 -178 -187 -196 -215 -228 -235 -244 -253 -273 -276 -294 -302 -310 -324 -339 -346 -357 -373 -378 -388 -409 -415 -421 -438 -447 0
-10 -19 -27 -39 -57 -63 -73 -83 -101 -107 -123 -127 -140 -158 -164 -174 -187 -203 -216 -228 -230 -240 -256 -266 -283 -296 -304 -319 -325 -333 -344 -362 -372 -384 -390 -403 -417 -427 -441 -456 0
-10 -19 -29 -36 -57 -61 -70 -91 -98 -106 -118 -130 -144 -156 -162 -178 -190 -199 -208 -222 -239 -248 -252 -273 -279 -296 -301 -317 -329 -331 -350 -364 -366 -382 -388 -402 -415 -431 -439 -452 0
-10 -19 -28 -37 -48 -69 -76 -84 -102 -105 -121 -134 -140 -151 -165 -177 -189 -198 -212 -221 -238 -242 -252 -272 -275 -287 -307 -313 -328 -338 -345 -356 -372 -384 -393 -400 -419 -431 -442 -447 0
-10 -19 -25 -37 -51 -61 -74 -93 -95 -112 -119 -134 -144 -150 -167 -174 -185 -203 -215 -222 -239 -241 -255 -265 -275 -290 -305 -312 -324 -338 -342 -355 -375 -382 -388 -406 -417 -431 -438 -446 0
-10 -19 -25 -36 -48 -59 -74 -87 -94 -109 -126 -134 -143 -158 -171 -179 -189 -198 -215 -222 -239 -242 -255 -265 -276 -288 -305 -312 -327 -332 -351 -354 -375 -382 -396 -403 -411 -424 -436 -455 0
-10 -19 -27 -41 -57 -66 -76 -83 -98 -111 -116 -128 -142 -153 -164 -178 -186 -198 -210 -223 -238 -240 -261 -272 -281 -295 -305 -311 -330 -339 -352 -359 -368 -385 -392 -407 -418 -425 -443 -455 0
-10 -19 -28 -44 -52 -60 -70 -87 -99 -115 -117 -128 -143 -153 -162 -178 -187 -200 -215 -225 -232 -247 -261 -273 -277 -293 -308 -311 -321 -340 -346 -359 -372 -384 -388 -406 -412 -424 -435 -456 0
-10 -23 -26 -42 -50 -58 -74 -85 -95 -107 -120 -133 -146 -157 -164 -176 -191 -203 -215 -218 -239 -249 -254 -268 -279 -291 -306 -309 -327 -341 -349 -355 -366 -381 -393 -407 -411 -431 -434 -456 0
-10 -23 -25 -39 -51 -66 -70 -86 -95 -108 -122 -129 -144 -156 -165 -173 -189 -203 -216 -223 -236 -250 -252 -264 -283 -289 -307 -310 -328 -340 -342 -361 -369 -382 -396 -409 -418 -425 -441 -451 0
-10 -23 -28 -36 -52 -62 -71 -82 -95 -109 -122 -134 -143 -154 -168 -177 -190 -199 -215 -228 -231 -246 -255 -273 -276 -287 -305 -315 -327 -335 -349 -354 -373 -385 -393 -409 -411 -422 -436 -446 0
-10 -23 -29 -43 -50 -61 -74 -91 -95 -109 -118 -127 -140 -158 -168 -175 -185 -203 -208 -218 -238 -248 -255 -274 -278 -287 -305 -317 -326 -338 -352 -362 -368 -386 -393 -403 -413 -427 -434 -450 0
-10 -23 -25 -40 -46 -66 -70 -90 -100 -108 -120 -131 -141 -158 -168 -174 -186 -199 -212 -222 -239 -249 -252 -263 -283 -288 -303 -317 -321 -340 -342 -361 -374 -380 -391 -408 -420 -421 -437 -456 0
-10 -23 -25 -38 -46 -66 -75 -89 -100 -105 -119 -129 -145 -156 -172 -177 -185 -199 -210 -226 -235 -243 -260 -268 -283 -291 -307 -309 -323 -333 -343 -362 -371 -383 -396 -408 -419 -426 -440 -454 0
-11 -13 -29 -44 -48 -64 -77 -92 -97 -109 -124 -130 -142 -152 -167 -180 -193 -197 -209 -220 -233 -245 -260 -271 -281 -293 -298 -316 -326 -340 -346 -357 -375 -377 -397 -409 -410 -427 -436 -455 0
-11 -13 -28 -41 -55 -64 -73 -90 -97 -110 -121 -136 -139 -159 -170 -180 -187 -197 -208 -221 -234 -248 -251 -265 -280 -292 -299 -317 -325 -331 -344 -357 -374 -386 -388 -402 -412 -429 -436 -455 0
-11 -13 -31 -37 -51 -68 -76 -91 -101 -113 -118 -130 -140 -154 -165 -181 -191 -200 -216 -227 -230 -247 -251 -269 -280 -290 -299 -318 -324 -337 -345 -364 -372 -384 -388 -405 -417 -431 -444 -452 0
-11 -13 -28 -42 -48 -65 -80 -84 -102 -108 -123 -129 -142 -160 -166 -181 -190 -202 -209 -227 -238 -241 -251 -264 -278 -290 -300 -319 -326 -340 -346 -361 -365 -386 -388 -407 -415 -426 -441 -456 0
-11 -13 -27 -44 -49 -64 -72 -92 -102 -109 -118 -133 -147 -156 -165 -180 -184 -201 -211 -225 -238 -248 -252 -271 -277 -293 -306 -319 -321 -336 -348 -359 -366 -383 -388 -408 -415 -425 -441 -452 0
-11 -13 -30 -39 -51 -61 -72 -90 -98 -112 -123 -136 -139 -160 -165 -174 -190 -202 -214 -227 -238 -245 -252 -262 -279 -295 -298 -317 -325 -336 -346 -361 -374 -386 -388 -402 -416 -421 -443 -445 0
-11 -13 -26 -38 -54 -68 -77 -84 -102 -111 -121 -135 -140 -158 -169 -179 -187 -199 -211 -220 -238 -248 -251 -266 -276 -294 -303 -318 -321 -335 -344 -359 -370 -386 -396 -402 -420 -429 -435 -453 0
-11 -13 -25 -37 -55 -68 -74 -91 -102 -110 -121 -133 -140 -158 -165 -179 -191 -202 -216 -220 -229 -248 -255 -271 -276 -288 -299 -315 -327 -334 -350 -362 -375 -383 -394 -399 -420 -427 -435 -451 0
-11 -22 -25 -42 -46 -66 -74 -87 -98 -110 -119 -133 -143 -160 -167 -182 -185 -198 -209 -222 -229 -241 -255 -271 -281 -291 -302 -310 -321 -339 -346 -363 -365 -383 -394 -399 -410 -432 -440 -447 0
-11 -22 -29 -39 -46 -66 -77 -87 -99 -108 -124 -128 -141 -158 -169 -179 -185 -198 -209 -221 -229 -241 -259 -268 -278 -291 -308 -316 -321 -341 -346 -357 -365 -380 -395 -408 -410 -432 -439 -448 0
-11 -21 -25 -37 -46 -68 -74 -87 -102 -110 -123 -133 -140 -158 -165 -179 -191 -202 -216 -220 -229 -242 -255 -271 -276 -288 -299 -315 -327 -334 -343 -362 -375 -383 -394 -399 -420 -427 -435 -456 0
-11 -16 -30 -45 -46 -63 -77 -84 -101 -113 -119 -134 -141 -155 -166 -181 -185 -197 -211 -220 -236 -248 -260 -262 -281 -286 -305 -318 -325 -335 -349 -360 -375 -378 -393 -406 -417 -421 -436 -449 0
-11 -21 -27 -36 -51 -59 -76 -91 -100 -107 -122 -136 -141 -156 -171 -177 -191 -202 -212 -219 -232 -246 -258 -264 -276 -289 -298 -318 -327 -339 -353 -354 -367 -381 -395 -400 -415 -428 -443 -448 0
-11 -18 -31 -36 -55 -61 -78 -83 -98 -112 -125 -130 -143 -152 -163 -176 -193 -206 -210 -224 -231 -244 -258 -270 -279 -293 -303 -311 -330 -340 -346 -355 -372 -383 -394 -403 -410 -429 -441 -453 0
-11 -16 -25 -42 -50 -66 -74 -83 -98 -114 -119 -131 -145 -160 -170 -173 -193 -203 -209 -220 -230 -247 -255 -268 -275 -290 -307 -309 -330 -337 -346 -355 -372 -383 -392 -405 -410 -429 -438 -449 0
-11 -22 -27 -36 -54 -65 -75 -83 -96 -112 -124 -130 -141 -158 -168 -182 -187 -205 -207 -221 -230 -242 -257 -265 -277 -291 -299 -314 -328 -334 -352 -360 -366 -383 -392 -406 -419 -429 -436 -453 0
-11 -17 -31 -41 -55 -60 -80 -83 -97 -110 -121 -132 -139 -159 -170 -180 -189 -200 -209 -222 -230 -248 -251 -263 -277 -293 -302 -310 -324 -333 -344 -362 -368 -376 -389 -404 -414 -425 -441 -455 0
-11 -15 -29 -44 -55 -65 -80 -83 -101 -108 -120 -130 -144 -152 -167 -174 -194 -199 -210 -226 -231 -241 -257 -271 -283 -291 -301 -310 -330 -341 -349 -362 -366 -383 -390 -399 -413 -429 -441 -455 0
-11 -22 -29 -44 -49 -60 -76 -87 -95 -110 -124 -128 -145 -153 -169 -182 -190 -202 -207 -220 -231 -247 -255 -265 -278 -293 -305 -315 -323 -333 -342 -360 -368 -378 -391 -406 -412 -426 -437 -446 0
-11 -18 -32 -39 -50 -65 -72 -88 -95 -107 -120 -136 -141 -160 -170 -176 -189 -197 -209 -222 -237 -247 -254 -263 -275 -293 -300 -315 -330 -335 -344 -354 -367 -378 -391 -401 -420 -426 -434 -453 0
-11 -18 -27 -44 -53 -60 -75 -92 -100 -106 -121 -128 -147 -153 -169 -176 -187 -201 -215 -224 -229 -249 -253 -265 -277 -294 -298 -312 -327 -339 -351 -363 -368 -384 -389 -404 -412 -426 -435 -455 0
-11 -20 -28 -43 -50 -60 -80 -89 -97 -110 -117 -128 -143 -160 -164 -177 -187 -198 -216 -225 -230 -240 -255 -272 -280 -287 -303 -309 -330 -341 -344 -362 -372 -384 -393 -401 -411 -421 -443 -448 0
-11 -20 -30 -36 -49 -67 -73 -90 -102 -110 -117 -128 -148 -156 -164 -182 -190 -196 -210 -223 -238 -241 -256 -270 -277 -296 -298 -314 -323 -333 -347 -361 -373 -385 -391 -399 -416 -432 -437 -450 0
-11 -19 -33 -38 -50 -63 -72 -92 -98 -111 -117 -128 -146 -158 -163 -175 -190 -200 -214 -224 -231 -240 -259 -267 -284 -287 -305 -319 -320 -331 -345 -363 -370 -376 -396 -405 -417 -423 -438 -447 0
-11 -20 -27 -41 -49 -64 -71 -92 -98 -112 -117 -133 -147 -153 -171 -180 -193 -201 -212 -220 -231 -245 -256 -265 -278 -292 -308 -314 -321 -336 -352 -357 -365 -381 -397 -399 -412 -424 -437 -456 0
-11 -15 -27 -45 -47 -67 -76 -85 -100 -112 -117 -131 -145 -159 -164 -183 -189 -201 -210 -218 -236 -240 -258 -264 -283 -296 -306 -311 -325 -339 -353 -357 -372 -381 -392 -399 -419 -427 -434 -454 0
-11 -14 -26 -38 -49 -68 -75 -89 -103 -112 -117 -128 -146 -160 -163 -179 -186 -206 -211 -219 -229 -246 -258 -272 -279 -289 -305 -319 -323 -340 -343 -354 -374 -385 -391 -408 -416 -422 -438 -447 0
-11 -22 -32 -40 -51 -64 -71 -85 -100 -113 -117 -129 -145 -154 -166 -175 -193 -196 -212 -224 -236 -246 -253 -271 -276 -287 -303 -314 -330 -339 -342 -360 -368 -383 -392 -400 -412 -427 -435 -453 0
-11 -16 -28 -42 -56 -66 -77 -84 -98 -113 -121 -131 -138 -153 -164 -180 -189 -203 -216 -220 -234 -248 -258 -266 -275 -288 -299 -309 -328 -337 -353 -360 -366 -385 -395 -405 -413 -429 -437 -445 0
-11 -14 -26 -39 -51 -68 -77 -86 -96 -112 -123 -132 -138 -160 -163 -182 -184 -205 -211 -219 -233 -245 -260 -269 -279 -291 -302 -309 -323 -340 -343 -358 -371 -385 -395 -406 -417 -432 -442 -452 0
-11 -16 -32 -40 -51 -68 -76 -85 -103 -113 -118 -129 -138 -155 -163 -176 -189 -204 -212 -219 -238 -247 -251 -272 -282 -288 -297 -319 -329 -339 -348 -356 -365 -378 -398 -404 -413 -426 -438 -452 0
-11 -20 -33 -39 -50 -61 -77 -85 -98 -114 -118 -132 -138 -157 -164 -178 -190 -197 -213 -227 -229 -249 -254 -266 -279 -286 -301 -319 -325 -337 -345 -355 -372 -376 -392 -407 -416 -432 -439 -445 0
-11 -19 -28 -37 -52 -66 -75 -92 -101 -110 -119 -135 -138 -152 -167 -173 -190 -200 -209 -218 -237 -243 -258 -267 -284 -292 -305 -311 -325 -332 -346 -364 -368 -385 -396 -401 -417 -425 -433 -455 0
-11 -15 -25 -44 -49 -67 -80 -90 -101 -110 -119 -132 -138 -157 -162 -179 -189 -199 -216 -220 -230 -247 -258 -270 -283 -294 -302 -315 -324 -331 -343 -362 -368 -380 -398 -401 -416 -426 -443 -445 0
-11 -22 -28 -40 -51 -66 -77 -84 -98 -113 -119 -132 -138 -154 -167 -179 -185 -196 -209 -222 -236 -245 -252 -271 -283 -287 -303 -309 -325 -335 -353 -361 -368 -384 -387 -406 -417 -422 -442 -450 0
-11 -20 -33 -37 -53 -63 -76 -84 -99 -111 -119 -136 -138 -156 -168 -182 -187 -199 -207 -223 -235 -242 -252 -273 -277 -289 -297 -313 -325 -333 -348 -361 -366 -378 -388 -408 -415 -421 -434 -447 0
