p cnf 456 10145
1 2 3 4 5 6 7 8 9 10 11 12 0
-1 -2 0
-1 -3 0
-1 -4 0
-1 -5 0
-1 -6 0
-1 -7 0
-1 -8 0
-1 -9 0
-1 -10 0
-1 -11 0
-1 -12 0
-2 -3 0
-2 -4 0
-2 -5 0
-2 -6 0
-2 -7 0
-2 -8 0
-2 -9 0
-2 -10 0
-2 -11 0
-2 -12 0
-3 -4 0
-3 -5 0
-3 -6 0
-3 -7 0
-3 -8 0
-3 -9 0
-3 -10 0
-3 -11 0
-3 -12 0
-4 -5 0
-4 -6 0
-4 -7 0
-4 -8 0
-4 -9 0
-4 -10 0
-4 -11 0
-4 -12 0
-5 -6 0
-5 -7 0
-5 -8 0
-5 -9 0
-5 -10 0
-5 -11 0
-5 -12 0
-6 -7 0
-6 -8 0
-6 -9 0
-6 -10 0
-6 -11 0
-6 -12 0
-7 -8 0
-7 -9 0
-7 -10 0
-7 -11 0
-7 -12 0
-8 -9 0
-8 -10 0
-8 -11 0
-8 -12 0
-9 -10 0
-9 -11 0
-9 -12 0
-10 -11 0
-10 -12 0
-11 -12 0
13 14 15 16 17 18 19 20 21 22 23 24 25 0
-13 -14 0
-13 -15 0
-13 -16 0
-13 -17 0
-13 -18 0
-13 -19 0
-13 -20 0
-13 -21 0
-13 -22 0
-13 -23 0
-13 -24 0
-13 -25 0
-14 -15 0
-14 -16 0
-14 -17 0
-14 -18 0
-14 -19 0
-14 -20 0
-14 -21 0
-14 -22 0
-14 -23 0
-14 -24 0
-14 -25 0
-15 -16 0
-15 -17 0
-15 -18 0
-15 -19 0
-15 -20 0
-15 -21 0
-15 -22 0
-15 -23 0
-15 -24 0
-15 -25 0
-16 -17 0
-16 -18 0
-16 -19 0
-16 -20 0
-16 -21 0
-16 -22 0
-16 -23 0
-16 -24 0
-16 -25 0
-17 -18 0
-17 -19 0
-17 -20 0
-17 -21 0
-17 -22 0
-17 -23 0
-17 -24 0
-17 -25 0
-18 -19 0
-18 -20 0
-18 -21 0
-18 -22 0
-18 -23 0
-18 -24 0
-18 -25 0
-19 -20 0
-19 -21 0
-19 -22 0
-19 -23 0
-19 -24 0
-19 -25 0
-20 -21 0
-20 -22 0
-20 -23 0
-20 -24 0
-20 -25 0
-21 -22 0
-21 -23 0
-21 -24 0
-21 -25 0
-22 -23 0
-22 -24 0
-22 -25 0
-23 -24 0
-23 -25 0
-24 -25 0
26 27 28 29 30 31 32 33 34 35 36 0
-26 -27 0
-26 -28 0
-26 -29 0
-26 -30 0
-26 -31 0
-26 -32 0
-26 -33 0
-26 -34 0
-26 -35 0
-26 -36 0
-27 -28 0
-27 -29 0
-27 -30 0
-27 -31 0
-27 -32 0
-27 -33 0
-27 -34 0
-27 -35 0
-27 -36 0
-28 -29 0
-28 -30 0
-28 -31 0
-28 -32 0
-28 -33 0
-28 -34 0
-28 -35 0
-28 -36 0
-29 -30 0
-29 -31 0
-29 -32 0
-29 -33 0
-29 -34 0
-29 -35 0
-29 -36 0
-30 -31 0
-30 -32 0
-30 -33 0
-30 -34 0
-30 -35 0
-30 -36 0
-31 -32 0
-31 -33 0
-31 -34 0
-31 -35 0
-31 -36 0
-32 -33 0
-32 -34 0
-32 -35 0
-32 -36 0
-33 -34 0
-33 -35 0
-33 -36 0
-34 -35 0
-34 -36 0
-35 -36 0
37 38 39 40 41 42 43 44 45 46 47 48 0
-37 -38 0
-37 -39 0
-37 -40 0
-37 -41 0
-37 -42 0
-37 -43 0
-37 -44 0
-37 -45 0
-37 -46 0
-37 -47 0
-37 -48 0
-38 -39 0
-38 -40 0
-38 -41 0
-38 -42 0
-38 -43 0
-38 -44 0
-38 -45 0
-38 -46 0
-38 -47 0
-38 -48 0
-39 -40 0
-39 -41 0
-39 -42 0
-39 -43 0
-39 -44 0
-39 -45 0
-39 -46 0
-39 -47 0
-39 -48 0
-40 -41 0
-40 -42 0
-40 -43 0
-40 -44 0
-40 -45 0
-40 -46 0
-40 -47 0
-40 -48 0
-41 -42 0
-41 -43 0
-41 -44 0
-41 -45 0
-41 -46 0
-41 -47 0
-41 -48 0
-42 -43 0
-42 -44 0
-42 -45 0
-42 -46 0
-42 -47 0
-42 -48 0
-43 -44 0
-43 -45 0
-43 -46 0
-43 -47 0
-43 -48 0
-44 -45 0
-44 -46 0
-44 -47 0
-44 -48 0
-45 -46 0
-45 -47 0
-45 -48 0
-46 -47 0
-46 -48 0
-47 -48 0
49 50 51 52 53 54 55 56 57 58 59 0
-49 -50 0
-49 -51 0
-49 -52 0
-49 -53 0
-49 -54 0
-49 -55 0
-49 -56 0
-49 -57 0
-49 -58 0
-49 -59 0
-50 -51 0
-50 -52 0
-50 -53 0
-50 -54 0
-50 -55 0
-50 -56 0
-50 -57 0
-50 -58 0
-50 -59 0
-51 -52 0
-51 -53 0
-51 -54 0
-51 -55 0
-51 -56 0
-51 -57 0
-51 -58 0
-51 -59 0
-52 -53 0
-52 -54 0
-52 -55 0
-52 -56 0
-52 -57 0
-52 -58 0
-52 -59 0
-53 -54 0
-53 -55 0
-53 -56 0
-53 -57 0
-53 -58 0
-53 -59 0
-54 -55 0
-54 -56 0
-54 -57 0
-54 -58 0
-54 -59 0
-55 -56 0
-55 -57 0
-55 -58 0
-55 -59 0
-56 -57 0
-56 -58 0
-56 -59 0
-57 -58 0
-57 -59 0
-58 -59 0
60 61 62 63 64 65 66 67 68 69 70 71 72 0
-60 -61 0
-60 -62 0
-60 -63 0
-60 -64 0
-60 -65 0
-60 -66 0
-60 -67 0
-60 -68 0
-60 -69 0
-60 -70 0
-60 -71 0
-60 -72 0
-61 -62 0
-61 -63 0
-61 -64 0
-61 -65 0
-61 -66 0
-61 -67 0
-61 -68 0
-61 -69 0
-61 -70 0
-61 -71 0
-61 -72 0
-62 -63 0
-62 -64 0
-62 -65 0
-62 -66 0
-62 -67 0
-62 -68 0
-62 -69 0
-62 -70 0
-62 -71 0
-62 -72 0
-63 -64 0
-63 -65 0
-63 -66 0
-63 -67 0
-63 -68 0
-63 -69 0
-63 -70 0
-63 -71 0
-63 -72 0
-64 -65 0
-64 -66 0
-64 -67 0
-64 -68 0
-64 -69 0
-64 -70 0
-64 -71 0
-64 -72 0
-65 -66 0
-65 -67 0
-65 -68 0
-65 -69 0
-65 -70 0
-65 -71 0
-65 -72 0
-66 -67 0
-66 -68 0
-66 -69 0
-66 -70 0
-66 -71 0
-66 -72 0
-67 -68 0
-67 -69 0
-67 -70 0
-67 -71 0
-67 -72 0
-68 -69 0
-68 -70 0
-68 -71 0
-68 -72 0
-69 -70 0
-69 -71 0
-69 -72 0
-70 -71 0
-70 -72 0
-71 -72 0
73 74 75 76 77 78 79 80 81 82 83 0
-73 -74 0
-73 -75 0
-73 -76 0
-73 -77 0
-73 -78 0
-73 -79 0
-73 -80 0
-73 -81 0
-73 -82 0
-73 -83 0
-74 -75 0
-74 -76 0
-74 -77 0
-74 -78 0
-74 -79 0
-74 -80 0
-74 -81 0
-74 -82 0
-74 -83 0
-75 -76 0
-75 -77 0
-75 -78 0
-75 -79 0
-75 -80 0
-75 -81 0
-75 -82 0
-75 -83 0
-76 -77 0
-76 -78 0
-76 -79 0
-76 -80 0
-76 -81 0
-76 -82 0
-76 -83 0
-77 -78 0
-77 -79 0
-77 -80 0
-77 -81 0
-77 -82 0
-77 -83 0
-78 -79 0
-78 -80 0
-78 -81 0
-78 -82 0
-78 -83 0
-79 -80 0
-79 -81 0
-79 -82 0
-79 -83 0
-80 -81 0
-80 -82 0
-80 -83 0
-81 -82 0
-81 -83 0
-82 -83 0
84 85 86 87 88 89 90 91 92 93 94 0
-84 -85 0
-84 -86 0
-84 -87 0
-84 -88 0
-84 -89 0
-84 -90 0
-84 -91 0
-84 -92 0
-84 -93 0
-84 -94 0
-85 -86 0
-85 -87 0
-85 -88 0
-85 -89 0
-85 -90 0
-85 -91 0
-85 -92 0
-85 -93 0
-85 -94 0
-86 -87 0
-86 -88 0
-86 -89 0
-86 -90 0
-86 -91 0
-86 -92 0
-86 -93 0
-86 -94 0
-87 -88 0
-87 -89 0
-87 -90 0
-87 -91 0
-87 -92 0
-87 -93 0
-87 -94 0
-88 -89 0
-88 -90 0
-88 -91 0
-88 -92 0
-88 -93 0
-88 -94 0
-89 -90 0
-89 -91 0
-89 -92 0
-89 -93 0
-89 -94 0
-90 -91 0
-90 -92 0
-90 -93 0
-90 -94 0
-91 -92 0
-91 -93 0
-91 -94 0
-92 -93 0
-92 -94 0
-93 -94 0
95 96 97 98 99 100 101 102 103 104 105 106 0
-95 -96 0
-95 -97 0
-95 -98 0
-95 -99 0
-95 -100 0
-95 -101 0
-95 -102 0
-95 -103 0
-95 -104 0
-95 -105 0
-95 -106 0
-96 -97 0
-96 -98 0
-96 -99 0
-96 -100 0
-96 -101 0
-96 -102 0
-96 -103 0
-96 -104 0
-96 -105 0
-96 -106 0
-97 -98 0
-97 -99 0
-97 -100 0
-97 -101 0
-97 -102 0
-97 -103 0
-97 -104 0
-97 -105 0
-97 -106 0
-98 -99 0
-98 -100 0
-98 -101 0
-98 -102 0
-98 -103 0
-98 -104 0
-98 -105 0
-98 -106 0
-99 -100 0
-99 -101 0
-99 -102 0
-99 -103 0
-99 -104 0
-99 -105 0
-99 -106 0
-100 -101 0
-100 -102 0
-100 -103 0
-100 -104 0
-100 -105 0
-100 -106 0
-101 -102 0
-101 -103 0
-101 -104 0
-101 -105 0
-101 -106 0
-102 -103 0
-102 -104 0
-102 -105 0
-102 -106 0
-103 -104 0
-103 -105 0
-103 -106 0
-104 -105 0
-104 -106 0
-105 -106 0
107 108 109 110 111 112 113 114 115 116 117 0
-107 -108 0
-107 -109 0
-107 -110 0
-107 -111 0
-107 -112 0
-107 -113 0
-107 -114 0
-107 -115 0
-107 -116 0
-107 -117 0
-108 -109 0
-108 -110 0
-108 -111 0
-108 -112 0
-108 -113 0
-108 -114 0
-108 -115 0
-108 -116 0
-108 -117 0
-109 -110 0
-109 -111 0
-109 -112 0
-109 -113 0
-109 -114 0
-109 -115 0
-109 -116 0
-109 -117 0
-110 -111 0
-110 -112 0
-110 -113 0
-110 -114 0
-110 -115 0
-110 -116 0
-110 -117 0
-111 -112 0
-111 -113 0
-111 -114 0
-111 -115 0
-111 -116 0
-111 -117 0
-112 -113 0
-112 -114 0
-112 -115 0
-112 -116 0
-112 -117 0
-113 -114 0
-113 -115 0
-113 -116 0
-113 -117 0
-114 -115 0
-114 -116 0
-114 -117 0
-115 -116 0
-115 -117 0
-116 -117 0
118 119 120 121 122 123 124 125 126 127 128 0
-118 -119 0
-118 -120 0
-118 -121 0
-118 -122 0
-118 -123 0
-118 -124 0
-118 -125 0
-118 -126 0
-118 -127 0
-118 -128 0
-119 -120 0
-119 -121 0
-119 -122 0
-119 -123 0
-119 -124 0
-119 -125 0
-119 -126 0
-119 -127 0
-119 -128 0
-120 -121 0
-120 -122 0
-120 -123 0
-120 -124 0
-120 -125 0
-120 -126 0
-120 -127 0
-120 -128 0
-121 -122 0
-121 -123 0
-121 -124 0
-121 -125 0
-121 -126 0
-121 -127 0
-121 -128 0
-122 -123 0
-122 -124 0
-122 -125 0
-122 -126 0
-122 -127 0
-122 -128 0
-123 -124 0
-123 -125 0
-123 -126 0
-123 -127 0
-123 -128 0
-124 -125 0
-124 -126 0
-124 -127 0
-124 -128 0
-125 -126 0
-125 -127 0
-125 -128 0
-126 -127 0
-126 -128 0
-127 -128 0
129 130 131 132 133 134 135 136 137 138 139 0
-129 -130 0
-129 -131 0
-129 -132 0
-129 -133 0
-129 -134 0
-129 -135 0
-129 -136 0
-129 -137 0
-129 -138 0
-129 -139 0
-130 -131 0
-130 -132 0
-130 -133 0
-130 -134 0
-130 -135 0
-130 -136 0
-130 -137 0
-130 -138 0
-130 -139 0
-131 -132 0
-131 -133 0
-131 -134 0
-131 -135 0
-131 -136 0
-131 -137 0
-131 -138 0
-131 -139 0
-132 -133 0
-132 -134 0
-132 -135 0
-132 -136 0
-132 -137 0
-132 -138 0
-132 -139 0
-133 -134 0
-133 -135 0
-133 -136 0
-133 -137 0
-133 -138 0
-133 -139 0
-134 -135 0
-134 -136 0
-134 -137 0
-134 -138 0
-134 -139 0
-135 -136 0
-135 -137 0
-135 -138 0
-135 -139 0
-136 -137 0
-136 -138 0
-136 -139 0
-137 -138 0
-137 -139 0
-138 -139 0
140 141 142 143 144 145 146 147 148 149 150 0
-140 -141 0
-140 -142 0
-140 -143 0
-140 -144 0
-140 -145 0
-140 -146 0
-140 -147 0
-140 -148 0
-140 -149 0
-140 -150 0
-141 -142 0
-141 -143 0
-141 -144 0
-141 -145 0
-141 -146 0
-141 -147 0
-141 -148 0
-141 -149 0
-141 -150 0
-142 -143 0
-142 -144 0
-142 -145 0
-142 -146 0
-142 -147 0
-142 -148 0
-142 -149 0
-142 -150 0
-143 -144 0
-143 -145 0
-143 -146 0
-143 -147 0
-143 -148 0
-143 -149 0
-143 -150 0
-144 -145 0
-144 -146 0
-144 -147 0
-144 -148 0
-144 -149 0
-144 -150 0
-145 -146 0
-145 -147 0
-145 -148 0
-145 -149 0
-145 -150 0
-146 -147 0
-146 -148 0
-146 -149 0
-146 -150 0
-147 -148 0
-147 -149 0
-147 -150 0
-148 -149 0
-148 -150 0
-149 -150 0
151 152 153 154 155 156 157 158 159 160 161 0
-151 -152 0
-151 -153 0
-151 -154 0
-151 -155 0
-151 -156 0
-151 -157 0
-151 -158 0
-151 -159 0
-151 -160 0
-151 -161 0
-152 -153 0
-152 -154 0
-152 -155 0
-152 -156 0
-152 -157 0
-152 -158 0
-152 -159 0
-152 -160 0
-152 -161 0
-153 -154 0
-153 -155 0
-153 -156 0
-153 -157 0
-153 -158 0
-153 -159 0
-153 -160 0
-153 -161 0
-154 -155 0
-154 -156 0
-154 -157 0
-154 -158 0
-154 -159 0
-154 -160 0
-154 -161 0
-155 -156 0
-155 -157 0
-155 -158 0
-155 -159 0
-155 -160 0
-155 -161 0
-156 -157 0
-156 -158 0
-156 -159 0
-156 -160 0
-156 -161 0
-157 -158 0
-157 -159 0
-157 -160 0
-157 -161 0
-158 -159 0
-158 -160 0
-158 -161 0
-159 -160 0
-159 -161 0
-160 -161 0
162 163 164 165 166 167 168 169 170 171 172 0
-162 -163 0
-162 -164 0
-162 -165 0
-162 -166 0
-162 -167 0
-162 -168 0
-162 -169 0
-162 -170 0
-162 -171 0
-162 -172 0
-163 -164 0
-163 -165 0
-163 -166 0
-163 -167 0
-163 -168 0
-163 -169 0
-163 -170 0
-163 -171 0
-163 -172 0
-164 -165 0
-164 -166 0
-164 -167 0
-164 -168 0
-164 -169 0
-164 -170 0
-164 -171 0
-164 -172 0
-165 -166 0
-165 -167 0
-165 -168 0
-165 -169 0
-165 -170 0
-165 -171 0
-165 -172 0
-166 -167 0
-166 -168 0
-166 -169 0
-166 -170 0
-166 -171 0
-166 -172 0
-167 -168 0
-167 -169 0
-167 -170 0
-167 -171 0
-167 -172 0
-168 -169 0
-168 -170 0
-168 -171 0
-168 -172 0
-169 -170 0
-169 -171 0
-169 -172 0
-170 -171 0
-170 -172 0
-171 -172 0
173 174 175 176 177 178 179 180 181 182 183 0
-173 -174 0
-173 -175 0
-173 -176 0
-173 -177 0
-173 -178 0
-173 -179 0
-173 -180 0
-173 -181 0
-173 -182 0
-173 -183 0
-174 -175 0
-174 -176 0
-174 -177 0
-174 -178 0
-174 -179 0
-174 -180 0
-174 -181 0
-174 -182 0
-174 -183 0
-175 -176 0
-175 -177 0
-175 -178 0
-175 -179 0
-175 -180 0
-175 -181 0
-175 -182 0
-175 -183 0
-176 -177 0
-176 -178 0
-176 -179 0
-176 -180 0
-176 -181 0
-176 -182 0
-176 -183 0
-177 -178 0
-177 -179 0
-177 -180 0
-177 -181 0
-177 -182 0
-177 -183 0
-178 -179 0
-178 -180 0
-178 -181 0
-178 -182 0
-178 -183 0
-179 -180 0
-179 -181 0
-179 -182 0
-179 -183 0
-180 -181 0
-180 -182 0
-180 -183 0
-181 -182 0
-181 -183 0
-182 -183 0
184 185 186 187 188 189 190 191 192 193 194 0
-184 -185 0
-184 -186 0
-184 -187 0
-184 -188 0
-184 -189 0
-184 -190 0
-184 -191 0
-184 -192 0
-184 -193 0
-184 -194 0
-185 -186 0
-185 -187 0
-185 -188 0
-185 -189 0
-185 -190 0
-185 -191 0
-185 -192 0
-185 -193 0
-185 -194 0
-186 -187 0
-186 -188 0
-186 -189 0
-186 -190 0
-186 -191 0
-186 -192 0
-186 -193 0
-186 -194 0
-187 -188 0
-187 -189 0
-187 -190 0
-187 -191 0
-187 -192 0
-187 -193 0
-187 -194 0
-188 -189 0
-188 -190 0
-188 -191 0
-188 -192 0
-188 -193 0
-188 -194 0
-189 -190 0
-189 -191 0
-189 -192 0
-189 -193 0
-189 -194 0
-190 -191 0
-190 -192 0
-190 -193 0
-190 -194 0
-191 -192 0
-191 -193 0
-191 -194 0
-192 -193 0
-192 -194 0
-193 -194 0
195 196 197 198 199 200 201 202 203 204 205 0
-195 -196 0
-195 -197 0
-195 -198 0
-195 -199 0
-195 -200 0
-195 -201 0
-195 -202 0
-195 -203 0
-195 -204 0
-195 -205 0
-196 -197 0
-196 -198 0
-196 -199 0
-196 -200 0
-196 -201 0
-196 -202 0
-196 -203 0
-196 -204 0
-196 -205 0
-197 -198 0
-197 -199 0
-197 -200 0
-197 -201 0
-197 -202 0
-197 -203 0
-197 -204 0
-197 -205 0
-198 -199 0
-198 -200 0
-198 -201 0
-198 -202 0
-198 -203 0
-198 -204 0
-198 -205 0
-199 -200 0
-199 -201 0
-199 -202 0
-199 -203 0
-199 -204 0
-199 -205 0
-200 -201 0
-200 -202 0
-200 -203 0
-200 -204 0
-200 -205 0
-201 -202 0
-201 -203 0
-201 -204 0
-201 -205 0
-202 -203 0
-202 -204 0
-202 -205 0
-203 -204 0
-203 -205 0
-204 -205 0
206 207 208 209 210 211 212 213 214 215 216 0
-206 -207 0
-206 -208 0
-206 -209 0
-206 -210 0
-206 -211 0
-206 -212 0
-206 -213 0
-206 -214 0
-206 -215 0
-206 -216 0
-207 -208 0
-207 -209 0
-207 -210 0
-207 -211 0
-207 -212 0
-207 -213 0
-207 -214 0
-207 -215 0
-207 -216 0
-208 -209 0
-208 -210 0
-208 -211 0
-208 -212 0
-208 -213 0
-208 -214 0
-208 -215 0
-208 -216 0
-209 -210 0
-209 -211 0
-209 -212 0
-209 -213 0
-209 -214 0
-209 -215 0
-209 -216 0
-210 -211 0
-210 -212 0
-210 -213 0
-210 -214 0
-210 -215 0
-210 -216 0
-211 -212 0
-211 -213 0
-211 -214 0
-211 -215 0
-211 -216 0
-212 -213 0
-212 -214 0
-212 -215 0
-212 -216 0
-213 -214 0
-213 -215 0
-213 -216 0
-214 -215 0
-214 -216 0
-215 -216 0
217 218 219 220 221 222 223 224 225 226 227 0
-217 -218 0
-217 -219 0
-217 -220 0
-217 -221 0
-217 -222 0
-217 -223 0
-217 -224 0
-217 -225 0
-217 -226 0
-217 -227 0
-218 -219 0
-218 -220 0
-218 -221 0
-218 -222 0
-218 -223 0
-218 -224 0
-218 -225 0
-218 -226 0
-218 -227 0
-219 -220 0
-219 -221 0
-219 -222 0
-219 -223 0
-219 -224 0
-219 -225 0
-219 -226 0
-219 -227 0
-220 -221 0
-220 -222 0
-220 -223 0
-220 -224 0
-220 -225 0
-220 -226 0
-220 -227 0
-221 -222 0
-221 -223 0
-221 -224 0
-221 -225 0
-221 -226 0
-221 -227 0
-222 -223 0
-222 -224 0
-222 -225 0
-222 -226 0
-222 -227 0
-223 -224 0
-223 -225 0
-223 -226 0
-223 -227 0
-224 -225 0
-224 -226 0
-224 -227 0
-225 -226 0
-225 -227 0
-226 -227 0
228 229 230 231 232 233 234 235 236 237 238 239 0
-228 -229 0
-228 -230 0
-228 -231 0
-228 -232 0
-228 -233 0
-228 -234 0
-228 -235 0
-228 -236 0
-228 -237 0
-228 -238 0
-228 -239 0
-229 -230 0
-229 -231 0
-229 -232 0
-229 -233 0
-229 -234 0
-229 -235 0
-229 -236 0
-229 -237 0
-229 -238 0
-229 -239 0
-230 -231 0
-230 -232 0
-230 -233 0
-230 -234 0
-230 -235 0
-230 -236 0
-230 -237 0
-230 -238 0
-230 -239 0
-231 -232 0
-231 -233 0
-231 -234 0
-231 -235 0
-231 -236 0
-231 -237 0
-231 -238 0
-231 -239 0
-232 -233 0
-232 -234 0
-232 -235 0
-232 -236 0
-232 -237 0
-232 -238 0
-232 -239 0
-233 -234 0
-233 -235 0
-233 -236 0
-233 -237 0
-233 -238 0
-233 -239 0
-234 -235 0
-234 -236 0
-234 -237 0
-234 -238 0
-234 -239 0
-235 -236 0
-235 -237 0
-235 -238 0
-235 -239 0
-236 -237 0
-236 -238 0
-236 -239 0
-237 -238 0
-237 -239 0
-238 -239 0
240 241 242 243 244 245 246 247 248 249 250 251 0
-240 -241 0
-240 -242 0
-240 -243 0
-240 -244 0
-240 -245 0
-240 -246 0
-240 -247 0
-240 -248 0
-240 -249 0
-240 -250 0
-240 -251 0
-241 -242 0
-241 -243 0
-241 -244 0
-241 -245 0
-241 -246 0
-241 -247 0
-241 -248 0
-241 -249 0
-241 -250 0
-241 -251 0
-242 -243 0
-242 -244 0
-242 -245 0
-242 -246 0
-242 -247 0
-242 -248 0
-242 -249 0
-242 -250 0
-242 -251 0
-243 -244 0
-243 -245 0
-243 -246 0
-243 -247 0
-243 -248 0
-243 -249 0
-243 -250 0
-243 -251 0
-244 -245 0
-244 -246 0
-244 -247 0
-244 -248 0
-244 -249 0
-244 -250 0
-244 -251 0
-245 -246 0
-245 -247 0
-245 -248 0
-245 -249 0
-245 -250 0
-245 -251 0
-246 -247 0
-246 -248 0
-246 -249 0
-246 -250 0
-246 -251 0
-247 -248 0
-247 -249 0
-247 -250 0
-247 -251 0
-248 -249 0
-248 -250 0
-248 -251 0
-249 -250 0
-249 -251 0
-250 -251 0
252 253 254 255 256 257 258 259 260 261 262 263 0
-252 -253 0
-252 -254 0
-252 -255 0
-252 -256 0
-252 -257 0
-252 -258 0
-252 -259 0
-252 -260 0
-252 -261 0
-252 -262 0
-252 -263 0
-253 -254 0
-253 -255 0
-253 -256 0
-253 -257 0
-253 -258 0
-253 -259 0
-253 -260 0
-253 -261 0
-253 -262 0
-253 -263 0
-254 -255 0
-254 -256 0
-254 -257 0
-254 -258 0
-254 -259 0
-254 -260 0
-254 -261 0
-254 -262 0
-254 -263 0
-255 -256 0
-255 -257 0
-255 -258 0
-255 -259 0
-255 -260 0
-255 -261 0
-255 -262 0
-255 -263 0
-256 -257 0
-256 -258 0
-256 -259 0
-256 -260 0
-256 -261 0
-256 -262 0
-256 -263 0
-257 -258 0
-257 -259 0
-257 -260 0
-257 -261 0
-257 -262 0
-257 -263 0
-258 -259 0
-258 -260 0
-258 -261 0
-258 -262 0
-258 -263 0
-259 -260 0
-259 -261 0
-259 -262 0
-259 -263 0
-260 -261 0
-260 -262 0
-260 -263 0
-261 -262 0
-261 -263 0
-262 -263 0
264 265 266 267 268 269 270 271 272 273 274 275 0
-264 -265 0
-264 -266 0
-264 -267 0
-264 -268 0
-264 -269 0
-264 -270 0
-264 -271 0
-264 -272 0
-264 -273 0
-264 -274 0
-264 -275 0
-265 -266 0
-265 -267 0
-265 -268 0
-265 -269 0
-265 -270 0
-265 -271 0
-265 -272 0
-265 -273 0
-265 -274 0
-265 -275 0
-266 -267 0
-266 -268 0
-266 -269 0
-266 -270 0
-266 -271 0
-266 -272 0
-266 -273 0
-266 -274 0
-266 -275 0
-267 -268 0
-267 -269 0
-267 -270 0
-267 -271 0
-267 -272 0
-267 -273 0
-267 -274 0
-267 -275 0
-268 -269 0
-268 -270 0
-268 -271 0
-268 -272 0
-268 -273 0
-268 -274 0
-268 -275 0
-269 -270 0
-269 -271 0
-269 -272 0
-269 -273 0
-269 -274 0
-269 -275 0
-270 -271 0
-270 -272 0
-270 -273 0
-270 -274 0
-270 -275 0
-271 -272 0
-271 -273 0
-271 -274 0
-271 -275 0
-272 -273 0
-272 -274 0
-272 -275 0
-273 -274 0
-273 -275 0
-274 -275 0
276 277 278 279 280 281 282 283 284 285 286 0
-276 -277 0
-276 -278 0
-276 -279 0
-276 -280 0
-276 -281 0
-276 -282 0
-276 -283 0
-276 -284 0
-276 -285 0
-276 -286 0
-277 -278 0
-277 -279 0
-277 -280 0
-277 -281 0
-277 -282 0
-277 -283 0
-277 -284 0
-277 -285 0
-277 -286 0
-278 -279 0
-278 -280 0
-278 -281 0
-278 -282 0
-278 -283 0
-278 -284 0
-278 -285 0
-278 -286 0
-279 -280 0
-279 -281 0
-279 -282 0
-279 -283 0
-279 -284 0
-279 -285 0
-279 -286 0
-280 -281 0
-280 -282 0
-280 -283 0
-280 -284 0
-280 -285 0
-280 -286 0
-281 -282 0
-281 -283 0
-281 -284 0
-281 -285 0
-281 -286 0
-282 -283 0
-282 -284 0
-282 -285 0
-282 -286 0
-283 -284 0
-283 -285 0
-283 -286 0
-284 -285 0
-284 -286 0
-285 -286 0
287 288 289 290 291 292 293 294 295 296 297 0
-287 -288 0
-287 -289 0
-287 -290 0
-287 -291 0
-287 -292 0
-287 -293 0
-287 -294 0
-287 -295 0
-287 -296 0
-287 -297 0
-288 -289 0
-288 -290 0
-288 -291 0
-288 -292 0
-288 -293 0
-288 -294 0
-288 -295 0
-288 -296 0
-288 -297 0
-289 -290 0
-289 -291 0
-289 -292 0
-289 -293 0
-289 -294 0
-289 -295 0
-289 -296 0
-289 -297 0
-290 -291 0
-290 -292 0
-290 -293 0
-290 -294 0
-290 -295 0
-290 -296 0
-290 -297 0
-291 -292 0
-291 -293 0
-291 -294 0
-291 -295 0
-291 -296 0
-291 -297 0
-292 -293 0
-292 -294 0
-292 -295 0
-292 -296 0
-292 -297 0
-293 -294 0
-293 -295 0
-293 -296 0
-293 -297 0
-294 -295 0
-294 -296 0
-294 -297 0
-295 -296 0
-295 -297 0
-296 -297 0
298 299 300 301 302 303 304 305 306 307 308 0
-298 -299 0
-298 -300 0
-298 -301 0
-298 -302 0
-298 -303 0
-298 -304 0
-298 -305 0
-298 -306 0
-298 -307 0
-298 -308 0
-299 -300 0
-299 -301 0
-299 -302 0
-299 -303 0
-299 -304 0
-299 -305 0
-299 -306 0
-299 -307 0
-299 -308 0
-300 -301 0
-300 -302 0
-300 -303 0
-300 -304 0
-300 -305 0
-300 -306 0
-300 -307 0
-300 -308 0
-301 -302 0
-301 -303 0
-301 -304 0
-301 -305 0
-301 -306 0
-301 -307 0
-301 -308 0
-302 -303 0
-302 -304 0
-302 -305 0
-302 -306 0
-302 -307 0
-302 -308 0
-303 -304 0
-303 -305 0
-303 -306 0
-303 -307 0
-303 -308 0
-304 -305 0
-304 -306 0
-304 -307 0
-304 -308 0
-305 -306 0
-305 -307 0
-305 -308 0
-306 -307 0
-306 -308 0
-307 -308 0
309 310 311 312 313 314 315 316 317 318 319 320 0
-309 -310 0
-309 -311 0
-309 -312 0
-309 -313 0
-309 -314 0
-309 -315 0
-309 -316 0
-309 -317 0
-309 -318 0
-309 -319 0
-309 -320 0
-310 -311 0
-310 -312 0
-310 -313 0
-310 -314 0
-310 -315 0
-310 -316 0
-310 -317 0
-310 -318 0
-310 -319 0
-310 -320 0
-311 -312 0
-311 -313 0
-311 -314 0
-311 -315 0
-311 -316 0
-311 -317 0
-311 -318 0
-311 -319 0
-311 -320 0
-312 -313 0
-312 -314 0
-312 -315 0
-312 -316 0
-312 -317 0
-312 -318 0
-312 -319 0
-312 -320 0
-313 -314 0
-313 -315 0
-313 -316 0
-313 -317 0
-313 -318 0
-313 -319 0
-313 -320 0
-314 -315 0
-314 -316 0
-314 -317 0
-314 -318 0
-314 -319 0
-314 -320 0
-315 -316 0
-315 -317 0
-315 -318 0
-315 -319 0
-315 -320 0
-316 -317 0
-316 -318 0
-316 -319 0
-316 -320 0
-317 -318 0
-317 -319 0
-317 -320 0
-318 -319 0
-318 -320 0
-319 -320 0
321 322 323 324 325 326 327 328 329 330 331 332 0
-321 -322 0
-321 -323 0
-321 -324 0
-321 -325 0
-321 -326 0
-321 -327 0
-321 -328 0
-321 -329 0
-321 -330 0
-321 -331 0
-321 -332 0
-322 -323 0
-322 -324 0
-322 -325 0
-322 -326 0
-322 -327 0
-322 -328 0
-322 -329 0
-322 -330 0
-322 -331 0
-322 -332 0
-323 -324 0
-323 -325 0
-323 -326 0
-323 -327 0
-323 -328 0
-323 -329 0
-323 -330 0
-323 -331 0
-323 -332 0
-324 -325 0
-324 -326 0
-324 -327 0
-324 -328 0
-324 -329 0
-324 -330 0
-324 -331 0
-324 -332 0
-325 -326 0
-325 -327 0
-325 -328 0
-325 -329 0
-325 -330 0
-325 -331 0
-325 -332 0
-326 -327 0
-326 -328 0
-326 -329 0
-326 -330 0
-326 -331 0
-326 -332 0
-327 -328 0
-327 -329 0
-327 -330 0
-327 -331 0
-327 -332 0
-328 -329 0
-328 -330 0
-328 -331 0
-328 -332 0
-329 -330 0
-329 -331 0
-329 -332 0
-330 -331 0
-330 -332 0
-331 -332 0
333 334 335 336 337 338 339 340 341 342 343 0
-333 -334 0
-333 -335 0
-333 -336 0
-333 -337 0
-333 -338 0
-333 -339 0
-333 -340 0
-333 -341 0
-333 -342 0
-333 -343 0
-334 -335 0
-334 -336 0
-334 -337 0
-334 -338 0
-334 -339 0
-334 -340 0
-334 -341 0
-334 -342 0
-334 -343 0
-335 -336 0
-335 -337 0
-335 -338 0
-335 -339 0
-335 -340 0
-335 -341 0
-335 -342 0
-335 -343 0
-336 -337 0
-336 -338 0
-336 -339 0
-336 -340 0
-336 -341 0
-336 -342 0
-336 -343 0
-337 -338 0
-337 -339 0
-337 -340 0
-337 -341 0
-337 -342 0
-337 -343 0
-338 -339 0
-338 -340 0
-338 -341 0
-338 -342 0
-338 -343 0
-339 -340 0
-339 -341 0
-339 -342 0
-339 -343 0
-340 -341 0
-340 -342 0
-340 -343 0
-341 -342 0
-341 -343 0
-342 -343 0
344 345 346 347 348 349 350 351 352 353 354 0
-344 -345 0
-344 -346 0
-344 -347 0
-344 -348 0
-344 -349 0
-344 -350 0
-344 -351 0
-344 -352 0
-344 -353 0
-344 -354 0
-345 -346 0
-345 -347 0
-345 -348 0
-345 -349 0
-345 -350 0
-345 -351 0
-345 -352 0
-345 -353 0
-345 -354 0
-346 -347 0
-346 -348 0
-346 -349 0
-346 -350 0
-346 -351 0
-346 -352 0
-346 -353 0
-346 -354 0
-347 -348 0
-347 -349 0
-347 -350 0
-347 -351 0
-347 -352 0
-347 -353 0
-347 -354 0
-348 -349 0
-348 -350 0
-348 -351 0
-348 -352 0
-348 -353 0
-348 -354 0
-349 -350 0
-349 -351 0
-349 -352 0
-349 -353 0
-349 -354 0
-350 -351 0
-350 -352 0
-350 -353 0
-350 -354 0
-351 -352 0
-351 -353 0
-351 -354 0
-352 -353 0
-352 -354 0
-353 -354 0
355 356 357 358 359 360 361 362 363 364 365 0
-355 -356 0
-355 -357 0
-355 -358 0
-355 -359 0
-355 -360 0
-355 -361 0
-355 -362 0
-355 -363 0
-355 -364 0
-355 -365 0
-356 -357 0
-356 -358 0
-356 -359 0
-356 -360 0
-356 -361 0
-356 -362 0
-356 -363 0
-356 -364 0
-356 -365 0
-357 -358 0
-357 -359 0
-357 -360 0
-357 -361 0
-357 -362 0
-357 -363 0
-357 -364 0
-357 -365 0
-358 -359 0
-358 -360 0
-358 -361 0
-358 -362 0
-358 -363 0
-358 -364 0
-358 -365 0
-359 -360 0
-359 -361 0
-359 -362 0
-359 -363 0
-359 -364 0
-359 -365 0
-360 -361 0
-360 -362 0
-360 -363 0
-360 -364 0
-360 -365 0
-361 -362 0
-361 -363 0
-361 -364 0
-361 -365 0
-362 -363 0
-362 -364 0
-362 -365 0
-363 -364 0
-363 -365 0
-364 -365 0
366 367 368 369 370 371 372 373 374 375 376 377 378 0
-366 -367 0
-366 -368 0
-366 -369 0
-366 -370 0
-366 -371 0
-366 -372 0
-366 -373 0
-366 -374 0
-366 -375 0
-366 -376 0
-366 -377 0
-366 -378 0
-367 -368 0
-367 -369 0
-367 -370 0
-367 -371 0
-367 -372 0
-367 -373 0
-367 -374 0
-367 -375 0
-367 -376 0
-367 -377 0
-367 -378 0
-368 -369 0
-368 -370 0
-368 -371 0
-368 -372 0
-368 -373 0
-368 -374 0
-368 -375 0
-368 -376 0
-368 -377 0
-368 -378 0
-369 -370 0
-369 -371 0
-369 -372 0
-369 -373 0
-369 -374 0
-369 -375 0
-369 -376 0
-369 -377 0
-369 -378 0
-370 -371 0
-370 -372 0
-370 -373 0
-370 -374 0
-370 -375 0
-370 -376 0
-370 -377 0
-370 -378 0
-371 -372 0
-371 -373 0
-371 -374 0
-371 -375 0
-371 -376 0
-371 -377 0
-371 -378 0
-372 -373 0
-372 -374 0
-372 -375 0
-372 -376 0
-372 -377 0
-372 -378 0
-373 -374 0
-373 -375 0
-373 -376 0
-373 -377 0
-373 -378 0
-374 -375 0
-374 -376 0
-374 -377 0
-374 -378 0
-375 -376 0
-375 -377 0
-375 -378 0
-376 -377 0
-376 -378 0
-377 -378 0
379 380 381 382 383 384 385 386 387 388 389 0
-379 -380 0
-379 -381 0
-379 -382 0
-379 -383 0
-379 -384 0
-379 -385 0
-379 -386 0
-379 -387 0
-379 -388 0
-379 -389 0
-380 -381 0
-380 -382 0
-380 -383 0
-380 -384 0
-380 -385 0
-380 -386 0
-380 -387 0
-380 -388 0
-380 -389 0
-381 -382 0
-381 -383 0
-381 -384 0
-381 -385 0
-381 -386 0
-381 -387 0
-381 -388 0
-381 -389 0
-382 -383 0
-382 -384 0
-382 -385 0
-382 -386 0
-382 -387 0
-382 -388 0
-382 -389 0
-383 -384 0
-383 -385 0
-383 -386 0
-383 -387 0
-383 -388 0
-383 -389 0
-384 -385 0
-384 -386 0
-384 -387 0
-384 -388 0
-384 -389 0
-385 -386 0
-385 -387 0
-385 -388 0
-385 -389 0
-386 -387 0
-386 -388 0
-386 -389 0
-387 -388 0
-387 -389 0
-388 -389 0
390 391 392 393 394 395 396 397 398 399 400 401 0
-390 -391 0
-390 -392 0
-390 -393 0
-390 -394 0
-390 -395 0
-390 -396 0
-390 -397 0
-390 -398 0
-390 -399 0
-390 -400 0
-390 -401 0
-391 -392 0
-391 -393 0
-391 -394 0
-391 -395 0
-391 -396 0
-391 -397 0
-391 -398 0
-391 -399 0
-391 -400 0
-391 -401 0
-392 -393 0
-392 -394 0
-392 -395 0
-392 -396 0
-392 -397 0
-392 -398 0
-392 -399 0
-392 -400 0
-392 -401 0
-393 -394 0
-393 -395 0
-393 -396 0
-393 -397 0
-393 -398 0
-393 -399 0
-393 -400 0
-393 -401 0
-394 -395 0
-394 -396 0
-394 -397 0
-394 -398 0
-394 -399 0
-394 -400 0
-394 -401 0
-395 -396 0
-395 -397 0
-395 -398 0
-395 -399 0
-395 -400 0
-395 -401 0
-396 -397 0
-396 -398 0
-396 -399 0
-396 -400 0
-396 -401 0
-397 -398 0
-397 -399 0
-397 -400 0
-397 -401 0
-398 -399 0
-398 -400 0
-398 -401 0
-399 -400 0
-399 -401 0
-400 -401 0
402 403 404 405 406 407 408 409 410 411 412 0
-402 -403 0
-402 -404 0
-402 -405 0
-402 -406 0
-402 -407 0
-402 -408 0
-402 -409 0
-402 -410 0
-402 -411 0
-402 -412 0
-403 -404 0
-403 -405 0
-403 -406 0
-403 -407 0
-403 -408 0
-403 -409 0
-403 -410 0
-403 -411 0
-403 -412 0
-404 -405 0
-404 -406 0
-404 -407 0
-404 -408 0
-404 -409 0
-404 -410 0
-404 -411 0
-404 -412 0
-405 -406 0
-405 -407 0
-405 -408 0
-405 -409 0
-405 -410 0
-405 -411 0
-405 -412 0
-406 -407 0
-406 -408 0
-406 -409 0
-406 -410 0
-406 -411 0
-406 -412 0
-407 -408 0
-407 -409 0
-407 -410 0
-407 -411 0
-407 -412 0
-408 -409 0
-408 -410 0
-408 -411 0
-408 -412 0
-409 -410 0
-409 -411 0
-409 -412 0
-410 -411 0
-410 -412 0
-411 -412 0
413 414 415 416 417 418 419 420 421 422 423 0
-413 -414 0
-413 -415 0
-413 -416 0
-413 -417 0
-413 -418 0
-413 -419 0
-413 -420 0
-413 -421 0
-413 -422 0
-413 -423 0
-414 -415 0
-414 -416 0
-414 -417 0
-414 -418 0
-414 -419 0
-414 -420 0
-414 -421 0
-414 -422 0
-414 -423 0
-415 -416 0
-415 -417 0
-415 -418 0
-415 -419 0
-415 -420 0
-415 -421 0
-415 -422 0
-415 -423 0
-416 -417 0
-416 -418 0
-416 -419 0
-416 -420 0
-416 -421 0
-416 -422 0
-416 -423 0
-417 -418 0
-417 -419 0
-417 -420 0
-417 -421 0
-417 -422 0
-417 -423 0
-418 -419 0
-418 -420 0
-418 -421 0
-418 -422 0
-418 -423 0
-419 -420 0
-419 -421 0
-419 -422 0
-419 -423 0
-420 -421 0
-420 -422 0
-420 -423 0
-421 -422 0
-421 -423 0
-422 -423 0
424 425 426 427 428 429 430 431 432 433 434 0
-424 -425 0
-424 -426 0
-424 -427 0
-424 -428 0
-424 -429 0
-424 -430 0
-424 -431 0
-424 -432 0
-424 -433 0
-424 -434 0
-425 -426 0
-425 -427 0
-425 -428 0
-425 -429 0
-425 -430 0
-425 -431 0
-425 -432 0
-425 -433 0
-425 -434 0
-426 -427 0
-426 -428 0
-426 -429 0
-426 -430 0
-426 -431 0
-426 -432 0
-426 -433 0
-426 -434 0
-427 -428 0
-427 -429 0
-427 -430 0
-427 -431 0
-427 -432 0
-427 -433 0
-427 -434 0
-428 -429 0
-428 -430 0
-428 -431 0
-428 -432 0
-428 -433 0
-428 -434 0
-429 -430 0
-429 -431 0
-429 -432 0
-429 -433 0
-429 -434 0
-430 -431 0
-430 -432 0
-430 -433 0
-430 -434 0
-431 -432 0
-431 -433 0
-431 -434 0
-432 -433 0
-432 -434 0
-433 -434 0
435 436 437 438 439 440 441 442 443 444 445 0
-435 -436 0
-435 -437 0
-435 -438 0
-435 -439 0
-435 -440 0
-435 -441 0
-435 -442 0
-435 -443 0
-435 -444 0
-435 -445 0
-436 -437 0
-436 -438 0
-436 -439 0
-436 -440 0
-436 -441 0
-436 -442 0
-436 -443 0
-436 -444 0
-436 -445 0
-437 -438 0
-437 -439 0
-437 -440 0
-437 -441 0
-437 -442 0
-437 -443 0
-437 -444 0
-437 -445 0
-438 -439 0
-438 -440 0
-438 -441 0
-438 -442 0
-438 -443 0
-438 -444 0
-438 -445 0
-439 -440 0
-439 -441 0
-439 -442 0
-439 -443 0
-439 -444 0
-439 -445 0
-440 -441 0
-440 -442 0
-440 -443 0
-440 -444 0
-440 -445 0
-441 -442 0
-441 -443 0
-441 -444 0
-441 -445 0
-442 -443 0
-442 -444 0
-442 -445 0
-443 -444 0
-443 -445 0
-444 -445 0
446 447 448 449 450 451 452 453 454 455 456 0
-446 -447 0
-446 -448 0
-446 -449 0
-446 -450 0
-446 -451 0
-446 -452 0
-446 -453 0
-446 -454 0
-446 -455 0
-446 -456 0
-447 -448 0
-447 -449 0
-447 -450 0
-447 -451 0
-447 -452 0
-447 -453 0
-447 -454 0
-447 -455 0
-447 -456 0
-448 -449 0
-448 -450 0
-448 -451 0
-448 -452 0
-448 -453 0
-448 -454 0
-448 -455 0
-448 -456 0
-449 -450 0
-449 -451 0
-449 -452 0
-449 -453 0
-449 -454 0
-449 -455 0
-449 -456 0
-450 -451 0
-450 -452 0
-450 -453 0
-450 -454 0
-450 -455 0
-450 -456 0
-451 -452 0
-451 -453 0
-451 -454 0
-451 -455 0
-451 -456 0
-452 -453 0
-452 -454 0
-452 -455 0
-452 -456 0
-453 -454 0
-453 -455 0
-453 -456 0
-454 -455 0
-454 -456 0
-455 -456 0
1 12 13 26 37 60 73 84 95 107 118 129 140 0
-1 -12 0
-1 -13 0
-1 -26 0
-1 -37 0
-1 -60 0
-1 -73 0
-1 -84 0
-1 -95 0
-1 -107 0
-1 -118 0
-1 -129 0
-1 -140 0
-12 -13 0
-12 -26 0
-12 -37 0
-12 -60 0
-12 -73 0
-12 -84 0
-12 -95 0
-12 -107 0
-12 -118 0
-12 -129 0
-12 -140 0
-13 -26 0
-13 -37 0
-13 -60 0
-13 -73 0
-13 -84 0
-13 -95 0
-13 -107 0
-13 -118 0
-13 -129 0
-13 -140 0
-26 -37 0
-26 -60 0
-26 -73 0
-26 -84 0
-26 -95 0
-26 -107 0
-26 -118 0
-26 -129 0
-26 -140 0
-37 -60 0
-37 -73 0
-37 -84 0
-37 -95 0
-37 -107 0
-37 -118 0
-37 -129 0
-37 -140 0
-60 -73 0
-60 -84 0
-60 -95 0
-60 -107 0
-60 -118 0
-60 -129 0
-60 -140 0
-73 -84 0
-73 -95 0
-73 -107 0
-73 -118 0
-73 -129 0
-73 -140 0
-84 -95 0
-84 -107 0
-84 -118 0
-84 -129 0
-84 -140 0
-95 -107 0
-95 -118 0
-95 -129 0
-95 -140 0
-107 -118 0
-107 -129 0
-107 -140 0
-118 -129 0
-118 -140 0
-129 -140 0
1 25 152 162 171 173 184 206 228 240 252 264 276 0
-1 -25 0
-1 -152 0
-1 -162 0
-1 -171 0
-1 -173 0
-1 -184 0
-1 -206 0
-1 -228 0
-1 -240 0
-1 -252 0
-1 -264 0
-1 -276 0
-25 -152 0
-25 -162 0
-25 -171 0
-25 -173 0
-25 -184 0
-25 -206 0
-25 -228 0
-25 -240 0
-25 -252 0
-25 -264 0
-25 -276 0
-152 -162 0
-152 -171 0
-152 -173 0
-152 -184 0
-152 -206 0
-152 -228 0
-152 -240 0
-152 -252 0
-152 -264 0
-152 -276 0
-162 -171 0
-162 -173 0
-162 -184 0
-162 -206 0
-162 -228 0
-162 -240 0
-162 -252 0
-162 -264 0
-162 -276 0
-171 -173 0
-171 -184 0
-171 -206 0
-171 -228 0
-171 -240 0
-171 -252 0
-171 -264 0
-171 -276 0
-173 -184 0
-173 -206 0
-173 -228 0
-173 -240 0
-173 -252 0
-173 -264 0
-173 -276 0
-184 -206 0
-184 -228 0
-184 -240 0
-184 -252 0
-184 -264 0
-184 -276 0
-206 -228 0
-206 -240 0
-206 -252 0
-206 -264 0
-206 -276 0
-228 -240 0
-228 -252 0
-228 -264 0
-228 -276 0
-240 -252 0
-240 -264 0
-240 -276 0
-252 -264 0
-252 -276 0
-264 -276 0
13 36 142 152 182 278 287 297 309 321 344 355 366 0
-13 -36 0
-13 -142 0
-13 -152 0
-13 -182 0
-13 -278 0
-13 -287 0
-13 -297 0
-13 -309 0
-13 -321 0
-13 -344 0
-13 -355 0
-13 -366 0
-36 -142 0
-36 -152 0
-36 -182 0
-36 -278 0
-36 -287 0
-36 -297 0
-36 -309 0
-36 -321 0
-36 -344 0
-36 -355 0
-36 -366 0
-142 -152 0
-142 -182 0
-142 -278 0
-142 -287 0
-142 -297 0
-142 -309 0
-142 -321 0
-142 -344 0
-142 -355 0
-142 -366 0
-152 -182 0
-152 -278 0
-152 -287 0
-152 -297 0
-152 -309 0
-152 -321 0
-152 -344 0
-152 -355 0
-152 -366 0
-182 -278 0
-182 -287 0
-182 -297 0
-182 -309 0
-182 -321 0
-182 -344 0
-182 -355 0
-182 -366 0
-278 -287 0
-278 -297 0
-278 -309 0
-278 -321 0
-278 -344 0
-278 -355 0
-278 -366 0
-287 -297 0
-287 -309 0
-287 -321 0
-287 -344 0
-287 -355 0
-287 -366 0
-297 -309 0
-297 -321 0
-297 -344 0
-297 -355 0
-297 -366 0
-309 -321 0
-309 -344 0
-309 -355 0
-309 -366 0
-321 -344 0
-321 -355 0
-321 -366 0
-344 -355 0
-344 -366 0
-355 -366 0
26 48 133 142 162 194 267 307 370 387 390 413 424 0
-26 -48 0
-26 -133 0
-26 -142 0
-26 -162 0
-26 -194 0
-26 -267 0
-26 -307 0
-26 -370 0
-26 -387 0
-26 -390 0
-26 -413 0
-26 -424 0
-48 -133 0
-48 -142 0
-48 -162 0
-48 -194 0
-48 -267 0
-48 -307 0
-48 -370 0
-48 -387 0
-48 -390 0
-48 -413 0
-48 -424 0
-133 -142 0
-133 -162 0
-133 -194 0
-133 -267 0
-133 -307 0
-133 -370 0
-133 -387 0
-133 -390 0
-133 -413 0
-133 -424 0
-142 -162 0
-142 -194 0
-142 -267 0
-142 -307 0
-142 -370 0
-142 -387 0
-142 -390 0
-142 -413 0
-142 -424 0
-162 -194 0
-162 -267 0
-162 -307 0
-162 -370 0
-162 -387 0
-162 -390 0
-162 -413 0
-162 -424 0
-194 -267 0
-194 -307 0
-194 -370 0
-194 -387 0
-194 -390 0
-194 -413 0
-194 -424 0
-267 -307 0
-267 -370 0
-267 -387 0
-267 -390 0
-267 -413 0
-267 -424 0
-307 -370 0
-307 -387 0
-307 -390 0
-307 -413 0
-307 -424 0
-370 -387 0
-370 -390 0
-370 -413 0
-370 -424 0
-387 -390 0
-387 -413 0
-387 -424 0
-390 -413 0
-390 -424 0
-413 -424 0
37 122 133 173 205 257 278 320 360 425 435 443 446 0
-37 -122 0
-37 -133 0
-37 -173 0
-37 -205 0
-37 -257 0
-37 -278 0
-37 -320 0
-37 -360 0
-37 -425 0
-37 -435 0
-37 -443 0
-37 -446 0
-122 -133 0
-122 -173 0
-122 -205 0
-122 -257 0
-122 -278 0
-122 -320 0
-122 -360 0
-122 -425 0
-122 -435 0
-122 -443 0
-122 -446 0
-133 -173 0
-133 -205 0
-133 -257 0
-133 -278 0
-133 -320 0
-133 -360 0
-133 -425 0
-133 -435 0
-133 -443 0
-133 -446 0
-173 -205 0
-173 -257 0
-173 -278 0
-173 -320 0
-173 -360 0
-173 -425 0
-173 -435 0
-173 -443 0
-173 -446 0
-205 -257 0
-205 -278 0
-205 -320 0
-205 -360 0
-205 -425 0
-205 -435 0
-205 -443 0
-205 -446 0
-257 -278 0
-257 -320 0
-257 -360 0
-257 -425 0
-257 -435 0
-257 -443 0
-257 -446 0
-278 -320 0
-278 -360 0
-278 -425 0
-278 -435 0
-278 -443 0
-278 -446 0
-320 -360 0
-320 -425 0
-320 -435 0
-320 -443 0
-320 -446 0
-360 -425 0
-360 -435 0
-360 -443 0
-360 -446 0
-425 -435 0
-425 -443 0
-425 -446 0
-435 -443 0
-435 -446 0
-443 -446 0
72 112 122 184 215 245 267 287 347 409 416 449 453 0
-72 -112 0
-72 -122 0
-72 -184 0
-72 -215 0
-72 -245 0
-72 -267 0
-72 -287 0
-72 -347 0
-72 -409 0
-72 -416 0
-72 -449 0
-72 -453 0
-112 -122 0
-112 -184 0
-112 -215 0
-112 -245 0
-112 -267 0
-112 -287 0
-112 -347 0
-112 -409 0
-112 -416 0
-112 -449 0
-112 -453 0
-122 -184 0
-122 -215 0
-122 -245 0
-122 -267 0
-122 -287 0
-122 -347 0
-122 -409 0
-122 -416 0
-122 -449 0
-122 -453 0
-184 -215 0
-184 -245 0
-184 -267 0
-184 -287 0
-184 -347 0
-184 -409 0
-184 -416 0
-184 -449 0
-184 -453 0
-215 -245 0
-215 -267 0
-215 -287 0
-215 -347 0
-215 -409 0
-215 -416 0
-215 -449 0
-215 -453 0
-245 -267 0
-245 -287 0
-245 -347 0
-245 -409 0
-245 -416 0
-245 -449 0
-245 -453 0
-267 -287 0
-267 -347 0
-267 -409 0
-267 -416 0
-267 -449 0
-267 -453 0
-287 -347 0
-287 -409 0
-287 -416 0
-287 -449 0
-287 -453 0
-347 -409 0
-347 -416 0
-347 -449 0
-347 -453 0
-409 -416 0
-409 -449 0
-409 -453 0
-416 -449 0
-416 -453 0
-449 -453 0
60 83 102 112 226 233 257 339 343 370 406 422 440 0
-60 -83 0
-60 -102 0
-60 -112 0
-60 -226 0
-60 -233 0
-60 -257 0
-60 -339 0
-60 -343 0
-60 -370 0
-60 -406 0
-60 -422 0
-60 -440 0
-83 -102 0
-83 -112 0
-83 -226 0
-83 -233 0
-83 -257 0
-83 -339 0
-83 -343 0
-83 -370 0
-83 -406 0
-83 -422 0
-83 -440 0
-102 -112 0
-102 -226 0
-102 -233 0
-102 -257 0
-102 -339 0
-102 -343 0
-102 -370 0
-102 -406 0
-102 -422 0
-102 -440 0
-112 -226 0
-112 -233 0
-112 -257 0
-112 -339 0
-112 -343 0
-112 -370 0
-112 -406 0
-112 -422 0
-112 -440 0
-226 -233 0
-226 -257 0
-226 -339 0
-226 -343 0
-226 -370 0
-226 -406 0
-226 -422 0
-226 -440 0
-233 -257 0
-233 -339 0
-233 -343 0
-233 -370 0
-233 -406 0
-233 -422 0
-233 -440 0
-257 -339 0
-257 -343 0
-257 -370 0
-257 -406 0
-257 -422 0
-257 -440 0
-339 -343 0
-339 -370 0
-339 -406 0
-339 -422 0
-339 -440 0
-343 -370 0
-343 -406 0
-343 -422 0
-343 -440 0
-370 -406 0
-370 -422 0
-370 -440 0
-406 -422 0
-406 -440 0
-422 -440 0
73 90 94 102 206 223 238 245 309 353 360 396 431 0
-73 -90 0
-73 -94 0
-73 -102 0
-73 -206 0
-73 -223 0
-73 -238 0
-73 -245 0
-73 -309 0
-73 -353 0
-73 -360 0
-73 -396 0
-73 -431 0
-90 -94 0
-90 -102 0
-90 -206 0
-90 -223 0
-90 -238 0
-90 -245 0
-90 -309 0
-90 -353 0
-90 -360 0
-90 -396 0
-90 -431 0
-94 -102 0
-94 -206 0
-94 -223 0
-94 -238 0
-94 -245 0
-94 -309 0
-94 -353 0
-94 -360 0
-94 -396 0
-94 -431 0
-102 -206 0
-102 -223 0
-102 -238 0
-102 -245 0
-102 -309 0
-102 -353 0
-102 -360 0
-102 -396 0
-102 -431 0
-206 -223 0
-206 -238 0
-206 -245 0
-206 -309 0
-206 -353 0
-206 -360 0
-206 -396 0
-206 -431 0
-223 -238 0
-223 -245 0
-223 -309 0
-223 -353 0
-223 -360 0
-223 -396 0
-223 -431 0
-238 -245 0
-238 -309 0
-238 -353 0
-238 -360 0
-238 -396 0
-238 -431 0
-245 -309 0
-245 -353 0
-245 -360 0
-245 -396 0
-245 -431 0
-309 -353 0
-309 -360 0
-309 -396 0
-309 -431 0
-353 -360 0
-353 -396 0
-353 -431 0
-360 -396 0
-360 -431 0
-396 -431 0
78 84 90 106 233 250 315 321 347 364 383 390 425 0
-78 -84 0
-78 -90 0
-78 -106 0
-78 -233 0
-78 -250 0
-78 -315 0
-78 -321 0
-78 -347 0
-78 -364 0
-78 -383 0
-78 -390 0
-78 -425 0
-84 -90 0
-84 -106 0
-84 -233 0
-84 -250 0
-84 -315 0
-84 -321 0
-84 -347 0
-84 -364 0
-84 -383 0
-84 -390 0
-84 -425 0
-90 -106 0
-90 -233 0
-90 -250 0
-90 -315 0
-90 -321 0
-90 -347 0
-90 -364 0
-90 -383 0
-90 -390 0
-90 -425 0
-106 -233 0
-106 -250 0
-106 -315 0
-106 -321 0
-106 -347 0
-106 -364 0
-106 -383 0
-106 -390 0
-106 -425 0
-233 -250 0
-233 -315 0
-233 -321 0
-233 -347 0
-233 -364 0
-233 -383 0
-233 -390 0
-233 -425 0
-250 -315 0
-250 -321 0
-250 -347 0
-250 -364 0
-250 -383 0
-250 -390 0
-250 -425 0
-315 -321 0
-315 -347 0
-315 -364 0
-315 -383 0
-315 -390 0
-315 -425 0
-321 -347 0
-321 -364 0
-321 -383 0
-321 -390 0
-321 -425 0
-347 -364 0
-347 -383 0
-347 -390 0
-347 -425 0
-364 -383 0
-364 -390 0
-364 -425 0
-383 -390 0
-383 -425 0
-390 -425 0
68 78 95 117 201 223 228 262 303 339 377 416 435 0
-68 -78 0
-68 -95 0
-68 -117 0
-68 -201 0
-68 -223 0
-68 -228 0
-68 -262 0
-68 -303 0
-68 -339 0
-68 -377 0
-68 -416 0
-68 -435 0
-78 -95 0
-78 -117 0
-78 -201 0
-78 -223 0
-78 -228 0
-78 -262 0
-78 -303 0
-78 -339 0
-78 -377 0
-78 -416 0
-78 -435 0
-95 -117 0
-95 -201 0
-95 -223 0
-95 -228 0
-95 -262 0
-95 -303 0
-95 -339 0
-95 -377 0
-95 -416 0
-95 -435 0
-117 -201 0
-117 -223 0
-117 -228 0
-117 -262 0
-117 -303 0
-117 -339 0
-117 -377 0
-117 -416 0
-117 -435 0
-201 -223 0
-201 -228 0
-201 -262 0
-201 -303 0
-201 -339 0
-201 -377 0
-201 -416 0
-201 -435 0
-223 -228 0
-223 -262 0
-223 -303 0
-223 -339 0
-223 -377 0
-223 -416 0
-223 -435 0
-228 -262 0
-228 -303 0
-228 -339 0
-228 -377 0
-228 -416 0
-228 -435 0
-262 -303 0
-262 -339 0
-262 -377 0
-262 -416 0
-262 -435 0
-303 -339 0
-303 -377 0
-303 -416 0
-303 -435 0
-339 -377 0
-339 -416 0
-339 -435 0
-377 -416 0
-377 -435 0
-416 -435 0
57 68 107 128 191 240 274 295 344 406 413 446 449 0
-57 -68 0
-57 -107 0
-57 -128 0
-57 -191 0
-57 -240 0
-57 -274 0
-57 -295 0
-57 -344 0
-57 -406 0
-57 -413 0
-57 -446 0
-57 -449 0
-68 -107 0
-68 -128 0
-68 -191 0
-68 -240 0
-68 -274 0
-68 -295 0
-68 -344 0
-68 -406 0
-68 -413 0
-68 -446 0
-68 -449 0
-107 -128 0
-107 -191 0
-107 -240 0
-107 -274 0
-107 -295 0
-107 -344 0
-107 -406 0
-107 -413 0
-107 -446 0
-107 -449 0
-128 -191 0
-128 -240 0
-128 -274 0
-128 -295 0
-128 -344 0
-128 -406 0
-128 -413 0
-128 -446 0
-128 -449 0
-191 -240 0
-191 -274 0
-191 -295 0
-191 -344 0
-191 -406 0
-191 -413 0
-191 -446 0
-191 -449 0
-240 -274 0
-240 -295 0
-240 -344 0
-240 -406 0
-240 -413 0
-240 -446 0
-240 -449 0
-274 -295 0
-274 -344 0
-274 -406 0
-274 -413 0
-274 -446 0
-274 -449 0
-295 -344 0
-295 -406 0
-295 -413 0
-295 -446 0
-295 -449 0
-344 -406 0
-344 -413 0
-344 -446 0
-344 -449 0
-406 -413 0
-406 -446 0
-406 -449 0
-413 -446 0
-413 -449 0
-446 -449 0
57 118 139 201 252 285 315 355 396 424 440 443 453 0
-57 -118 0
-57 -139 0
-57 -201 0
-57 -252 0
-57 -285 0
-57 -315 0
-57 -355 0
-57 -396 0
-57 -424 0
-57 -440 0
-57 -443 0
-57 -453 0
-118 -139 0
-118 -201 0
-118 -252 0
-118 -285 0
-118 -315 0
-118 -355 0
-118 -396 0
-118 -424 0
-118 -440 0
-118 -443 0
-118 -453 0
-139 -201 0
-139 -252 0
-139 -285 0
-139 -315 0
-139 -355 0
-139 -396 0
-139 -424 0
-139 -440 0
-139 -443 0
-139 -453 0
-201 -252 0
-201 -285 0
-201 -315 0
-201 -355 0
-201 -396 0
-201 -424 0
-201 -440 0
-201 -443 0
-201 -453 0
-252 -285 0
-252 -315 0
-252 -355 0
-252 -396 0
-252 -424 0
-252 -440 0
-252 -443 0
-252 -453 0
-285 -315 0
-285 -355 0
-285 -396 0
-285 -424 0
-285 -440 0
-285 -443 0
-285 -453 0
-315 -355 0
-315 -396 0
-315 -424 0
-315 -440 0
-315 -443 0
-315 -453 0
-355 -396 0
-355 -424 0
-355 -440 0
-355 -443 0
-355 -453 0
-396 -424 0
-396 -440 0
-396 -443 0
-396 -453 0
-424 -440 0
-424 -443 0
-424 -453 0
-440 -443 0
-440 -453 0
-443 -453 0
35 129 150 169 191 264 303 366 383 387 409 422 431 0
-35 -129 0
-35 -150 0
-35 -169 0
-35 -191 0
-35 -264 0
-35 -303 0
-35 -366 0
-35 -383 0
-35 -387 0
-35 -409 0
-35 -422 0
-35 -431 0
-129 -150 0
-129 -169 0
-129 -191 0
-129 -264 0
-129 -303 0
-129 -366 0
-129 -383 0
-129 -387 0
-129 -409 0
-129 -422 0
-129 -431 0
-150 -169 0
-150 -191 0
-150 -264 0
-150 -303 0
-150 -366 0
-150 -383 0
-150 -387 0
-150 -409 0
-150 -422 0
-150 -431 0
-169 -191 0
-169 -264 0
-169 -303 0
-169 -366 0
-169 -383 0
-169 -387 0
-169 -409 0
-169 -422 0
-169 -431 0
-191 -264 0
-191 -303 0
-191 -366 0
-191 -383 0
-191 -387 0
-191 -409 0
-191 -422 0
-191 -431 0
-264 -303 0
-264 -366 0
-264 -383 0
-264 -387 0
-264 -409 0
-264 -422 0
-264 -431 0
-303 -366 0
-303 -383 0
-303 -387 0
-303 -409 0
-303 -422 0
-303 -431 0
-366 -383 0
-366 -387 0
-366 -409 0
-366 -422 0
-366 -431 0
-383 -387 0
-383 -409 0
-383 -422 0
-383 -431 0
-387 -409 0
-387 -422 0
-387 -431 0
-409 -422 0
-409 -431 0
-422 -431 0
24 35 140 161 276 295 297 307 320 343 353 364 377 0
-24 -35 0
-24 -140 0
-24 -161 0
-24 -276 0
-24 -295 0
-24 -297 0
-24 -307 0
-24 -320 0
-24 -343 0
-24 -353 0
-24 -364 0
-24 -377 0
-35 -140 0
-35 -161 0
-35 -276 0
-35 -295 0
-35 -297 0
-35 -307 0
-35 -320 0
-35 -343 0
-35 -353 0
-35 -364 0
-35 -377 0
-140 -161 0
-140 -276 0
-140 -295 0
-140 -297 0
-140 -307 0
-140 -320 0
-140 -343 0
-140 -353 0
-140 -364 0
-140 -377 0
-161 -276 0
-161 -295 0
-161 -297 0
-161 -307 0
-161 -320 0
-161 -343 0
-161 -353 0
-161 -364 0
-161 -377 0
-276 -295 0
-276 -297 0
-276 -307 0
-276 -320 0
-276 -343 0
-276 -353 0
-276 -364 0
-276 -377 0
-295 -297 0
-295 -307 0
-295 -320 0
-295 -343 0
-295 -353 0
-295 -364 0
-295 -377 0
-297 -307 0
-297 -320 0
-297 -343 0
-297 -353 0
-297 -364 0
-297 -377 0
-307 -320 0
-307 -343 0
-307 -353 0
-307 -364 0
-307 -377 0
-320 -343 0
-320 -353 0
-320 -364 0
-320 -377 0
-343 -353 0
-343 -364 0
-343 -377 0
-353 -364 0
-353 -377 0
-364 -377 0
24 169 171 182 194 205 215 226 238 250 262 274 285 0
-24 -169 0
-24 -171 0
-24 -182 0
-24 -194 0
-24 -205 0
-24 -215 0
-24 -226 0
-24 -238 0
-24 -250 0
-24 -262 0
-24 -274 0
-24 -285 0
-169 -171 0
-169 -182 0
-169 -194 0
-169 -205 0
-169 -215 0
-169 -226 0
-169 -238 0
-169 -250 0
-169 -262 0
-169 -274 0
-169 -285 0
-171 -182 0
-171 -194 0
-171 -205 0
-171 -215 0
-171 -226 0
-171 -238 0
-171 -250 0
-171 -262 0
-171 -274 0
-171 -285 0
-182 -194 0
-182 -205 0
-182 -215 0
-182 -226 0
-182 -238 0
-182 -250 0
-182 -262 0
-182 -274 0
-182 -285 0
-194 -205 0
-194 -215 0
-194 -226 0
-194 -238 0
-194 -250 0
-194 -262 0
-194 -274 0
-194 -285 0
-205 -215 0
-205 -226 0
-205 -238 0
-205 -250 0
-205 -262 0
-205 -274 0
-205 -285 0
-215 -226 0
-215 -238 0
-215 -250 0
-215 -262 0
-215 -274 0
-215 -285 0
-226 -238 0
-226 -250 0
-226 -262 0
-226 -274 0
-226 -285 0
-238 -250 0
-238 -262 0
-238 -274 0
-238 -285 0
-250 -262 0
-250 -274 0
-250 -285 0
-262 -274 0
-262 -285 0
-274 -285 0
12 25 36 48 72 83 94 106 117 128 139 150 161 0
-12 -25 0
-12 -36 0
-12 -48 0
-12 -72 0
-12 -83 0
-12 -94 0
-12 -106 0
-12 -117 0
-12 -128 0
-12 -139 0
-12 -150 0
-12 -161 0
-25 -36 0
-25 -48 0
-25 -72 0
-25 -83 0
-25 -94 0
-25 -106 0
-25 -117 0
-25 -128 0
-25 -139 0
-25 -150 0
-25 -161 0
-36 -48 0
-36 -72 0
-36 -83 0
-36 -94 0
-36 -106 0
-36 -117 0
-36 -128 0
-36 -139 0
-36 -150 0
-36 -161 0
-48 -72 0
-48 -83 0
-48 -94 0
-48 -106 0
-48 -117 0
-48 -128 0
-48 -139 0
-48 -150 0
-48 -161 0
-72 -83 0
-72 -94 0
-72 -106 0
-72 -117 0
-72 -128 0
-72 -139 0
-72 -150 0
-72 -161 0
-83 -94 0
-83 -106 0
-83 -117 0
-83 -128 0
-83 -139 0
-83 -150 0
-83 -161 0
-94 -106 0
-94 -117 0
-94 -128 0
-94 -139 0
-94 -150 0
-94 -161 0
-106 -117 0
-106 -128 0
-106 -139 0
-106 -150 0
-106 -161 0
-117 -128 0
-117 -139 0
-117 -150 0
-117 -161 0
-128 -139 0
-128 -150 0
-128 -161 0
-139 -150 0
-139 -161 0
-150 -161 0
1 2 14 27 61 85 96 108 119 130 151 0
-1 -2 0
-1 -14 0
-1 -27 0
-1 -61 0
-1 -85 0
-1 -96 0
-1 -108 0
-1 -119 0
-1 -130 0
-1 -151 0
-2 -14 0
-2 -27 0
-2 -61 0
-2 -85 0
-2 -96 0
-2 -108 0
-2 -119 0
-2 -130 0
-2 -151 0
-14 -27 0
-14 -61 0
-14 -85 0
-14 -96 0
-14 -108 0
-14 -119 0
-14 -130 0
-14 -151 0
-27 -61 0
-27 -85 0
-27 -96 0
-27 -108 0
-27 -119 0
-27 -130 0
-27 -151 0
-61 -85 0
-61 -96 0
-61 -108 0
-61 -119 0
-61 -130 0
-61 -151 0
-85 -96 0
-85 -108 0
-85 -119 0
-85 -130 0
-85 -151 0
-96 -108 0
-96 -119 0
-96 -130 0
-96 -151 0
-108 -119 0
-108 -130 0
-108 -151 0
-119 -130 0
-119 -151 0
-130 -151 0
2 13 153 163 172 195 207 229 241 253 265 0
-2 -13 0
-2 -153 0
-2 -163 0
-2 -172 0
-2 -195 0
-2 -207 0
-2 -229 0
-2 -241 0
-2 -253 0
-2 -265 0
-13 -153 0
-13 -163 0
-13 -172 0
-13 -195 0
-13 -207 0
-13 -229 0
-13 -241 0
-13 -253 0
-13 -265 0
-153 -163 0
-153 -172 0
-153 -195 0
-153 -207 0
-153 -229 0
-153 -241 0
-153 -253 0
-153 -265 0
-163 -172 0
-163 -195 0
-163 -207 0
-163 -229 0
-163 -241 0
-163 -253 0
-163 -265 0
-172 -195 0
-172 -207 0
-172 -229 0
-172 -241 0
-172 -253 0
-172 -265 0
-195 -207 0
-195 -229 0
-195 -241 0
-195 -253 0
-195 -265 0
-207 -229 0
-207 -241 0
-207 -253 0
-207 -265 0
-229 -241 0
-229 -253 0
-229 -265 0
-241 -253 0
-241 -265 0
-253 -265 0
14 26 143 153 183 288 310 333 345 356 367 0
-14 -26 0
-14 -143 0
-14 -153 0
-14 -183 0
-14 -288 0
-14 -310 0
-14 -333 0
-14 -345 0
-14 -356 0
-14 -367 0
-26 -143 0
-26 -153 0
-26 -183 0
-26 -288 0
-26 -310 0
-26 -333 0
-26 -345 0
-26 -356 0
-26 -367 0
-143 -153 0
-143 -183 0
-143 -288 0
-143 -310 0
-143 -333 0
-143 -345 0
-143 -356 0
-143 -367 0
-153 -183 0
-153 -288 0
-153 -310 0
-153 -333 0
-153 -345 0
-153 -356 0
-153 -367 0
-183 -288 0
-183 -310 0
-183 -333 0
-183 -345 0
-183 -356 0
-183 -367 0
-288 -310 0
-288 -333 0
-288 -345 0
-288 -356 0
-288 -367 0
-310 -333 0
-310 -345 0
-310 -356 0
-310 -367 0
-333 -345 0
-333 -356 0
-333 -367 0
-345 -356 0
-345 -367 0
-356 -367 0
27 37 143 163 268 371 379 388 391 402 414 0
-27 -37 0
-27 -143 0
-27 -163 0
-27 -268 0
-27 -371 0
-27 -379 0
-27 -388 0
-27 -391 0
-27 -402 0
-27 -414 0
-37 -143 0
-37 -163 0
-37 -268 0
-37 -371 0
-37 -379 0
-37 -388 0
-37 -391 0
-37 -402 0
-37 -414 0
-143 -163 0
-143 -268 0
-143 -371 0
-143 -379 0
-143 -388 0
-143 -391 0
-143 -402 0
-143 -414 0
-163 -268 0
-163 -371 0
-163 -379 0
-163 -388 0
-163 -391 0
-163 -402 0
-163 -414 0
-268 -371 0
-268 -379 0
-268 -388 0
-268 -391 0
-268 -402 0
-268 -414 0
-371 -379 0
-371 -388 0
-371 -391 0
-371 -402 0
-371 -414 0
-379 -388 0
-379 -391 0
-379 -402 0
-379 -414 0
-388 -391 0
-388 -402 0
-388 -414 0
-391 -402 0
-391 -414 0
-402 -414 0
60 113 216 246 268 288 348 410 417 450 454 0
-60 -113 0
-60 -216 0
-60 -246 0
-60 -268 0
-60 -288 0
-60 -348 0
-60 -410 0
-60 -417 0
-60 -450 0
-60 -454 0
-113 -216 0
-113 -246 0
-113 -268 0
-113 -288 0
-113 -348 0
-113 -410 0
-113 -417 0
-113 -450 0
-113 -454 0
-216 -246 0
-216 -268 0
-216 -288 0
-216 -348 0
-216 -410 0
-216 -417 0
-216 -450 0
-216 -454 0
-246 -268 0
-246 -288 0
-246 -348 0
-246 -410 0
-246 -417 0
-246 -450 0
-246 -454 0
-268 -288 0
-268 -348 0
-268 -410 0
-268 -417 0
-268 -450 0
-268 -454 0
-288 -348 0
-288 -410 0
-288 -417 0
-288 -450 0
-288 -454 0
-348 -410 0
-348 -417 0
-348 -450 0
-348 -454 0
-410 -417 0
-410 -450 0
-410 -454 0
-417 -450 0
-417 -454 0
-450 -454 0
61 73 103 113 195 227 234 371 407 423 441 0
-61 -73 0
-61 -103 0
-61 -113 0
-61 -195 0
-61 -227 0
-61 -234 0
-61 -371 0
-61 -407 0
-61 -423 0
-61 -441 0
-73 -103 0
-73 -113 0
-73 -195 0
-73 -227 0
-73 -234 0
-73 -371 0
-73 -407 0
-73 -423 0
-73 -441 0
-103 -113 0
-103 -195 0
-103 -227 0
-103 -234 0
-103 -371 0
-103 -407 0
-103 -423 0
-103 -441 0
-113 -195 0
-113 -227 0
-113 -234 0
-113 -371 0
-113 -407 0
-113 -423 0
-113 -441 0
-195 -227 0
-195 -234 0
-195 -371 0
-195 -407 0
-195 -423 0
-195 -441 0
-227 -234 0
-227 -371 0
-227 -407 0
-227 -423 0
-227 -441 0
-234 -371 0
-234 -407 0
-234 -423 0
-234 -441 0
-371 -407 0
-371 -423 0
-371 -441 0
-407 -423 0
-407 -441 0
-423 -441 0
84 91 103 207 239 246 310 328 379 397 432 0
-84 -91 0
-84 -103 0
-84 -207 0
-84 -239 0
-84 -246 0
-84 -310 0
-84 -328 0
-84 -379 0
-84 -397 0
-84 -432 0
-91 -103 0
-91 -207 0
-91 -239 0
-91 -246 0
-91 -310 0
-91 -328 0
-91 -379 0
-91 -397 0
-91 -432 0
-103 -207 0
-103 -239 0
-103 -246 0
-103 -310 0
-103 -328 0
-103 -379 0
-103 -397 0
-103 -432 0
-207 -239 0
-207 -246 0
-207 -310 0
-207 -328 0
-207 -379 0
-207 -397 0
-207 -432 0
-239 -246 0
-239 -310 0
-239 -328 0
-239 -379 0
-239 -397 0
-239 -432 0
-246 -310 0
-246 -328 0
-246 -379 0
-246 -397 0
-246 -432 0
-310 -328 0
-310 -379 0
-310 -397 0
-310 -432 0
-328 -379 0
-328 -397 0
-328 -432 0
-379 -397 0
-379 -432 0
-397 -432 0
79 85 91 95 212 234 251 316 348 384 391 0
-79 -85 0
-79 -91 0
-79 -95 0
-79 -212 0
-79 -234 0
-79 -251 0
-79 -316 0
-79 -348 0
-79 -384 0
-79 -391 0
-85 -91 0
-85 -95 0
-85 -212 0
-85 -234 0
-85 -251 0
-85 -316 0
-85 -348 0
-85 -384 0
-85 -391 0
-91 -95 0
-91 -212 0
-91 -234 0
-91 -251 0
-91 -316 0
-91 -348 0
-91 -384 0
-91 -391 0
-95 -212 0
-95 -234 0
-95 -251 0
-95 -316 0
-95 -348 0
-95 -384 0
-95 -391 0
-212 -234 0
-212 -251 0
-212 -316 0
-212 -348 0
-212 -384 0
-212 -391 0
-234 -251 0
-234 -316 0
-234 -348 0
-234 -384 0
-234 -391 0
-251 -316 0
-251 -348 0
-251 -384 0
-251 -391 0
-316 -348 0
-316 -384 0
-316 -391 0
-348 -384 0
-348 -391 0
-384 -391 0
69 79 96 107 202 229 263 304 333 402 417 0
-69 -79 0
-69 -96 0
-69 -107 0
-69 -202 0
-69 -229 0
-69 -263 0
-69 -304 0
-69 -333 0
-69 -402 0
-69 -417 0
-79 -96 0
-79 -107 0
-79 -202 0
-79 -229 0
-79 -263 0
-79 -304 0
-79 -333 0
-79 -402 0
-79 -417 0
-96 -107 0
-96 -202 0
-96 -229 0
-96 -263 0
-96 -304 0
-96 -333 0
-96 -402 0
-96 -417 0
-107 -202 0
-107 -229 0
-107 -263 0
-107 -304 0
-107 -333 0
-107 -402 0
-107 -417 0
-202 -229 0
-202 -263 0
-202 -304 0
-202 -333 0
-202 -402 0
-202 -417 0
-229 -263 0
-229 -304 0
-229 -333 0
-229 -402 0
-229 -417 0
-263 -304 0
-263 -333 0
-263 -402 0
-263 -417 0
-304 -333 0
-304 -402 0
-304 -417 0
-333 -402 0
-333 -417 0
-402 -417 0
69 108 118 212 241 275 328 345 407 414 450 0
-69 -108 0
-69 -118 0
-69 -212 0
-69 -241 0
-69 -275 0
-69 -328 0
-69 -345 0
-69 -407 0
-69 -414 0
-69 -450 0
-108 -118 0
-108 -212 0
-108 -241 0
-108 -275 0
-108 -328 0
-108 -345 0
-108 -407 0
-108 -414 0
-108 -450 0
-118 -212 0
-118 -241 0
-118 -275 0
-118 -328 0
-118 -345 0
-118 -407 0
-118 -414 0
-118 -450 0
-212 -241 0
-212 -275 0
-212 -328 0
-212 -345 0
-212 -407 0
-212 -414 0
-212 -450 0
-241 -275 0
-241 -328 0
-241 -345 0
-241 -407 0
-241 -414 0
-241 -450 0
-275 -328 0
-275 -345 0
-275 -407 0
-275 -414 0
-275 -450 0
-328 -345 0
-328 -407 0
-328 -414 0
-328 -450 0
-345 -407 0
-345 -414 0
-345 -450 0
-407 -414 0
-407 -450 0
-414 -450 0
46 119 129 202 253 286 316 356 397 441 454 0
-46 -119 0
-46 -129 0
-46 -202 0
-46 -253 0
-46 -286 0
-46 -316 0
-46 -356 0
-46 -397 0
-46 -441 0
-46 -454 0
-119 -129 0
-119 -202 0
-119 -253 0
-119 -286 0
-119 -316 0
-119 -356 0
-119 -397 0
-119 -441 0
-119 -454 0
-129 -202 0
-129 -253 0
-129 -286 0
-129 -316 0
-129 -356 0
-129 -397 0
-129 -441 0
-129 -454 0
-202 -253 0
-202 -286 0
-202 -316 0
-202 -356 0
-202 -397 0
-202 -441 0
-202 -454 0
-253 -286 0
-253 -316 0
-253 -356 0
-253 -397 0
-253 -441 0
-253 -454 0
-286 -316 0
-286 -356 0
-286 -397 0
-286 -441 0
-286 -454 0
-316 -356 0
-316 -397 0
-316 -441 0
-316 -454 0
-356 -397 0
-356 -441 0
-356 -454 0
-397 -441 0
-397 -454 0
-441 -454 0
46 130 140 170 265 304 367 384 388 410 423 432 0
-46 -130 0
-46 -140 0
-46 -170 0
-46 -265 0
-46 -304 0
-46 -367 0
-46 -384 0
-46 -388 0
-46 -410 0
-46 -423 0
-46 -432 0
-130 -140 0
-130 -170 0
-130 -265 0
-130 -304 0
-130 -367 0
-130 -384 0
-130 -388 0
-130 -410 0
-130 -423 0
-130 -432 0
-140 -170 0
-140 -265 0
-140 -304 0
-140 -367 0
-140 -384 0
-140 -388 0
-140 -410 0
-140 -423 0
-140 -432 0
-170 -265 0
-170 -304 0
-170 -367 0
-170 -384 0
-170 -388 0
-170 -410 0
-170 -423 0
-170 -432 0
-265 -304 0
-265 -367 0
-265 -384 0
-265 -388 0
-265 -410 0
-265 -423 0
-265 -432 0
-304 -367 0
-304 -384 0
-304 -388 0
-304 -410 0
-304 -423 0
-304 -432 0
-367 -384 0
-367 -388 0
-367 -410 0
-367 -423 0
-367 -432 0
-384 -388 0
-384 -410 0
-384 -423 0
-384 -432 0
-388 -410 0
-388 -423 0
-388 -432 0
-410 -423 0
-410 -432 0
-423 -432 0
12 151 170 172 183 216 227 239 251 263 275 286 0
-12 -151 0
-12 -170 0
-12 -172 0
-12 -183 0
-12 -216 0
-12 -227 0
-12 -239 0
-12 -251 0
-12 -263 0
-12 -275 0
-12 -286 0
-151 -170 0
-151 -172 0
-151 -183 0
-151 -216 0
-151 -227 0
-151 -239 0
-151 -251 0
-151 -263 0
-151 -275 0
-151 -286 0
-170 -172 0
-170 -183 0
-170 -216 0
-170 -227 0
-170 -239 0
-170 -251 0
-170 -263 0
-170 -275 0
-170 -286 0
-172 -183 0
-172 -216 0
-172 -227 0
-172 -239 0
-172 -251 0
-172 -263 0
-172 -275 0
-172 -286 0
-183 -216 0
-183 -227 0
-183 -239 0
-183 -251 0
-183 -263 0
-183 -275 0
-183 -286 0
-216 -227 0
-216 -239 0
-216 -251 0
-216 -263 0
-216 -275 0
-216 -286 0
-227 -239 0
-227 -251 0
-227 -263 0
-227 -275 0
-227 -286 0
-239 -251 0
-239 -263 0
-239 -275 0
-239 -286 0
-251 -263 0
-251 -275 0
-251 -286 0
-263 -275 0
-263 -286 0
-275 -286 0
2 3 15 28 49 86 97 109 120 131 141 152 0
-2 -3 0
-2 -15 0
-2 -28 0
-2 -49 0
-2 -86 0
-2 -97 0
-2 -109 0
-2 -120 0
-2 -131 0
-2 -141 0
-2 -152 0
-3 -15 0
-3 -28 0
-3 -49 0
-3 -86 0
-3 -97 0
-3 -109 0
-3 -120 0
-3 -131 0
-3 -141 0
-3 -152 0
-15 -28 0
-15 -49 0
-15 -86 0
-15 -97 0
-15 -109 0
-15 -120 0
-15 -131 0
-15 -141 0
-15 -152 0
-28 -49 0
-28 -86 0
-28 -97 0
-28 -109 0
-28 -120 0
-28 -131 0
-28 -141 0
-28 -152 0
-49 -86 0
-49 -97 0
-49 -109 0
-49 -120 0
-49 -131 0
-49 -141 0
-49 -152 0
-86 -97 0
-86 -109 0
-86 -120 0
-86 -131 0
-86 -141 0
-86 -152 0
-97 -109 0
-97 -120 0
-97 -131 0
-97 -141 0
-97 -152 0
-109 -120 0
-109 -131 0
-109 -141 0
-109 -152 0
-120 -131 0
-120 -141 0
-120 -152 0
-131 -141 0
-131 -152 0
-141 -152 0
3 14 154 162 164 217 230 242 254 266 277 0
-3 -14 0
-3 -154 0
-3 -162 0
-3 -164 0
-3 -217 0
-3 -230 0
-3 -242 0
-3 -254 0
-3 -266 0
-3 -277 0
-14 -154 0
-14 -162 0
-14 -164 0
-14 -217 0
-14 -230 0
-14 -242 0
-14 -254 0
-14 -266 0
-14 -277 0
-154 -162 0
-154 -164 0
-154 -217 0
-154 -230 0
-154 -242 0
-154 -254 0
-154 -266 0
-154 -277 0
-162 -164 0
-162 -217 0
-162 -230 0
-162 -242 0
-162 -254 0
-162 -266 0
-162 -277 0
-164 -217 0
-164 -230 0
-164 -242 0
-164 -254 0
-164 -266 0
-164 -277 0
-217 -230 0
-217 -242 0
-217 -254 0
-217 -266 0
-217 -277 0
-230 -242 0
-230 -254 0
-230 -266 0
-230 -277 0
-242 -254 0
-242 -266 0
-242 -277 0
-254 -266 0
-254 -277 0
-266 -277 0
15 27 144 154 173 289 311 322 334 357 368 0
-15 -27 0
-15 -144 0
-15 -154 0
-15 -173 0
-15 -289 0
-15 -311 0
-15 -322 0
-15 -334 0
-15 -357 0
-15 -368 0
-27 -144 0
-27 -154 0
-27 -173 0
-27 -289 0
-27 -311 0
-27 -322 0
-27 -334 0
-27 -357 0
-27 -368 0
-144 -154 0
-144 -173 0
-144 -289 0
-144 -311 0
-144 -322 0
-144 -334 0
-144 -357 0
-144 -368 0
-154 -173 0
-154 -289 0
-154 -311 0
-154 -322 0
-154 -334 0
-154 -357 0
-154 -368 0
-173 -289 0
-173 -311 0
-173 -322 0
-173 -334 0
-173 -357 0
-173 -368 0
-289 -311 0
-289 -322 0
-289 -334 0
-289 -357 0
-289 -368 0
-311 -322 0
-311 -334 0
-311 -357 0
-311 -368 0
-322 -334 0
-322 -357 0
-322 -368 0
-334 -357 0
-334 -368 0
-357 -368 0
28 144 164 184 269 308 380 389 392 403 415 0
-28 -144 0
-28 -164 0
-28 -184 0
-28 -269 0
-28 -308 0
-28 -380 0
-28 -389 0
-28 -392 0
-28 -403 0
-28 -415 0
-144 -164 0
-144 -184 0
-144 -269 0
-144 -308 0
-144 -380 0
-144 -389 0
-144 -392 0
-144 -403 0
-144 -415 0
-164 -184 0
-164 -269 0
-164 -308 0
-164 -380 0
-164 -389 0
-164 -392 0
-164 -403 0
-164 -415 0
-184 -269 0
-184 -308 0
-184 -380 0
-184 -389 0
-184 -392 0
-184 -403 0
-184 -415 0
-269 -308 0
-269 -380 0
-269 -389 0
-269 -392 0
-269 -403 0
-269 -415 0
-308 -380 0
-308 -389 0
-308 -392 0
-308 -403 0
-308 -415 0
-380 -389 0
-380 -392 0
-380 -403 0
-380 -415 0
-389 -392 0
-389 -403 0
-389 -415 0
-392 -403 0
-392 -415 0
-403 -415 0
49 61 206 247 269 289 332 411 418 451 455 0
-49 -61 0
-49 -206 0
-49 -247 0
-49 -269 0
-49 -289 0
-49 -332 0
-49 -411 0
-49 -418 0
-49 -451 0
-49 -455 0
-61 -206 0
-61 -247 0
-61 -269 0
-61 -289 0
-61 -332 0
-61 -411 0
-61 -418 0
-61 -451 0
-61 -455 0
-206 -247 0
-206 -269 0
-206 -289 0
-206 -332 0
-206 -411 0
-206 -418 0
-206 -451 0
-206 -455 0
-247 -269 0
-247 -289 0
-247 -332 0
-247 -411 0
-247 -418 0
-247 -451 0
-247 -455 0
-269 -289 0
-269 -332 0
-269 -411 0
-269 -418 0
-269 -451 0
-269 -455 0
-289 -332 0
-289 -411 0
-289 -418 0
-289 -451 0
-289 -455 0
-332 -411 0
-332 -418 0
-332 -451 0
-332 -455 0
-411 -418 0
-411 -451 0
-411 -455 0
-418 -451 0
-418 -455 0
-451 -455 0
85 92 224 228 247 311 329 354 380 398 433 0
-85 -92 0
-85 -224 0
-85 -228 0
-85 -247 0
-85 -311 0
-85 -329 0
-85 -354 0
-85 -380 0
-85 -398 0
-85 -433 0
-92 -224 0
-92 -228 0
-92 -247 0
-92 -311 0
-92 -329 0
-92 -354 0
-92 -380 0
-92 -398 0
-92 -433 0
-224 -228 0
-224 -247 0
-224 -311 0
-224 -329 0
-224 -354 0
-224 -380 0
-224 -398 0
-224 -433 0
-228 -247 0
-228 -311 0
-228 -329 0
-228 -354 0
-228 -380 0
-228 -398 0
-228 -433 0
-247 -311 0
-247 -329 0
-247 -354 0
-247 -380 0
-247 -398 0
-247 -433 0
-311 -329 0
-311 -354 0
-311 -380 0
-311 -398 0
-311 -433 0
-329 -354 0
-329 -380 0
-329 -398 0
-329 -433 0
-354 -380 0
-354 -398 0
-354 -433 0
-380 -398 0
-380 -433 0
-398 -433 0
80 86 92 96 213 217 240 317 322 365 385 392 0
-80 -86 0
-80 -92 0
-80 -96 0
-80 -213 0
-80 -217 0
-80 -240 0
-80 -317 0
-80 -322 0
-80 -365 0
-80 -385 0
-80 -392 0
-86 -92 0
-86 -96 0
-86 -213 0
-86 -217 0
-86 -240 0
-86 -317 0
-86 -322 0
-86 -365 0
-86 -385 0
-86 -392 0
-92 -96 0
-92 -213 0
-92 -217 0
-92 -240 0
-92 -317 0
-92 -322 0
-92 -365 0
-92 -385 0
-92 -392 0
-96 -213 0
-96 -217 0
-96 -240 0
-96 -317 0
-96 -322 0
-96 -365 0
-96 -385 0
-96 -392 0
-213 -217 0
-213 -240 0
-213 -317 0
-213 -322 0
-213 -365 0
-213 -385 0
-213 -392 0
-217 -240 0
-217 -317 0
-217 -322 0
-217 -365 0
-217 -385 0
-217 -392 0
-240 -317 0
-240 -322 0
-240 -365 0
-240 -385 0
-240 -392 0
-317 -322 0
-317 -365 0
-317 -385 0
-317 -392 0
-322 -365 0
-322 -385 0
-322 -392 0
-365 -385 0
-365 -392 0
-385 -392 0
80 97 108 224 230 252 305 334 378 403 418 0
-80 -97 0
-80 -108 0
-80 -224 0
-80 -230 0
-80 -252 0
-80 -305 0
-80 -334 0
-80 -378 0
-80 -403 0
-80 -418 0
-97 -108 0
-97 -224 0
-97 -230 0
-97 -252 0
-97 -305 0
-97 -334 0
-97 -378 0
-97 -403 0
-97 -418 0
-108 -224 0
-108 -230 0
-108 -252 0
-108 -305 0
-108 -334 0
-108 -378 0
-108 -403 0
-108 -418 0
-224 -230 0
-224 -252 0
-224 -305 0
-224 -334 0
-224 -378 0
-224 -403 0
-224 -418 0
-230 -252 0
-230 -305 0
-230 -334 0
-230 -378 0
-230 -403 0
-230 -418 0
-252 -305 0
-252 -334 0
-252 -378 0
-252 -403 0
-252 -418 0
-305 -334 0
-305 -378 0
-305 -403 0
-305 -418 0
-334 -378 0
-334 -403 0
-334 -418 0
-378 -403 0
-378 -418 0
-403 -418 0
58 109 119 192 213 242 264 296 329 415 451 0
-58 -109 0
-58 -119 0
-58 -192 0
-58 -213 0
-58 -242 0
-58 -264 0
-58 -296 0
-58 -329 0
-58 -415 0
-58 -451 0
-109 -119 0
-109 -192 0
-109 -213 0
-109 -242 0
-109 -264 0
-109 -296 0
-109 -329 0
-109 -415 0
-109 -451 0
-119 -192 0
-119 -213 0
-119 -242 0
-119 -264 0
-119 -296 0
-119 -329 0
-119 -415 0
-119 -451 0
-192 -213 0
-192 -242 0
-192 -264 0
-192 -296 0
-192 -329 0
-192 -415 0
-192 -451 0
-213 -242 0
-213 -264 0
-213 -296 0
-213 -329 0
-213 -415 0
-213 -451 0
-242 -264 0
-242 -296 0
-242 -329 0
-242 -415 0
-242 -451 0
-264 -296 0
-264 -329 0
-264 -415 0
-264 -451 0
-296 -329 0
-296 -415 0
-296 -451 0
-329 -415 0
-329 -451 0
-415 -451 0
47 58 120 130 181 254 276 317 357 398 455 0
-47 -58 0
-47 -120 0
-47 -130 0
-47 -181 0
-47 -254 0
-47 -276 0
-47 -317 0
-47 -357 0
-47 -398 0
-47 -455 0
-58 -120 0
-58 -130 0
-58 -181 0
-58 -254 0
-58 -276 0
-58 -317 0
-58 -357 0
-58 -398 0
-58 -455 0
-120 -130 0
-120 -181 0
-120 -254 0
-120 -276 0
-120 -317 0
-120 -357 0
-120 -398 0
-120 -455 0
-130 -181 0
-130 -254 0
-130 -276 0
-130 -317 0
-130 -357 0
-130 -398 0
-130 -455 0
-181 -254 0
-181 -276 0
-181 -317 0
-181 -357 0
-181 -398 0
-181 -455 0
-254 -276 0
-254 -317 0
-254 -357 0
-254 -398 0
-254 -455 0
-276 -317 0
-276 -357 0
-276 -398 0
-276 -455 0
-317 -357 0
-317 -398 0
-317 -455 0
-357 -398 0
-357 -455 0
-398 -455 0
47 131 171 192 266 305 368 385 389 411 433 0
-47 -131 0
-47 -171 0
-47 -192 0
-47 -266 0
-47 -305 0
-47 -368 0
-47 -385 0
-47 -389 0
-47 -411 0
-47 -433 0
-131 -171 0
-131 -192 0
-131 -266 0
-131 -305 0
-131 -368 0
-131 -385 0
-131 -389 0
-131 -411 0
-131 -433 0
-171 -192 0
-171 -266 0
-171 -305 0
-171 -368 0
-171 -385 0
-171 -389 0
-171 -411 0
-171 -433 0
-192 -266 0
-192 -305 0
-192 -368 0
-192 -385 0
-192 -389 0
-192 -411 0
-192 -433 0
-266 -305 0
-266 -368 0
-266 -385 0
-266 -389 0
-266 -411 0
-266 -433 0
-305 -368 0
-305 -385 0
-305 -389 0
-305 -411 0
-305 -433 0
-368 -385 0
-368 -389 0
-368 -411 0
-368 -433 0
-385 -389 0
-385 -411 0
-385 -433 0
-389 -411 0
-389 -433 0
-411 -433 0
25 141 151 181 277 296 308 332 354 365 378 0
-25 -141 0
-25 -151 0
-25 -181 0
-25 -277 0
-25 -296 0
-25 -308 0
-25 -332 0
-25 -354 0
-25 -365 0
-25 -378 0
-141 -151 0
-141 -181 0
-141 -277 0
-141 -296 0
-141 -308 0
-141 -332 0
-141 -354 0
-141 -365 0
-141 -378 0
-151 -181 0
-151 -277 0
-151 -296 0
-151 -308 0
-151 -332 0
-151 -354 0
-151 -365 0
-151 -378 0
-181 -277 0
-181 -296 0
-181 -308 0
-181 -332 0
-181 -354 0
-181 -365 0
-181 -378 0
-277 -296 0
-277 -308 0
-277 -332 0
-277 -354 0
-277 -365 0
-277 -378 0
-296 -308 0
-296 -332 0
-296 -354 0
-296 -365 0
-296 -378 0
-308 -332 0
-308 -354 0
-308 -365 0
-308 -378 0
-332 -354 0
-332 -365 0
-332 -378 0
-354 -365 0
-354 -378 0
-365 -378 0
3 4 16 50 74 87 98 110 121 132 142 153 0
-3 -4 0
-3 -16 0
-3 -50 0
-3 -74 0
-3 -87 0
-3 -98 0
-3 -110 0
-3 -121 0
-3 -132 0
-3 -142 0
-3 -153 0
-4 -16 0
-4 -50 0
-4 -74 0
-4 -87 0
-4 -98 0
-4 -110 0
-4 -121 0
-4 -132 0
-4 -142 0
-4 -153 0
-16 -50 0
-16 -74 0
-16 -87 0
-16 -98 0
-16 -110 0
-16 -121 0
-16 -132 0
-16 -142 0
-16 -153 0
-50 -74 0
-50 -87 0
-50 -98 0
-50 -110 0
-50 -121 0
-50 -132 0
-50 -142 0
-50 -153 0
-74 -87 0
-74 -98 0
-74 -110 0
-74 -121 0
-74 -132 0
-74 -142 0
-74 -153 0
-87 -98 0
-87 -110 0
-87 -121 0
-87 -132 0
-87 -142 0
-87 -153 0
-98 -110 0
-98 -121 0
-98 -132 0
-98 -142 0
-98 -153 0
-110 -121 0
-110 -132 0
-110 -142 0
-110 -153 0
-121 -132 0
-121 -142 0
-121 -153 0
-132 -142 0
-132 -153 0
-142 -153 0
4 15 155 163 174 185 208 218 243 255 278 0
-4 -15 0
-4 -155 0
-4 -163 0
-4 -174 0
-4 -185 0
-4 -208 0
-4 -218 0
-4 -243 0
-4 -255 0
-4 -278 0
-15 -155 0
-15 -163 0
-15 -174 0
-15 -185 0
-15 -208 0
-15 -218 0
-15 -243 0
-15 -255 0
-15 -278 0
-155 -163 0
-155 -174 0
-155 -185 0
-155 -208 0
-155 -218 0
-155 -243 0
-155 -255 0
-155 -278 0
-163 -174 0
-163 -185 0
-163 -208 0
-163 -218 0
-163 -243 0
-163 -255 0
-163 -278 0
-174 -185 0
-174 -208 0
-174 -218 0
-174 -243 0
-174 -255 0
-174 -278 0
-185 -208 0
-185 -218 0
-185 -243 0
-185 -255 0
-185 -278 0
-208 -218 0
-208 -243 0
-208 -255 0
-208 -278 0
-218 -243 0
-218 -255 0
-218 -278 0
-243 -255 0
-243 -278 0
-255 -278 0
16 28 155 279 287 290 312 323 335 358 369 0
-16 -28 0
-16 -155 0
-16 -279 0
-16 -287 0
-16 -290 0
-16 -312 0
-16 -323 0
-16 -335 0
-16 -358 0
-16 -369 0
-28 -155 0
-28 -279 0
-28 -287 0
-28 -290 0
-28 -312 0
-28 -323 0
-28 -335 0
-28 -358 0
-28 -369 0
-155 -279 0
-155 -287 0
-155 -290 0
-155 -312 0
-155 -323 0
-155 -335 0
-155 -358 0
-155 -369 0
-279 -287 0
-279 -290 0
-279 -312 0
-279 -323 0
-279 -335 0
-279 -358 0
-279 -369 0
-287 -290 0
-287 -312 0
-287 -323 0
-287 -335 0
-287 -358 0
-287 -369 0
-290 -312 0
-290 -323 0
-290 -335 0
-290 -358 0
-290 -369 0
-312 -323 0
-312 -335 0
-312 -358 0
-312 -369 0
-323 -335 0
-323 -358 0
-323 -369 0
-335 -358 0
-335 -369 0
-358 -369 0
49 123 174 195 279 309 401 426 436 444 447 0
-49 -123 0
-49 -174 0
-49 -195 0
-49 -279 0
-49 -309 0
-49 -401 0
-49 -426 0
-49 -436 0
-49 -444 0
-49 -447 0
-123 -174 0
-123 -195 0
-123 -279 0
-123 -309 0
-123 -401 0
-123 -426 0
-123 -436 0
-123 -444 0
-123 -447 0
-174 -195 0
-174 -279 0
-174 -309 0
-174 -401 0
-174 -426 0
-174 -436 0
-174 -444 0
-174 -447 0
-195 -279 0
-195 -309 0
-195 -401 0
-195 -426 0
-195 -436 0
-195 -444 0
-195 -447 0
-279 -309 0
-279 -401 0
-279 -426 0
-279 -436 0
-279 -444 0
-279 -447 0
-309 -401 0
-309 -426 0
-309 -436 0
-309 -444 0
-309 -447 0
-401 -426 0
-401 -436 0
-401 -444 0
-401 -447 0
-426 -436 0
-426 -444 0
-426 -447 0
-436 -444 0
-436 -447 0
-444 -447 0
50 123 185 207 290 321 349 412 419 452 456 0
-50 -123 0
-50 -185 0
-50 -207 0
-50 -290 0
-50 -321 0
-50 -349 0
-50 -412 0
-50 -419 0
-50 -452 0
-50 -456 0
-123 -185 0
-123 -207 0
-123 -290 0
-123 -321 0
-123 -349 0
-123 -412 0
-123 -419 0
-123 -452 0
-123 -456 0
-185 -207 0
-185 -290 0
-185 -321 0
-185 -349 0
-185 -412 0
-185 -419 0
-185 -452 0
-185 -456 0
-207 -290 0
-207 -321 0
-207 -349 0
-207 -412 0
-207 -419 0
-207 -452 0
-207 -456 0
-290 -321 0
-290 -349 0
-290 -412 0
-290 -419 0
-290 -452 0
-290 -456 0
-321 -349 0
-321 -412 0
-321 -419 0
-321 -452 0
-321 -456 0
-349 -412 0
-349 -419 0
-349 -452 0
-349 -456 0
-412 -419 0
-412 -452 0
-412 -456 0
-419 -452 0
-419 -456 0
-452 -456 0
74 86 93 208 225 229 312 330 344 399 434 0
-74 -86 0
-74 -93 0
-74 -208 0
-74 -225 0
-74 -229 0
-74 -312 0
-74 -330 0
-74 -344 0
-74 -399 0
-74 -434 0
-86 -93 0
-86 -208 0
-86 -225 0
-86 -229 0
-86 -312 0
-86 -330 0
-86 -344 0
-86 -399 0
-86 -434 0
-93 -208 0
-93 -225 0
-93 -229 0
-93 -312 0
-93 -330 0
-93 -344 0
-93 -399 0
-93 -434 0
-208 -225 0
-208 -229 0
-208 -312 0
-208 -330 0
-208 -344 0
-208 -399 0
-208 -434 0
-225 -229 0
-225 -312 0
-225 -330 0
-225 -344 0
-225 -399 0
-225 -434 0
-229 -312 0
-229 -330 0
-229 -344 0
-229 -399 0
-229 -434 0
-312 -330 0
-312 -344 0
-312 -399 0
-312 -434 0
-330 -344 0
-330 -399 0
-330 -434 0
-344 -399 0
-344 -434 0
-399 -434 0
87 93 97 218 241 318 323 349 355 386 426 0
-87 -93 0
-87 -97 0
-87 -218 0
-87 -241 0
-87 -318 0
-87 -323 0
-87 -349 0
-87 -355 0
-87 -386 0
-87 -426 0
-93 -97 0
-93 -218 0
-93 -241 0
-93 -318 0
-93 -323 0
-93 -349 0
-93 -355 0
-93 -386 0
-93 -426 0
-97 -218 0
-97 -241 0
-97 -318 0
-97 -323 0
-97 -349 0
-97 -355 0
-97 -386 0
-97 -426 0
-218 -241 0
-218 -318 0
-218 -323 0
-218 -349 0
-218 -355 0
-218 -386 0
-218 -426 0
-241 -318 0
-241 -323 0
-241 -349 0
-241 -355 0
-241 -386 0
-241 -426 0
-318 -323 0
-318 -349 0
-318 -355 0
-318 -386 0
-318 -426 0
-323 -349 0
-323 -355 0
-323 -386 0
-323 -426 0
-349 -355 0
-349 -386 0
-349 -426 0
-355 -386 0
-355 -426 0
-386 -426 0
70 98 109 203 225 253 306 335 366 419 436 0
-70 -98 0
-70 -109 0
-70 -203 0
-70 -225 0
-70 -253 0
-70 -306 0
-70 -335 0
-70 -366 0
-70 -419 0
-70 -436 0
-98 -109 0
-98 -203 0
-98 -225 0
-98 -253 0
-98 -306 0
-98 -335 0
-98 -366 0
-98 -419 0
-98 -436 0
-109 -203 0
-109 -225 0
-109 -253 0
-109 -306 0
-109 -335 0
-109 -366 0
-109 -419 0
-109 -436 0
-203 -225 0
-203 -253 0
-203 -306 0
-203 -335 0
-203 -366 0
-203 -419 0
-203 -436 0
-225 -253 0
-225 -306 0
-225 -335 0
-225 -366 0
-225 -419 0
-225 -436 0
-253 -306 0
-253 -335 0
-253 -366 0
-253 -419 0
-253 -436 0
-306 -335 0
-306 -366 0
-306 -419 0
-306 -436 0
-335 -366 0
-335 -419 0
-335 -436 0
-366 -419 0
-366 -436 0
-419 -436 0
59 70 110 120 193 243 265 297 330 447 452 0
-59 -70 0
-59 -110 0
-59 -120 0
-59 -193 0
-59 -243 0
-59 -265 0
-59 -297 0
-59 -330 0
-59 -447 0
-59 -452 0
-70 -110 0
-70 -120 0
-70 -193 0
-70 -243 0
-70 -265 0
-70 -297 0
-70 -330 0
-70 -447 0
-70 -452 0
-110 -120 0
-110 -193 0
-110 -243 0
-110 -265 0
-110 -297 0
-110 -330 0
-110 -447 0
-110 -452 0
-120 -193 0
-120 -243 0
-120 -265 0
-120 -297 0
-120 -330 0
-120 -447 0
-120 -452 0
-193 -243 0
-193 -265 0
-193 -297 0
-193 -330 0
-193 -447 0
-193 -452 0
-243 -265 0
-243 -297 0
-243 -330 0
-243 -447 0
-243 -452 0
-265 -297 0
-265 -330 0
-265 -447 0
-265 -452 0
-297 -330 0
-297 -447 0
-297 -452 0
-330 -447 0
-330 -452 0
-447 -452 0
59 121 131 182 203 255 318 358 399 444 456 0
-59 -121 0
-59 -131 0
-59 -182 0
-59 -203 0
-59 -255 0
-59 -318 0
-59 -358 0
-59 -399 0
-59 -444 0
-59 -456 0
-121 -131 0
-121 -182 0
-121 -203 0
-121 -255 0
-121 -318 0
-121 -358 0
-121 -399 0
-121 -444 0
-121 -456 0
-131 -182 0
-131 -203 0
-131 -255 0
-131 -318 0
-131 -358 0
-131 -399 0
-131 -444 0
-131 -456 0
-182 -203 0
-182 -255 0
-182 -318 0
-182 -358 0
-182 -399 0
-182 -444 0
-182 -456 0
-203 -255 0
-203 -318 0
-203 -358 0
-203 -399 0
-203 -444 0
-203 -456 0
-255 -318 0
-255 -358 0
-255 -399 0
-255 -444 0
-255 -456 0
-318 -358 0
-318 -399 0
-318 -444 0
-318 -456 0
-358 -399 0
-358 -444 0
-358 -456 0
-399 -444 0
-399 -456 0
-444 -456 0
36 132 141 172 193 306 369 386 401 412 434 0
-36 -132 0
-36 -141 0
-36 -172 0
-36 -193 0
-36 -306 0
-36 -369 0
-36 -386 0
-36 -401 0
-36 -412 0
-36 -434 0
-132 -141 0
-132 -172 0
-132 -193 0
-132 -306 0
-132 -369 0
-132 -386 0
-132 -401 0
-132 -412 0
-132 -434 0
-141 -172 0
-141 -193 0
-141 -306 0
-141 -369 0
-141 -386 0
-141 -401 0
-141 -412 0
-141 -434 0
-172 -193 0
-172 -306 0
-172 -369 0
-172 -386 0
-172 -401 0
-172 -412 0
-172 -434 0
-193 -306 0
-193 -369 0
-193 -386 0
-193 -401 0
-193 -412 0
-193 -434 0
-306 -369 0
-306 -386 0
-306 -401 0
-306 -412 0
-306 -434 0
-369 -386 0
-369 -401 0
-369 -412 0
-369 -434 0
-386 -401 0
-386 -412 0
-386 -434 0
-401 -412 0
-401 -434 0
-412 -434 0
4 5 17 38 62 75 99 111 133 143 154 0
-4 -5 0
-4 -17 0
-4 -38 0
-4 -62 0
-4 -75 0
-4 -99 0
-4 -111 0
-4 -133 0
-4 -143 0
-4 -154 0
-5 -17 0
-5 -38 0
-5 -62 0
-5 -75 0
-5 -99 0
-5 -111 0
-5 -133 0
-5 -143 0
-5 -154 0
-17 -38 0
-17 -62 0
-17 -75 0
-17 -99 0
-17 -111 0
-17 -133 0
-17 -143 0
-17 -154 0
-38 -62 0
-38 -75 0
-38 -99 0
-38 -111 0
-38 -133 0
-38 -143 0
-38 -154 0
-62 -75 0
-62 -99 0
-62 -111 0
-62 -133 0
-62 -143 0
-62 -154 0
-75 -99 0
-75 -111 0
-75 -133 0
-75 -143 0
-75 -154 0
-99 -111 0
-99 -133 0
-99 -143 0
-99 -154 0
-111 -133 0
-111 -143 0
-111 -154 0
-133 -143 0
-133 -154 0
-143 -154 0
5 16 156 164 175 196 209 219 244 256 267 0
-5 -16 0
-5 -156 0
-5 -164 0
-5 -175 0
-5 -196 0
-5 -209 0
-5 -219 0
-5 -244 0
-5 -256 0
-5 -267 0
-16 -156 0
-16 -164 0
-16 -175 0
-16 -196 0
-16 -209 0
-16 -219 0
-16 -244 0
-16 -256 0
-16 -267 0
-156 -164 0
-156 -175 0
-156 -196 0
-156 -209 0
-156 -219 0
-156 -244 0
-156 -256 0
-156 -267 0
-164 -175 0
-164 -196 0
-164 -209 0
-164 -219 0
-164 -244 0
-164 -256 0
-164 -267 0
-175 -196 0
-175 -209 0
-175 -219 0
-175 -244 0
-175 -256 0
-175 -267 0
-196 -209 0
-196 -219 0
-196 -244 0
-196 -256 0
-196 -267 0
-209 -219 0
-209 -244 0
-209 -256 0
-209 -267 0
-219 -244 0
-219 -256 0
-219 -267 0
-244 -256 0
-244 -267 0
-256 -267 0
17 156 280 288 298 313 324 336 346 359 370 0
-17 -156 0
-17 -280 0
-17 -288 0
-17 -298 0
-17 -313 0
-17 -324 0
-17 -336 0
-17 -346 0
-17 -359 0
-17 -370 0
-156 -280 0
-156 -288 0
-156 -298 0
-156 -313 0
-156 -324 0
-156 -336 0
-156 -346 0
-156 -359 0
-156 -370 0
-280 -288 0
-280 -298 0
-280 -313 0
-280 -324 0
-280 -336 0
-280 -346 0
-280 -359 0
-280 -370 0
-288 -298 0
-288 -313 0
-288 -324 0
-288 -336 0
-288 -346 0
-288 -359 0
-288 -370 0
-298 -313 0
-298 -324 0
-298 -336 0
-298 -346 0
-298 -359 0
-298 -370 0
-313 -324 0
-313 -336 0
-313 -346 0
-313 -359 0
-313 -370 0
-324 -336 0
-324 -346 0
-324 -359 0
-324 -370 0
-336 -346 0
-336 -359 0
-336 -370 0
-346 -359 0
-346 -370 0
-359 -370 0
38 50 175 280 310 361 390 427 437 445 448 0
-38 -50 0
-38 -175 0
-38 -280 0
-38 -310 0
-38 -361 0
-38 -390 0
-38 -427 0
-38 -437 0
-38 -445 0
-38 -448 0
-50 -175 0
-50 -280 0
-50 -310 0
-50 -361 0
-50 -390 0
-50 -427 0
-50 -437 0
-50 -445 0
-50 -448 0
-175 -280 0
-175 -310 0
-175 -361 0
-175 -390 0
-175 -427 0
-175 -437 0
-175 -445 0
-175 -448 0
-280 -310 0
-280 -361 0
-280 -390 0
-280 -427 0
-280 -437 0
-280 -445 0
-280 -448 0
-310 -361 0
-310 -390 0
-310 -427 0
-310 -437 0
-310 -445 0
-310 -448 0
-361 -390 0
-361 -427 0
-361 -437 0
-361 -445 0
-361 -448 0
-390 -427 0
-390 -437 0
-390 -445 0
-390 -448 0
-427 -437 0
-427 -445 0
-427 -448 0
-437 -445 0
-437 -448 0
-445 -448 0
62 74 104 196 217 235 298 333 340 408 413 442 0
-62 -74 0
-62 -104 0
-62 -196 0
-62 -217 0
-62 -235 0
-62 -298 0
-62 -333 0
-62 -340 0
-62 -408 0
-62 -413 0
-62 -442 0
-74 -104 0
-74 -196 0
-74 -217 0
-74 -235 0
-74 -298 0
-74 -333 0
-74 -340 0
-74 -408 0
-74 -413 0
-74 -442 0
-104 -196 0
-104 -217 0
-104 -235 0
-104 -298 0
-104 -333 0
-104 -340 0
-104 -408 0
-104 -413 0
-104 -442 0
-196 -217 0
-196 -235 0
-196 -298 0
-196 -333 0
-196 -340 0
-196 -408 0
-196 -413 0
-196 -442 0
-217 -235 0
-217 -298 0
-217 -333 0
-217 -340 0
-217 -408 0
-217 -413 0
-217 -442 0
-235 -298 0
-235 -333 0
-235 -340 0
-235 -408 0
-235 -413 0
-235 -442 0
-298 -333 0
-298 -340 0
-298 -408 0
-298 -413 0
-298 -442 0
-333 -340 0
-333 -408 0
-333 -413 0
-333 -442 0
-340 -408 0
-340 -413 0
-340 -442 0
-408 -413 0
-408 -442 0
-413 -442 0
75 87 104 209 230 313 331 345 361 400 424 0
-75 -87 0
-75 -104 0
-75 -209 0
-75 -230 0
-75 -313 0
-75 -331 0
-75 -345 0
-75 -361 0
-75 -400 0
-75 -424 0
-87 -104 0
-87 -209 0
-87 -230 0
-87 -313 0
-87 -331 0
-87 -345 0
-87 -361 0
-87 -400 0
-87 -424 0
-104 -209 0
-104 -230 0
-104 -313 0
-104 -331 0
-104 -345 0
-104 -361 0
-104 -400 0
-104 -424 0
-209 -230 0
-209 -313 0
-209 -331 0
-209 -345 0
-209 -361 0
-209 -400 0
-209 -424 0
-230 -313 0
-230 -331 0
-230 -345 0
-230 -361 0
-230 -400 0
-230 -424 0
-313 -331 0
-313 -345 0
-313 -361 0
-313 -400 0
-313 -424 0
-331 -345 0
-331 -361 0
-331 -400 0
-331 -424 0
-345 -361 0
-345 -400 0
-345 -424 0
-361 -400 0
-361 -424 0
-400 -424 0
81 98 214 219 235 242 319 324 356 387 427 0
-81 -98 0
-81 -214 0
-81 -219 0
-81 -235 0
-81 -242 0
-81 -319 0
-81 -324 0
-81 -356 0
-81 -387 0
-81 -427 0
-98 -214 0
-98 -219 0
-98 -235 0
-98 -242 0
-98 -319 0
-98 -324 0
-98 -356 0
-98 -387 0
-98 -427 0
-214 -219 0
-214 -235 0
-214 -242 0
-214 -319 0
-214 -324 0
-214 -356 0
-214 -387 0
-214 -427 0
-219 -235 0
-219 -242 0
-219 -319 0
-219 -324 0
-219 -356 0
-219 -387 0
-219 -427 0
-235 -242 0
-235 -319 0
-235 -324 0
-235 -356 0
-235 -387 0
-235 -427 0
-242 -319 0
-242 -324 0
-242 -356 0
-242 -387 0
-242 -427 0
-319 -324 0
-319 -356 0
-319 -387 0
-319 -427 0
-324 -356 0
-324 -387 0
-324 -427 0
-356 -387 0
-356 -427 0
-387 -427 0
71 81 99 110 204 254 307 336 340 367 437 0
-71 -81 0
-71 -99 0
-71 -110 0
-71 -204 0
-71 -254 0
-71 -307 0
-71 -336 0
-71 -340 0
-71 -367 0
-71 -437 0
-81 -99 0
-81 -110 0
-81 -204 0
-81 -254 0
-81 -307 0
-81 -336 0
-81 -340 0
-81 -367 0
-81 -437 0
-99 -110 0
-99 -204 0
-99 -254 0
-99 -307 0
-99 -336 0
-99 -340 0
-99 -367 0
-99 -437 0
-110 -204 0
-110 -254 0
-110 -307 0
-110 -336 0
-110 -340 0
-110 -367 0
-110 -437 0
-204 -254 0
-204 -307 0
-204 -336 0
-204 -340 0
-204 -367 0
-204 -437 0
-254 -307 0
-254 -336 0
-254 -340 0
-254 -367 0
-254 -437 0
-307 -336 0
-307 -340 0
-307 -367 0
-307 -437 0
-336 -340 0
-336 -367 0
-336 -437 0
-340 -367 0
-340 -437 0
-367 -437 0
71 111 121 194 214 244 266 331 346 408 448 0
-71 -111 0
-71 -121 0
-71 -194 0
-71 -214 0
-71 -244 0
-71 -266 0
-71 -331 0
-71 -346 0
-71 -408 0
-71 -448 0
-111 -121 0
-111 -194 0
-111 -214 0
-111 -244 0
-111 -266 0
-111 -331 0
-111 -346 0
-111 -408 0
-111 -448 0
-121 -194 0
-121 -214 0
-121 -244 0
-121 -266 0
-121 -331 0
-121 -346 0
-121 -408 0
-121 -448 0
-194 -214 0
-194 -244 0
-194 -266 0
-194 -331 0
-194 -346 0
-194 -408 0
-194 -448 0
-214 -244 0
-214 -266 0
-214 -331 0
-214 -346 0
-214 -408 0
-214 -448 0
-244 -266 0
-244 -331 0
-244 -346 0
-244 -408 0
-244 -448 0
-266 -331 0
-266 -346 0
-266 -408 0
-266 -448 0
-331 -346 0
-331 -408 0
-331 -448 0
-346 -408 0
-346 -448 0
-408 -448 0
48 132 183 204 256 277 319 359 400 442 445 0
-48 -132 0
-48 -183 0
-48 -204 0
-48 -256 0
-48 -277 0
-48 -319 0
-48 -359 0
-48 -400 0
-48 -442 0
-48 -445 0
-132 -183 0
-132 -204 0
-132 -256 0
-132 -277 0
-132 -319 0
-132 -359 0
-132 -400 0
-132 -442 0
-132 -445 0
-183 -204 0
-183 -256 0
-183 -277 0
-183 -319 0
-183 -359 0
-183 -400 0
-183 -442 0
-183 -445 0
-204 -256 0
-204 -277 0
-204 -319 0
-204 -359 0
-204 -400 0
-204 -442 0
-204 -445 0
-256 -277 0
-256 -319 0
-256 -359 0
-256 -400 0
-256 -442 0
-256 -445 0
-277 -319 0
-277 -359 0
-277 -400 0
-277 -442 0
-277 -445 0
-319 -359 0
-319 -400 0
-319 -442 0
-319 -445 0
-359 -400 0
-359 -442 0
-359 -445 0
-400 -442 0
-400 -445 0
-442 -445 0
5 6 18 29 39 51 63 100 122 144 155 0
-5 -6 0
-5 -18 0
-5 -29 0
-5 -39 0
-5 -51 0
-5 -63 0
-5 -100 0
-5 -122 0
-5 -144 0
-5 -155 0
-6 -18 0
-6 -29 0
-6 -39 0
-6 -51 0
-6 -63 0
-6 -100 0
-6 -122 0
-6 -144 0
-6 -155 0
-18 -29 0
-18 -39 0
-18 -51 0
-18 -63 0
-18 -100 0
-18 -122 0
-18 -144 0
-18 -155 0
-29 -39 0
-29 -51 0
-29 -63 0
-29 -100 0
-29 -122 0
-29 -144 0
-29 -155 0
-39 -51 0
-39 -63 0
-39 -100 0
-39 -122 0
-39 -144 0
-39 -155 0
-51 -63 0
-51 -100 0
-51 -122 0
-51 -144 0
-51 -155 0
-63 -100 0
-63 -122 0
-63 -144 0
-63 -155 0
-100 -122 0
-100 -144 0
-100 -155 0
-122 -144 0
-122 -155 0
-144 -155 0
6 17 157 165 176 186 197 220 231 257 268 0
-6 -17 0
-6 -157 0
-6 -165 0
-6 -176 0
-6 -186 0
-6 -197 0
-6 -220 0
-6 -231 0
-6 -257 0
-6 -268 0
-17 -157 0
-17 -165 0
-17 -176 0
-17 -186 0
-17 -197 0
-17 -220 0
-17 -231 0
-17 -257 0
-17 -268 0
-157 -165 0
-157 -176 0
-157 -186 0
-157 -197 0
-157 -220 0
-157 -231 0
-157 -257 0
-157 -268 0
-165 -176 0
-165 -186 0
-165 -197 0
-165 -220 0
-165 -231 0
-165 -257 0
-165 -268 0
-176 -186 0
-176 -197 0
-176 -220 0
-176 -231 0
-176 -257 0
-176 -268 0
-186 -197 0
-186 -220 0
-186 -231 0
-186 -257 0
-186 -268 0
-197 -220 0
-197 -231 0
-197 -257 0
-197 -268 0
-220 -231 0
-220 -257 0
-220 -268 0
-231 -257 0
-231 -268 0
-257 -268 0
18 145 157 174 281 289 299 325 337 360 371 0
-18 -145 0
-18 -157 0
-18 -174 0
-18 -281 0
-18 -289 0
-18 -299 0
-18 -325 0
-18 -337 0
-18 -360 0
-18 -371 0
-145 -157 0
-145 -174 0
-145 -281 0
-145 -289 0
-145 -299 0
-145 -325 0
-145 -337 0
-145 -360 0
-145 -371 0
-157 -174 0
-157 -281 0
-157 -289 0
-157 -299 0
-157 -325 0
-157 -337 0
-157 -360 0
-157 -371 0
-174 -281 0
-174 -289 0
-174 -299 0
-174 -325 0
-174 -337 0
-174 -360 0
-174 -371 0
-281 -289 0
-281 -299 0
-281 -325 0
-281 -337 0
-281 -360 0
-281 -371 0
-289 -299 0
-289 -325 0
-289 -337 0
-289 -360 0
-289 -371 0
-299 -325 0
-299 -337 0
-299 -360 0
-299 -371 0
-325 -337 0
-325 -360 0
-325 -371 0
-337 -360 0
-337 -371 0
-360 -371 0
29 38 134 145 165 185 372 379 393 404 425 0
-29 -38 0
-29 -134 0
-29 -145 0
-29 -165 0
-29 -185 0
-29 -372 0
-29 -379 0
-29 -393 0
-29 -404 0
-29 -425 0
-38 -134 0
-38 -145 0
-38 -165 0
-38 -185 0
-38 -372 0
-38 -379 0
-38 -393 0
-38 -404 0
-38 -425 0
-134 -145 0
-134 -165 0
-134 -185 0
-134 -372 0
-134 -379 0
-134 -393 0
-134 -404 0
-134 -425 0
-145 -165 0
-145 -185 0
-145 -372 0
-145 -379 0
-145 -393 0
-145 -404 0
-145 -425 0
-165 -185 0
-165 -372 0
-165 -379 0
-165 -393 0
-165 -404 0
-165 -425 0
-185 -372 0
-185 -379 0
-185 -393 0
-185 -404 0
-185 -425 0
-372 -379 0
-372 -393 0
-372 -404 0
-372 -425 0
-379 -393 0
-379 -404 0
-379 -425 0
-393 -404 0
-393 -425 0
-404 -425 0
39 124 134 176 258 281 311 391 428 435 438 0
-39 -124 0
-39 -134 0
-39 -176 0
-39 -258 0
-39 -281 0
-39 -311 0
-39 -391 0
-39 -428 0
-39 -435 0
-39 -438 0
-124 -134 0
-124 -176 0
-124 -258 0
-124 -281 0
-124 -311 0
-124 -391 0
-124 -428 0
-124 -435 0
-124 -438 0
-134 -176 0
-134 -258 0
-134 -281 0
-134 -311 0
-134 -391 0
-134 -428 0
-134 -435 0
-134 -438 0
-176 -258 0
-176 -281 0
-176 -311 0
-176 -391 0
-176 -428 0
-176 -435 0
-176 -438 0
-258 -281 0
-258 -311 0
-258 -391 0
-258 -428 0
-258 -435 0
-258 -438 0
-281 -311 0
-281 -391 0
-281 -428 0
-281 -435 0
-281 -438 0
-311 -391 0
-311 -428 0
-311 -435 0
-311 -438 0
-391 -428 0
-391 -435 0
-391 -438 0
-428 -435 0
-428 -438 0
-435 -438 0
51 62 114 124 186 208 322 350 402 420 446 0
-51 -62 0
-51 -114 0
-51 -124 0
-51 -186 0
-51 -208 0
-51 -322 0
-51 -350 0
-51 -402 0
-51 -420 0
-51 -446 0
-62 -114 0
-62 -124 0
-62 -186 0
-62 -208 0
-62 -322 0
-62 -350 0
-62 -402 0
-62 -420 0
-62 -446 0
-114 -124 0
-114 -186 0
-114 -208 0
-114 -322 0
-114 -350 0
-114 -402 0
-114 -420 0
-114 -446 0
-124 -186 0
-124 -208 0
-124 -322 0
-124 -350 0
-124 -402 0
-124 -420 0
-124 -446 0
-186 -208 0
-186 -322 0
-186 -350 0
-186 -402 0
-186 -420 0
-186 -446 0
-208 -322 0
-208 -350 0
-208 -402 0
-208 -420 0
-208 -446 0
-322 -350 0
-322 -402 0
-322 -420 0
-322 -446 0
-350 -402 0
-350 -420 0
-350 -446 0
-402 -420 0
-402 -446 0
-420 -446 0
63 75 114 197 218 258 299 334 341 372 414 443 0
-63 -75 0
-63 -114 0
-63 -197 0
-63 -218 0
-63 -258 0
-63 -299 0
-63 -334 0
-63 -341 0
-63 -372 0
-63 -414 0
-63 -443 0
-75 -114 0
-75 -197 0
-75 -218 0
-75 -258 0
-75 -299 0
-75 -334 0
-75 -341 0
-75 -372 0
-75 -414 0
-75 -443 0
-114 -197 0
-114 -218 0
-114 -258 0
-114 -299 0
-114 -334 0
-114 -341 0
-114 -372 0
-114 -414 0
-114 -443 0
-197 -218 0
-197 -258 0
-197 -299 0
-197 -334 0
-197 -341 0
-197 -372 0
-197 -414 0
-197 -443 0
-218 -258 0
-218 -299 0
-218 -334 0
-218 -341 0
-218 -372 0
-218 -414 0
-218 -443 0
-258 -299 0
-258 -334 0
-258 -341 0
-258 -372 0
-258 -414 0
-258 -443 0
-299 -334 0
-299 -341 0
-299 -372 0
-299 -414 0
-299 -443 0
-334 -341 0
-334 -372 0
-334 -414 0
-334 -443 0
-341 -372 0
-341 -414 0
-341 -443 0
-372 -414 0
-372 -443 0
-414 -443 0
82 99 220 243 320 325 350 357 388 393 428 0
-82 -99 0
-82 -220 0
-82 -243 0
-82 -320 0
-82 -325 0
-82 -350 0
-82 -357 0
-82 -388 0
-82 -393 0
-82 -428 0
-99 -220 0
-99 -243 0
-99 -320 0
-99 -325 0
-99 -350 0
-99 -357 0
-99 -388 0
-99 -393 0
-99 -428 0
-220 -243 0
-220 -320 0
-220 -325 0
-220 -350 0
-220 -357 0
-220 -388 0
-220 -393 0
-220 -428 0
-243 -320 0
-243 -325 0
-243 -350 0
-243 -357 0
-243 -388 0
-243 -393 0
-243 -428 0
-320 -325 0
-320 -350 0
-320 -357 0
-320 -388 0
-320 -393 0
-320 -428 0
-325 -350 0
-325 -357 0
-325 -388 0
-325 -393 0
-325 -428 0
-350 -357 0
-350 -388 0
-350 -393 0
-350 -428 0
-357 -388 0
-357 -393 0
-357 -428 0
-388 -393 0
-388 -428 0
-393 -428 0
82 100 111 205 231 255 337 341 368 404 420 438 0
-82 -100 0
-82 -111 0
-82 -205 0
-82 -231 0
-82 -255 0
-82 -337 0
-82 -341 0
-82 -368 0
-82 -404 0
-82 -420 0
-82 -438 0
-100 -111 0
-100 -205 0
-100 -231 0
-100 -255 0
-100 -337 0
-100 -341 0
-100 -368 0
-100 -404 0
-100 -420 0
-100 -438 0
-111 -205 0
-111 -231 0
-111 -255 0
-111 -337 0
-111 -341 0
-111 -368 0
-111 -404 0
-111 -420 0
-111 -438 0
-205 -231 0
-205 -255 0
-205 -337 0
-205 -341 0
-205 -368 0
-205 -404 0
-205 -420 0
-205 -438 0
-231 -255 0
-231 -337 0
-231 -341 0
-231 -368 0
-231 -404 0
-231 -420 0
-231 -438 0
-255 -337 0
-255 -341 0
-255 -368 0
-255 -404 0
-255 -420 0
-255 -438 0
-337 -341 0
-337 -368 0
-337 -404 0
-337 -420 0
-337 -438 0
-341 -368 0
-341 -404 0
-341 -420 0
-341 -438 0
-368 -404 0
-368 -420 0
-368 -438 0
-404 -420 0
-404 -438 0
-420 -438 0
6 7 19 30 40 52 64 88 101 112 156 0
-6 -7 0
-6 -19 0
-6 -30 0
-6 -40 0
-6 -52 0
-6 -64 0
-6 -88 0
-6 -101 0
-6 -112 0
-6 -156 0
-7 -19 0
-7 -30 0
-7 -40 0
-7 -52 0
-7 -64 0
-7 -88 0
-7 -101 0
-7 -112 0
-7 -156 0
-19 -30 0
-19 -40 0
-19 -52 0
-19 -64 0
-19 -88 0
-19 -101 0
-19 -112 0
-19 -156 0
-30 -40 0
-30 -52 0
-30 -64 0
-30 -88 0
-30 -101 0
-30 -112 0
-30 -156 0
-40 -52 0
-40 -64 0
-40 -88 0
-40 -101 0
-40 -112 0
-40 -156 0
-52 -64 0
-52 -88 0
-52 -101 0
-52 -112 0
-52 -156 0
-64 -88 0
-64 -101 0
-64 -112 0
-64 -156 0
-88 -101 0
-88 -112 0
-88 -156 0
-101 -112 0
-101 -156 0
-112 -156 0
7 18 158 166 187 198 221 232 245 269 279 0
-7 -18 0
-7 -158 0
-7 -166 0
-7 -187 0
-7 -198 0
-7 -221 0
-7 -232 0
-7 -245 0
-7 -269 0
-7 -279 0
-18 -158 0
-18 -166 0
-18 -187 0
-18 -198 0
-18 -221 0
-18 -232 0
-18 -245 0
-18 -269 0
-18 -279 0
-158 -166 0
-158 -187 0
-158 -198 0
-158 -221 0
-158 -232 0
-158 -245 0
-158 -269 0
-158 -279 0
-166 -187 0
-166 -198 0
-166 -221 0
-166 -232 0
-166 -245 0
-166 -269 0
-166 -279 0
-187 -198 0
-187 -221 0
-187 -232 0
-187 -245 0
-187 -269 0
-187 -279 0
-198 -221 0
-198 -232 0
-198 -245 0
-198 -269 0
-198 -279 0
-221 -232 0
-221 -245 0
-221 -269 0
-221 -279 0
-232 -245 0
-232 -269 0
-232 -279 0
-245 -269 0
-245 -279 0
-269 -279 0
19 29 146 158 175 290 291 300 326 338 347 0
-19 -29 0
-19 -146 0
-19 -158 0
-19 -175 0
-19 -290 0
-19 -291 0
-19 -300 0
-19 -326 0
-19 -338 0
-19 -347 0
-29 -146 0
-29 -158 0
-29 -175 0
-29 -290 0
-29 -291 0
-29 -300 0
-29 -326 0
-29 -338 0
-29 -347 0
-146 -158 0
-146 -175 0
-146 -290 0
-146 -291 0
-146 -300 0
-146 -326 0
-146 -338 0
-146 -347 0
-158 -175 0
-158 -290 0
-158 -291 0
-158 -300 0
-158 -326 0
-158 -338 0
-158 -347 0
-175 -290 0
-175 -291 0
-175 -300 0
-175 -326 0
-175 -338 0
-175 -347 0
-290 -291 0
-290 -300 0
-290 -326 0
-290 -338 0
-290 -347 0
-291 -300 0
-291 -326 0
-291 -338 0
-291 -347 0
-300 -326 0
-300 -338 0
-300 -347 0
-326 -338 0
-326 -347 0
-338 -347 0
30 39 135 146 166 270 373 380 394 405 416 0
-30 -39 0
-30 -135 0
-30 -146 0
-30 -166 0
-30 -270 0
-30 -373 0
-30 -380 0
-30 -394 0
-30 -405 0
-30 -416 0
-39 -135 0
-39 -146 0
-39 -166 0
-39 -270 0
-39 -373 0
-39 -380 0
-39 -394 0
-39 -405 0
-39 -416 0
-135 -146 0
-135 -166 0
-135 -270 0
-135 -373 0
-135 -380 0
-135 -394 0
-135 -405 0
-135 -416 0
-146 -166 0
-146 -270 0
-146 -373 0
-146 -380 0
-146 -394 0
-146 -405 0
-146 -416 0
-166 -270 0
-166 -373 0
-166 -380 0
-166 -394 0
-166 -405 0
-166 -416 0
-270 -373 0
-270 -380 0
-270 -394 0
-270 -405 0
-270 -416 0
-373 -380 0
-373 -394 0
-373 -405 0
-373 -416 0
-380 -394 0
-380 -405 0
-380 -416 0
-394 -405 0
-394 -416 0
-405 -416 0
40 51 125 135 196 259 312 392 429 439 449 0
-40 -51 0
-40 -125 0
-40 -135 0
-40 -196 0
-40 -259 0
-40 -312 0
-40 -392 0
-40 -429 0
-40 -439 0
-40 -449 0
-51 -125 0
-51 -135 0
-51 -196 0
-51 -259 0
-51 -312 0
-51 -392 0
-51 -429 0
-51 -439 0
-51 -449 0
-125 -135 0
-125 -196 0
-125 -259 0
-125 -312 0
-125 -392 0
-125 -429 0
-125 -439 0
-125 -449 0
-135 -196 0
-135 -259 0
-135 -312 0
-135 -392 0
-135 -429 0
-135 -439 0
-135 -449 0
-196 -259 0
-196 -312 0
-196 -392 0
-196 -429 0
-196 -439 0
-196 -449 0
-259 -312 0
-259 -392 0
-259 -429 0
-259 -439 0
-259 -449 0
-312 -392 0
-312 -429 0
-312 -439 0
-312 -449 0
-392 -429 0
-392 -439 0
-392 -449 0
-429 -439 0
-429 -449 0
-439 -449 0
52 63 125 187 209 270 291 323 351 403 421 453 0
-52 -63 0
-52 -125 0
-52 -187 0
-52 -209 0
-52 -270 0
-52 -291 0
-52 -323 0
-52 -351 0
-52 -403 0
-52 -421 0
-52 -453 0
-63 -125 0
-63 -187 0
-63 -209 0
-63 -270 0
-63 -291 0
-63 -323 0
-63 -351 0
-63 -403 0
-63 -421 0
-63 -453 0
-125 -187 0
-125 -209 0
-125 -270 0
-125 -291 0
-125 -323 0
-125 -351 0
-125 -403 0
-125 -421 0
-125 -453 0
-187 -209 0
-187 -270 0
-187 -291 0
-187 -323 0
-187 -351 0
-187 -403 0
-187 -421 0
-187 -453 0
-209 -270 0
-209 -291 0
-209 -323 0
-209 -351 0
-209 -403 0
-209 -421 0
-209 -453 0
-270 -291 0
-270 -323 0
-270 -351 0
-270 -403 0
-270 -421 0
-270 -453 0
-291 -323 0
-291 -351 0
-291 -403 0
-291 -421 0
-291 -453 0
-323 -351 0
-323 -403 0
-323 -421 0
-323 -453 0
-351 -403 0
-351 -421 0
-351 -453 0
-403 -421 0
-403 -453 0
-421 -453 0
64 198 219 236 259 300 335 342 373 409 415 0
-64 -198 0
-64 -219 0
-64 -236 0
-64 -259 0
-64 -300 0
-64 -335 0
-64 -342 0
-64 -373 0
-64 -409 0
-64 -415 0
-198 -219 0
-198 -236 0
-198 -259 0
-198 -300 0
-198 -335 0
-198 -342 0
-198 -373 0
-198 -409 0
-198 -415 0
-219 -236 0
-219 -259 0
-219 -300 0
-219 -335 0
-219 -342 0
-219 -373 0
-219 -409 0
-219 -415 0
-236 -259 0
-236 -300 0
-236 -335 0
-236 -342 0
-236 -373 0
-236 -409 0
-236 -415 0
-259 -300 0
-259 -335 0
-259 -342 0
-259 -373 0
-259 -409 0
-259 -415 0
-300 -335 0
-300 -342 0
-300 -373 0
-300 -409 0
-300 -415 0
-335 -342 0
-335 -373 0
-335 -409 0
-335 -415 0
-342 -373 0
-342 -409 0
-342 -415 0
-373 -409 0
-373 -415 0
-409 -415 0
88 100 215 221 236 244 326 351 358 389 394 429 0
-88 -100 0
-88 -215 0
-88 -221 0
-88 -236 0
-88 -244 0
-88 -326 0
-88 -351 0
-88 -358 0
-88 -389 0
-88 -394 0
-88 -429 0
-100 -215 0
-100 -221 0
-100 -236 0
-100 -244 0
-100 -326 0
-100 -351 0
-100 -358 0
-100 -389 0
-100 -394 0
-100 -429 0
-215 -221 0
-215 -236 0
-215 -244 0
-215 -326 0
-215 -351 0
-215 -358 0
-215 -389 0
-215 -394 0
-215 -429 0
-221 -236 0
-221 -244 0
-221 -326 0
-221 -351 0
-221 -358 0
-221 -389 0
-221 -394 0
-221 -429 0
-236 -244 0
-236 -326 0
-236 -351 0
-236 -358 0
-236 -389 0
-236 -394 0
-236 -429 0
-244 -326 0
-244 -351 0
-244 -358 0
-244 -389 0
-244 -394 0
-244 -429 0
-326 -351 0
-326 -358 0
-326 -389 0
-326 -394 0
-326 -429 0
-351 -358 0
-351 -389 0
-351 -394 0
-351 -429 0
-358 -389 0
-358 -394 0
-358 -429 0
-389 -394 0
-389 -429 0
-394 -429 0
72 101 232 256 308 338 342 369 405 421 439 0
-72 -101 0
-72 -232 0
-72 -256 0
-72 -308 0
-72 -338 0
-72 -342 0
-72 -369 0
-72 -405 0
-72 -421 0
-72 -439 0
-101 -232 0
-101 -256 0
-101 -308 0
-101 -338 0
-101 -342 0
-101 -369 0
-101 -405 0
-101 -421 0
-101 -439 0
-232 -256 0
-232 -308 0
-232 -338 0
-232 -342 0
-232 -369 0
-232 -405 0
-232 -421 0
-232 -439 0
-256 -308 0
-256 -338 0
-256 -342 0
-256 -369 0
-256 -405 0
-256 -421 0
-256 -439 0
-308 -338 0
-308 -342 0
-308 -369 0
-308 -405 0
-308 -421 0
-308 -439 0
-338 -342 0
-338 -369 0
-338 -405 0
-338 -421 0
-338 -439 0
-342 -369 0
-342 -405 0
-342 -421 0
-342 -439 0
-369 -405 0
-369 -421 0
-369 -439 0
-405 -421 0
-405 -439 0
-421 -439 0
7 8 20 41 53 65 76 89 102 113 157 0
-7 -8 0
-7 -20 0
-7 -41 0
-7 -53 0
-7 -65 0
-7 -76 0
-7 -89 0
-7 -102 0
-7 -113 0
-7 -157 0
-8 -20 0
-8 -41 0
-8 -53 0
-8 -65 0
-8 -76 0
-8 -89 0
-8 -102 0
-8 -113 0
-8 -157 0
-20 -41 0
-20 -53 0
-20 -65 0
-20 -76 0
-20 -89 0
-20 -102 0
-20 -113 0
-20 -157 0
-41 -53 0
-41 -65 0
-41 -76 0
-41 -89 0
-41 -102 0
-41 -113 0
-41 -157 0
-53 -65 0
-53 -76 0
-53 -89 0
-53 -102 0
-53 -113 0
-53 -157 0
-65 -76 0
-65 -89 0
-65 -102 0
-65 -113 0
-65 -157 0
-76 -89 0
-76 -102 0
-76 -113 0
-76 -157 0
-89 -102 0
-89 -113 0
-89 -157 0
-102 -113 0
-102 -157 0
-113 -157 0
8 19 159 165 177 188 199 210 222 233 246 280 0
-8 -19 0
-8 -159 0
-8 -165 0
-8 -177 0
-8 -188 0
-8 -199 0
-8 -210 0
-8 -222 0
-8 -233 0
-8 -246 0
-8 -280 0
-19 -159 0
-19 -165 0
-19 -177 0
-19 -188 0
-19 -199 0
-19 -210 0
-19 -222 0
-19 -233 0
-19 -246 0
-19 -280 0
-159 -165 0
-159 -177 0
-159 -188 0
-159 -199 0
-159 -210 0
-159 -222 0
-159 -233 0
-159 -246 0
-159 -280 0
-165 -177 0
-165 -188 0
-165 -199 0
-165 -210 0
-165 -222 0
-165 -233 0
-165 -246 0
-165 -280 0
-177 -188 0
-177 -199 0
-177 -210 0
-177 -222 0
-177 -233 0
-177 -246 0
-177 -280 0
-188 -199 0
-188 -210 0
-188 -222 0
-188 -233 0
-188 -246 0
-188 -280 0
-199 -210 0
-199 -222 0
-199 -233 0
-199 -246 0
-199 -280 0
-210 -222 0
-210 -233 0
-210 -246 0
-210 -280 0
-222 -233 0
-222 -246 0
-222 -280 0
-233 -246 0
-233 -280 0
-246 -280 0
20 30 147 159 176 282 292 301 314 327 339 348 0
-20 -30 0
-20 -147 0
-20 -159 0
-20 -176 0
-20 -282 0
-20 -292 0
-20 -301 0
-20 -314 0
-20 -327 0
-20 -339 0
-20 -348 0
-30 -147 0
-30 -159 0
-30 -176 0
-30 -282 0
-30 -292 0
-30 -301 0
-30 -314 0
-30 -327 0
-30 -339 0
-30 -348 0
-147 -159 0
-147 -176 0
-147 -282 0
-147 -292 0
-147 -301 0
-147 -314 0
-147 -327 0
-147 -339 0
-147 -348 0
-159 -176 0
-159 -282 0
-159 -292 0
-159 -301 0
-159 -314 0
-159 -327 0
-159 -339 0
-159 -348 0
-176 -282 0
-176 -292 0
-176 -301 0
-176 -314 0
-176 -327 0
-176 -339 0
-176 -348 0
-282 -292 0
-282 -301 0
-282 -314 0
-282 -327 0
-282 -339 0
-282 -348 0
-292 -301 0
-292 -314 0
-292 -327 0
-292 -339 0
-292 -348 0
-301 -314 0
-301 -327 0
-301 -339 0
-301 -348 0
-314 -327 0
-314 -339 0
-314 -348 0
-327 -339 0
-327 -348 0
-339 -348 0
40 136 147 186 271 298 374 381 395 406 417 0
-40 -136 0
-40 -147 0
-40 -186 0
-40 -271 0
-40 -298 0
-40 -374 0
-40 -381 0
-40 -395 0
-40 -406 0
-40 -417 0
-136 -147 0
-136 -186 0
-136 -271 0
-136 -298 0
-136 -374 0
-136 -381 0
-136 -395 0
-136 -406 0
-136 -417 0
-147 -186 0
-147 -271 0
-147 -298 0
-147 -374 0
-147 -381 0
-147 -395 0
-147 -406 0
-147 -417 0
-186 -271 0
-186 -298 0
-186 -374 0
-186 -381 0
-186 -395 0
-186 -406 0
-186 -417 0
-271 -298 0
-271 -374 0
-271 -381 0
-271 -395 0
-271 -406 0
-271 -417 0
-298 -374 0
-298 -381 0
-298 -395 0
-298 -406 0
-298 -417 0
-374 -381 0
-374 -395 0
-374 -406 0
-374 -417 0
-381 -395 0
-381 -406 0
-381 -417 0
-395 -406 0
-395 -417 0
-406 -417 0
41 52 136 177 197 282 313 362 430 440 450 0
-41 -52 0
-41 -136 0
-41 -177 0
-41 -197 0
-41 -282 0
-41 -313 0
-41 -362 0
-41 -430 0
-41 -440 0
-41 -450 0
-52 -136 0
-52 -177 0
-52 -197 0
-52 -282 0
-52 -313 0
-52 -362 0
-52 -430 0
-52 -440 0
-52 -450 0
-136 -177 0
-136 -197 0
-136 -282 0
-136 -313 0
-136 -362 0
-136 -430 0
-136 -440 0
-136 -450 0
-177 -197 0
-177 -282 0
-177 -313 0
-177 -362 0
-177 -430 0
-177 -440 0
-177 -450 0
-197 -282 0
-197 -313 0
-197 -362 0
-197 -430 0
-197 -440 0
-197 -450 0
-282 -313 0
-282 -362 0
-282 -430 0
-282 -440 0
-282 -450 0
-313 -362 0
-313 -430 0
-313 -440 0
-313 -450 0
-362 -430 0
-362 -440 0
-362 -450 0
-430 -440 0
-430 -450 0
-440 -450 0
53 64 115 188 248 271 292 324 352 422 454 0
-53 -64 0
-53 -115 0
-53 -188 0
-53 -248 0
-53 -271 0
-53 -292 0
-53 -324 0
-53 -352 0
-53 -422 0
-53 -454 0
-64 -115 0
-64 -188 0
-64 -248 0
-64 -271 0
-64 -292 0
-64 -324 0
-64 -352 0
-64 -422 0
-64 -454 0
-115 -188 0
-115 -248 0
-115 -271 0
-115 -292 0
-115 -324 0
-115 -352 0
-115 -422 0
-115 -454 0
-188 -248 0
-188 -271 0
-188 -292 0
-188 -324 0
-188 -352 0
-188 -422 0
-188 -454 0
-248 -271 0
-248 -292 0
-248 -324 0
-248 -352 0
-248 -422 0
-248 -454 0
-271 -292 0
-271 -324 0
-271 -352 0
-271 -422 0
-271 -454 0
-292 -324 0
-292 -352 0
-292 -422 0
-292 -454 0
-324 -352 0
-324 -422 0
-324 -454 0
-352 -422 0
-352 -454 0
-422 -454 0
65 105 115 199 220 237 301 336 343 374 410 0
-65 -105 0
-65 -115 0
-65 -199 0
-65 -220 0
-65 -237 0
-65 -301 0
-65 -336 0
-65 -343 0
-65 -374 0
-65 -410 0
-105 -115 0
-105 -199 0
-105 -220 0
-105 -237 0
-105 -301 0
-105 -336 0
-105 -343 0
-105 -374 0
-105 -410 0
-115 -199 0
-115 -220 0
-115 -237 0
-115 -301 0
-115 -336 0
-115 -343 0
-115 -374 0
-115 -410 0
-199 -220 0
-199 -237 0
-199 -301 0
-199 -336 0
-199 -343 0
-199 -374 0
-199 -410 0
-220 -237 0
-220 -301 0
-220 -336 0
-220 -343 0
-220 -374 0
-220 -410 0
-237 -301 0
-237 -336 0
-237 -343 0
-237 -374 0
-237 -410 0
-301 -336 0
-301 -343 0
-301 -374 0
-301 -410 0
-336 -343 0
-336 -374 0
-336 -410 0
-343 -374 0
-343 -410 0
-374 -410 0
76 88 105 210 226 231 248 314 346 362 381 0
-76 -88 0
-76 -105 0
-76 -210 0
-76 -226 0
-76 -231 0
-76 -248 0
-76 -314 0
-76 -346 0
-76 -362 0
-76 -381 0
-88 -105 0
-88 -210 0
-88 -226 0
-88 -231 0
-88 -248 0
-88 -314 0
-88 -346 0
-88 -362 0
-88 -381 0
-105 -210 0
-105 -226 0
-105 -231 0
-105 -248 0
-105 -314 0
-105 -346 0
-105 -362 0
-105 -381 0
-210 -226 0
-210 -231 0
-210 -248 0
-210 -314 0
-210 -346 0
-210 -362 0
-210 -381 0
-226 -231 0
-226 -248 0
-226 -314 0
-226 -346 0
-226 -362 0
-226 -381 0
-231 -248 0
-231 -314 0
-231 -346 0
-231 -362 0
-231 -381 0
-248 -314 0
-248 -346 0
-248 -362 0
-248 -381 0
-314 -346 0
-314 -362 0
-314 -381 0
-346 -362 0
-346 -381 0
-362 -381 0
83 89 101 216 222 237 327 352 359 395 430 0
-83 -89 0
-83 -101 0
-83 -216 0
-83 -222 0
-83 -237 0
-83 -327 0
-83 -352 0
-83 -359 0
-83 -395 0
-83 -430 0
-89 -101 0
-89 -216 0
-89 -222 0
-89 -237 0
-89 -327 0
-89 -352 0
-89 -359 0
-89 -395 0
-89 -430 0
-101 -216 0
-101 -222 0
-101 -237 0
-101 -327 0
-101 -352 0
-101 -359 0
-101 -395 0
-101 -430 0
-216 -222 0
-216 -237 0
-216 -327 0
-216 -352 0
-216 -359 0
-216 -395 0
-216 -430 0
-222 -237 0
-222 -327 0
-222 -352 0
-222 -359 0
-222 -395 0
-222 -430 0
-237 -327 0
-237 -352 0
-237 -359 0
-237 -395 0
-237 -430 0
-327 -352 0
-327 -359 0
-327 -395 0
-327 -430 0
-352 -359 0
-352 -395 0
-352 -430 0
-359 -395 0
-359 -430 0
-395 -430 0
8 9 31 42 54 66 77 90 103 123 145 158 0
-8 -9 0
-8 -31 0
-8 -42 0
-8 -54 0
-8 -66 0
-8 -77 0
-8 -90 0
-8 -103 0
-8 -123 0
-8 -145 0
-8 -158 0
-9 -31 0
-9 -42 0
-9 -54 0
-9 -66 0
-9 -77 0
-9 -90 0
-9 -103 0
-9 -123 0
-9 -145 0
-9 -158 0
-31 -42 0
-31 -54 0
-31 -66 0
-31 -77 0
-31 -90 0
-31 -103 0
-31 -123 0
-31 -145 0
-31 -158 0
-42 -54 0
-42 -66 0
-42 -77 0
-42 -90 0
-42 -103 0
-42 -123 0
-42 -145 0
-42 -158 0
-54 -66 0
-54 -77 0
-54 -90 0
-54 -103 0
-54 -123 0
-54 -145 0
-54 -158 0
-66 -77 0
-66 -90 0
-66 -103 0
-66 -123 0
-66 -145 0
-66 -158 0
-77 -90 0
-77 -103 0
-77 -123 0
-77 -145 0
-77 -158 0
-90 -103 0
-90 -123 0
-90 -145 0
-90 -158 0
-103 -123 0
-103 -145 0
-103 -158 0
-123 -145 0
-123 -158 0
-145 -158 0
9 20 166 167 178 189 200 211 223 234 247 281 0
-9 -20 0
-9 -166 0
-9 -167 0
-9 -178 0
-9 -189 0
-9 -200 0
-9 -211 0
-9 -223 0
-9 -234 0
-9 -247 0
-9 -281 0
-20 -166 0
-20 -167 0
-20 -178 0
-20 -189 0
-20 -200 0
-20 -211 0
-20 -223 0
-20 -234 0
-20 -247 0
-20 -281 0
-166 -167 0
-166 -178 0
-166 -189 0
-166 -200 0
-166 -211 0
-166 -223 0
-166 -234 0
-166 -247 0
-166 -281 0
-167 -178 0
-167 -189 0
-167 -200 0
-167 -211 0
-167 -223 0
-167 -234 0
-167 -247 0
-167 -281 0
-178 -189 0
-178 -200 0
-178 -211 0
-178 -223 0
-178 -234 0
-178 -247 0
-178 -281 0
-189 -200 0
-189 -211 0
-189 -223 0
-189 -234 0
-189 -247 0
-189 -281 0
-200 -211 0
-200 -223 0
-200 -234 0
-200 -247 0
-200 -281 0
-211 -223 0
-211 -234 0
-211 -247 0
-211 -281 0
-223 -234 0
-223 -247 0
-223 -281 0
-234 -247 0
-234 -281 0
-247 -281 0
31 41 167 187 299 375 382 396 407 418 426 0
-31 -41 0
-31 -167 0
-31 -187 0
-31 -299 0
-31 -375 0
-31 -382 0
-31 -396 0
-31 -407 0
-31 -418 0
-31 -426 0
-41 -167 0
-41 -187 0
-41 -299 0
-41 -375 0
-41 -382 0
-41 -396 0
-41 -407 0
-41 -418 0
-41 -426 0
-167 -187 0
-167 -299 0
-167 -375 0
-167 -382 0
-167 -396 0
-167 -407 0
-167 -418 0
-167 -426 0
-187 -299 0
-187 -375 0
-187 -382 0
-187 -396 0
-187 -407 0
-187 -418 0
-187 -426 0
-299 -375 0
-299 -382 0
-299 -396 0
-299 -407 0
-299 -418 0
-299 -426 0
-375 -382 0
-375 -396 0
-375 -407 0
-375 -418 0
-375 -426 0
-382 -396 0
-382 -407 0
-382 -418 0
-382 -426 0
-396 -407 0
-396 -418 0
-396 -426 0
-407 -418 0
-407 -426 0
-418 -426 0
42 53 126 178 198 260 363 431 436 441 451 0
-42 -53 0
-42 -126 0
-42 -178 0
-42 -198 0
-42 -260 0
-42 -363 0
-42 -431 0
-42 -436 0
-42 -441 0
-42 -451 0
-53 -126 0
-53 -178 0
-53 -198 0
-53 -260 0
-53 -363 0
-53 -431 0
-53 -436 0
-53 -441 0
-53 -451 0
-126 -178 0
-126 -198 0
-126 -260 0
-126 -363 0
-126 -431 0
-126 -436 0
-126 -441 0
-126 -451 0
-178 -198 0
-178 -260 0
-178 -363 0
-178 -431 0
-178 -436 0
-178 -441 0
-178 -451 0
-198 -260 0
-198 -363 0
-198 -431 0
-198 -436 0
-198 -441 0
-198 -451 0
-260 -363 0
-260 -431 0
-260 -436 0
-260 -441 0
-260 -451 0
-363 -431 0
-363 -436 0
-363 -441 0
-363 -451 0
-431 -436 0
-431 -441 0
-431 -451 0
-436 -441 0
-436 -451 0
-441 -451 0
54 65 116 126 189 249 325 353 423 447 455 0
-54 -65 0
-54 -116 0
-54 -126 0
-54 -189 0
-54 -249 0
-54 -325 0
-54 -353 0
-54 -423 0
-54 -447 0
-54 -455 0
-65 -116 0
-65 -126 0
-65 -189 0
-65 -249 0
-65 -325 0
-65 -353 0
-65 -423 0
-65 -447 0
-65 -455 0
-116 -126 0
-116 -189 0
-116 -249 0
-116 -325 0
-116 -353 0
-116 -423 0
-116 -447 0
-116 -455 0
-126 -189 0
-126 -249 0
-126 -325 0
-126 -353 0
-126 -423 0
-126 -447 0
-126 -455 0
-189 -249 0
-189 -325 0
-189 -353 0
-189 -423 0
-189 -447 0
-189 -455 0
-249 -325 0
-249 -353 0
-249 -423 0
-249 -447 0
-249 -455 0
-325 -353 0
-325 -423 0
-325 -447 0
-325 -455 0
-353 -423 0
-353 -447 0
-353 -455 0
-423 -447 0
-423 -455 0
-447 -455 0
66 76 116 200 221 238 260 337 375 411 444 0
-66 -76 0
-66 -116 0
-66 -200 0
-66 -221 0
-66 -238 0
-66 -260 0
-66 -337 0
-66 -375 0
-66 -411 0
-66 -444 0
-76 -116 0
-76 -200 0
-76 -221 0
-76 -238 0
-76 -260 0
-76 -337 0
-76 -375 0
-76 -411 0
-76 -444 0
-116 -200 0
-116 -221 0
-116 -238 0
-116 -260 0
-116 -337 0
-116 -375 0
-116 -411 0
-116 -444 0
-200 -221 0
-200 -238 0
-200 -260 0
-200 -337 0
-200 -375 0
-200 -411 0
-200 -444 0
-221 -238 0
-221 -260 0
-221 -337 0
-221 -375 0
-221 -411 0
-221 -444 0
-238 -260 0
-238 -337 0
-238 -375 0
-238 -411 0
-238 -444 0
-260 -337 0
-260 -375 0
-260 -411 0
-260 -444 0
-337 -375 0
-337 -411 0
-337 -444 0
-375 -411 0
-375 -444 0
-411 -444 0
77 89 94 211 227 232 249 332 363 382 401 0
-77 -89 0
-77 -94 0
-77 -211 0
-77 -227 0
-77 -232 0
-77 -249 0
-77 -332 0
-77 -363 0
-77 -382 0
-77 -401 0
-89 -94 0
-89 -211 0
-89 -227 0
-89 -232 0
-89 -249 0
-89 -332 0
-89 -363 0
-89 -382 0
-89 -401 0
-94 -211 0
-94 -227 0
-94 -232 0
-94 -249 0
-94 -332 0
-94 -363 0
-94 -382 0
-94 -401 0
-211 -227 0
-211 -232 0
-211 -249 0
-211 -332 0
-211 -363 0
-211 -382 0
-211 -401 0
-227 -232 0
-227 -249 0
-227 -332 0
-227 -363 0
-227 -382 0
-227 -401 0
-232 -249 0
-232 -332 0
-232 -363 0
-232 -382 0
-232 -401 0
-249 -332 0
-249 -363 0
-249 -382 0
-249 -401 0
-332 -363 0
-332 -382 0
-332 -401 0
-363 -382 0
-363 -401 0
-382 -401 0
9 21 32 43 55 67 78 91 134 146 159 0
-9 -21 0
-9 -32 0
-9 -43 0
-9 -55 0
-9 -67 0
-9 -78 0
-9 -91 0
-9 -134 0
-9 -146 0
-9 -159 0
-21 -32 0
-21 -43 0
-21 -55 0
-21 -67 0
-21 -78 0
-21 -91 0
-21 -134 0
-21 -146 0
-21 -159 0
-32 -43 0
-32 -55 0
-32 -67 0
-32 -78 0
-32 -91 0
-32 -134 0
-32 -146 0
-32 -159 0
-43 -55 0
-43 -67 0
-43 -78 0
-43 -91 0
-43 -134 0
-43 -146 0
-43 -159 0
-55 -67 0
-55 -78 0
-55 -91 0
-55 -134 0
-55 -146 0
-55 -159 0
-67 -78 0
-67 -91 0
-67 -134 0
-67 -146 0
-67 -159 0
-78 -91 0
-78 -134 0
-78 -146 0
-78 -159 0
-91 -134 0
-91 -146 0
-91 -159 0
-134 -146 0
-134 -159 0
-146 -159 0
21 31 177 291 293 302 315 328 349 361 372 0
-21 -31 0
-21 -177 0
-21 -291 0
-21 -293 0
-21 -302 0
-21 -315 0
-21 -328 0
-21 -349 0
-21 -361 0
-21 -372 0
-31 -177 0
-31 -291 0
-31 -293 0
-31 -302 0
-31 -315 0
-31 -328 0
-31 -349 0
-31 -361 0
-31 -372 0
-177 -291 0
-177 -293 0
-177 -302 0
-177 -315 0
-177 -328 0
-177 -349 0
-177 -361 0
-177 -372 0
-291 -293 0
-291 -302 0
-291 -315 0
-291 -328 0
-291 -349 0
-291 -361 0
-291 -372 0
-293 -302 0
-293 -315 0
-293 -328 0
-293 -349 0
-293 -361 0
-293 -372 0
-302 -315 0
-302 -328 0
-302 -349 0
-302 -361 0
-302 -372 0
-315 -328 0
-315 -349 0
-315 -361 0
-315 -372 0
-328 -349 0
-328 -361 0
-328 -372 0
-349 -361 0
-349 -372 0
-361 -372 0
32 42 137 188 272 300 376 383 397 419 427 0
-32 -42 0
-32 -137 0
-32 -188 0
-32 -272 0
-32 -300 0
-32 -376 0
-32 -383 0
-32 -397 0
-32 -419 0
-32 -427 0
-42 -137 0
-42 -188 0
-42 -272 0
-42 -300 0
-42 -376 0
-42 -383 0
-42 -397 0
-42 -419 0
-42 -427 0
-137 -188 0
-137 -272 0
-137 -300 0
-137 -376 0
-137 -383 0
-137 -397 0
-137 -419 0
-137 -427 0
-188 -272 0
-188 -300 0
-188 -376 0
-188 -383 0
-188 -397 0
-188 -419 0
-188 -427 0
-272 -300 0
-272 -376 0
-272 -383 0
-272 -397 0
-272 -419 0
-272 -427 0
-300 -376 0
-300 -383 0
-300 -397 0
-300 -419 0
-300 -427 0
-376 -383 0
-376 -397 0
-376 -419 0
-376 -427 0
-383 -397 0
-383 -419 0
-383 -427 0
-397 -419 0
-397 -427 0
-419 -427 0
43 54 127 137 199 261 364 393 432 437 452 0
-43 -54 0
-43 -127 0
-43 -137 0
-43 -199 0
-43 -261 0
-43 -364 0
-43 -393 0
-43 -432 0
-43 -437 0
-43 -452 0
-54 -127 0
-54 -137 0
-54 -199 0
-54 -261 0
-54 -364 0
-54 -393 0
-54 -432 0
-54 -437 0
-54 -452 0
-127 -137 0
-127 -199 0
-127 -261 0
-127 -364 0
-127 -393 0
-127 -432 0
-127 -437 0
-127 -452 0
-137 -199 0
-137 -261 0
-137 -364 0
-137 -393 0
-137 -432 0
-137 -437 0
-137 -452 0
-199 -261 0
-199 -364 0
-199 -393 0
-199 -432 0
-199 -437 0
-199 -452 0
-261 -364 0
-261 -393 0
-261 -432 0
-261 -437 0
-261 -452 0
-364 -393 0
-364 -432 0
-364 -437 0
-364 -452 0
-393 -432 0
-393 -437 0
-393 -452 0
-432 -437 0
-432 -452 0
-437 -452 0
55 66 127 210 250 272 293 326 404 448 456 0
-55 -66 0
-55 -127 0
-55 -210 0
-55 -250 0
-55 -272 0
-55 -293 0
-55 -326 0
-55 -404 0
-55 -448 0
-55 -456 0
-66 -127 0
-66 -210 0
-66 -250 0
-66 -272 0
-66 -293 0
-66 -326 0
-66 -404 0
-66 -448 0
-66 -456 0
-127 -210 0
-127 -250 0
-127 -272 0
-127 -293 0
-127 -326 0
-127 -404 0
-127 -448 0
-127 -456 0
-210 -250 0
-210 -272 0
-210 -293 0
-210 -326 0
-210 -404 0
-210 -448 0
-210 -456 0
-250 -272 0
-250 -293 0
-250 -326 0
-250 -404 0
-250 -448 0
-250 -456 0
-272 -293 0
-272 -326 0
-272 -404 0
-272 -448 0
-272 -456 0
-293 -326 0
-293 -404 0
-293 -448 0
-293 -456 0
-326 -404 0
-326 -448 0
-326 -456 0
-404 -448 0
-404 -456 0
-448 -456 0
67 77 106 222 239 261 302 338 376 412 445 0
-67 -77 0
-67 -106 0
-67 -222 0
-67 -239 0
-67 -261 0
-67 -302 0
-67 -338 0
-67 -376 0
-67 -412 0
-67 -445 0
-77 -106 0
-77 -222 0
-77 -239 0
-77 -261 0
-77 -302 0
-77 -338 0
-77 -376 0
-77 -412 0
-77 -445 0
-106 -222 0
-106 -239 0
-106 -261 0
-106 -302 0
-106 -338 0
-106 -376 0
-106 -412 0
-106 -445 0
-222 -239 0
-222 -261 0
-222 -302 0
-222 -338 0
-222 -376 0
-222 -412 0
-222 -445 0
-239 -261 0
-239 -302 0
-239 -338 0
-239 -376 0
-239 -412 0
-239 -445 0
-261 -302 0
-261 -338 0
-261 -376 0
-261 -412 0
-261 -445 0
-302 -338 0
-302 -376 0
-302 -412 0
-302 -445 0
-338 -376 0
-338 -412 0
-338 -445 0
-376 -412 0
-376 -445 0
-412 -445 0
10 22 33 44 56 68 79 92 124 135 147 0
-10 -22 0
-10 -33 0
-10 -44 0
-10 -56 0
-10 -68 0
-10 -79 0
-10 -92 0
-10 -124 0
-10 -135 0
-10 -147 0
-22 -33 0
-22 -44 0
-22 -56 0
-22 -68 0
-22 -79 0
-22 -92 0
-22 -124 0
-22 -135 0
-22 -147 0
-33 -44 0
-33 -56 0
-33 -68 0
-33 -79 0
-33 -92 0
-33 -124 0
-33 -135 0
-33 -147 0
-44 -56 0
-44 -68 0
-44 -79 0
-44 -92 0
-44 -124 0
-44 -135 0
-44 -147 0
-56 -68 0
-56 -79 0
-56 -92 0
-56 -124 0
-56 -135 0
-56 -147 0
-68 -79 0
-68 -92 0
-68 -124 0
-68 -135 0
-68 -147 0
-79 -92 0
-79 -124 0
-79 -135 0
-79 -147 0
-92 -124 0
-92 -135 0
-92 -147 0
-124 -135 0
-124 -147 0
-135 -147 0
10 21 167 179 190 201 212 224 258 270 282 0
-10 -21 0
-10 -167 0
-10 -179 0
-10 -190 0
-10 -201 0
-10 -212 0
-10 -224 0
-10 -258 0
-10 -270 0
-10 -282 0
-21 -167 0
-21 -179 0
-21 -190 0
-21 -201 0
-21 -212 0
-21 -224 0
-21 -258 0
-21 -270 0
-21 -282 0
-167 -179 0
-167 -190 0
-167 -201 0
-167 -212 0
-167 -224 0
-167 -258 0
-167 -270 0
-167 -282 0
-179 -190 0
-179 -201 0
-179 -212 0
-179 -224 0
-179 -258 0
-179 -270 0
-179 -282 0
-190 -201 0
-190 -212 0
-190 -224 0
-190 -258 0
-190 -270 0
-190 -282 0
-201 -212 0
-201 -224 0
-201 -258 0
-201 -270 0
-201 -282 0
-212 -224 0
-212 -258 0
-212 -270 0
-212 -282 0
-224 -258 0
-224 -270 0
-224 -282 0
-258 -270 0
-258 -282 0
-270 -282 0
22 32 148 178 283 292 294 303 316 329 373 0
-22 -32 0
-22 -148 0
-22 -178 0
-22 -283 0
-22 -292 0
-22 -294 0
-22 -303 0
-22 -316 0
-22 -329 0
-22 -373 0
-32 -148 0
-32 -178 0
-32 -283 0
-32 -292 0
-32 -294 0
-32 -303 0
-32 -316 0
-32 -329 0
-32 -373 0
-148 -178 0
-148 -283 0
-148 -292 0
-148 -294 0
-148 -303 0
-148 -316 0
-148 -329 0
-148 -373 0
-178 -283 0
-178 -292 0
-178 -294 0
-178 -303 0
-178 -316 0
-178 -329 0
-178 -373 0
-283 -292 0
-283 -294 0
-283 -303 0
-283 -316 0
-283 -329 0
-283 -373 0
-292 -294 0
-292 -303 0
-292 -316 0
-292 -329 0
-292 -373 0
-294 -303 0
-294 -316 0
-294 -329 0
-294 -373 0
-303 -316 0
-303 -329 0
-303 -373 0
-316 -329 0
-316 -373 0
-329 -373 0
33 43 138 148 189 273 301 377 384 398 428 0
-33 -43 0
-33 -138 0
-33 -148 0
-33 -189 0
-33 -273 0
-33 -301 0
-33 -377 0
-33 -384 0
-33 -398 0
-33 -428 0
-43 -138 0
-43 -148 0
-43 -189 0
-43 -273 0
-43 -301 0
-43 -377 0
-43 -384 0
-43 -398 0
-43 -428 0
-138 -148 0
-138 -189 0
-138 -273 0
-138 -301 0
-138 -377 0
-138 -384 0
-138 -398 0
-138 -428 0
-148 -189 0
-148 -273 0
-148 -301 0
-148 -377 0
-148 -384 0
-148 -398 0
-148 -428 0
-189 -273 0
-189 -301 0
-189 -377 0
-189 -384 0
-189 -398 0
-189 -428 0
-273 -301 0
-273 -377 0
-273 -384 0
-273 -398 0
-273 -428 0
-301 -377 0
-301 -384 0
-301 -398 0
-301 -428 0
-377 -384 0
-377 -398 0
-377 -428 0
-384 -398 0
-384 -428 0
-398 -428 0
44 55 138 179 200 262 283 314 394 433 438 0
-44 -55 0
-44 -138 0
-44 -179 0
-44 -200 0
-44 -262 0
-44 -283 0
-44 -314 0
-44 -394 0
-44 -433 0
-44 -438 0
-55 -138 0
-55 -179 0
-55 -200 0
-55 -262 0
-55 -283 0
-55 -314 0
-55 -394 0
-55 -433 0
-55 -438 0
-138 -179 0
-138 -200 0
-138 -262 0
-138 -283 0
-138 -314 0
-138 -394 0
-138 -433 0
-138 -438 0
-179 -200 0
-179 -262 0
-179 -283 0
-179 -314 0
-179 -394 0
-179 -433 0
-179 -438 0
-200 -262 0
-200 -283 0
-200 -314 0
-200 -394 0
-200 -433 0
-200 -438 0
-262 -283 0
-262 -314 0
-262 -394 0
-262 -433 0
-262 -438 0
-283 -314 0
-283 -394 0
-283 -433 0
-283 -438 0
-314 -394 0
-314 -433 0
-314 -438 0
-394 -433 0
-394 -438 0
-433 -438 0
56 67 117 190 211 251 273 294 327 354 405 0
-56 -67 0
-56 -117 0
-56 -190 0
-56 -211 0
-56 -251 0
-56 -273 0
-56 -294 0
-56 -327 0
-56 -354 0
-56 -405 0
-67 -117 0
-67 -190 0
-67 -211 0
-67 -251 0
-67 -273 0
-67 -294 0
-67 -327 0
-67 -354 0
-67 -405 0
-117 -190 0
-117 -211 0
-117 -251 0
-117 -273 0
-117 -294 0
-117 -327 0
-117 -354 0
-117 -405 0
-190 -211 0
-190 -251 0
-190 -273 0
-190 -294 0
-190 -327 0
-190 -354 0
-190 -405 0
-211 -251 0
-211 -273 0
-211 -294 0
-211 -327 0
-211 -354 0
-211 -405 0
-251 -273 0
-251 -294 0
-251 -327 0
-251 -354 0
-251 -405 0
-273 -294 0
-273 -327 0
-273 -354 0
-273 -405 0
-294 -327 0
-294 -354 0
-294 -405 0
-327 -354 0
-327 -405 0
-354 -405 0
10 34 45 57 69 80 93 104 114 125 136 0
-10 -34 0
-10 -45 0
-10 -57 0
-10 -69 0
-10 -80 0
-10 -93 0
-10 -104 0
-10 -114 0
-10 -125 0
-10 -136 0
-34 -45 0
-34 -57 0
-34 -69 0
-34 -80 0
-34 -93 0
-34 -104 0
-34 -114 0
-34 -125 0
-34 -136 0
-45 -57 0
-45 -69 0
-45 -80 0
-45 -93 0
-45 -104 0
-45 -114 0
-45 -125 0
-45 -136 0
-57 -69 0
-57 -80 0
-57 -93 0
-57 -104 0
-57 -114 0
-57 -125 0
-57 -136 0
-69 -80 0
-69 -93 0
-69 -104 0
-69 -114 0
-69 -125 0
-69 -136 0
-80 -93 0
-80 -104 0
-80 -114 0
-80 -125 0
-80 -136 0
-93 -104 0
-93 -114 0
-93 -125 0
-93 -136 0
-104 -114 0
-104 -125 0
-104 -136 0
-114 -125 0
-114 -136 0
-125 -136 0
22 160 168 180 191 202 213 225 235 259 271 0
-22 -160 0
-22 -168 0
-22 -180 0
-22 -191 0
-22 -202 0
-22 -213 0
-22 -225 0
-22 -235 0
-22 -259 0
-22 -271 0
-160 -168 0
-160 -180 0
-160 -191 0
-160 -202 0
-160 -213 0
-160 -225 0
-160 -235 0
-160 -259 0
-160 -271 0
-168 -180 0
-168 -191 0
-168 -202 0
-168 -213 0
-168 -225 0
-168 -235 0
-168 -259 0
-168 -271 0
-180 -191 0
-180 -202 0
-180 -213 0
-180 -225 0
-180 -235 0
-180 -259 0
-180 -271 0
-191 -202 0
-191 -213 0
-191 -225 0
-191 -235 0
-191 -259 0
-191 -271 0
-202 -213 0
-202 -225 0
-202 -235 0
-202 -259 0
-202 -271 0
-213 -225 0
-213 -235 0
-213 -259 0
-213 -271 0
-225 -235 0
-225 -259 0
-225 -271 0
-235 -259 0
-235 -271 0
-259 -271 0
33 149 160 284 295 304 317 330 340 350 374 0
-33 -149 0
-33 -160 0
-33 -284 0
-33 -295 0
-33 -304 0
-33 -317 0
-33 -330 0
-33 -340 0
-33 -350 0
-33 -374 0
-149 -160 0
-149 -284 0
-149 -295 0
-149 -304 0
-149 -317 0
-149 -330 0
-149 -340 0
-149 -350 0
-149 -374 0
-160 -284 0
-160 -295 0
-160 -304 0
-160 -317 0
-160 -330 0
-160 -340 0
-160 -350 0
-160 -374 0
-284 -295 0
-284 -304 0
-284 -317 0
-284 -330 0
-284 -340 0
-284 -350 0
-284 -374 0
-295 -304 0
-295 -317 0
-295 -330 0
-295 -340 0
-295 -350 0
-295 -374 0
-304 -317 0
-304 -330 0
-304 -340 0
-304 -350 0
-304 -374 0
-317 -330 0
-317 -340 0
-317 -350 0
-317 -374 0
-330 -340 0
-330 -350 0
-330 -374 0
-340 -350 0
-340 -374 0
-350 -374 0
34 44 149 168 274 381 385 399 408 420 429 0
-34 -44 0
-34 -149 0
-34 -168 0
-34 -274 0
-34 -381 0
-34 -385 0
-34 -399 0
-34 -408 0
-34 -420 0
-34 -429 0
-44 -149 0
-44 -168 0
-44 -274 0
-44 -381 0
-44 -385 0
-44 -399 0
-44 -408 0
-44 -420 0
-44 -429 0
-149 -168 0
-149 -274 0
-149 -381 0
-149 -385 0
-149 -399 0
-149 -408 0
-149 -420 0
-149 -429 0
-168 -274 0
-168 -381 0
-168 -385 0
-168 -399 0
-168 -408 0
-168 -420 0
-168 -429 0
-274 -381 0
-274 -385 0
-274 -399 0
-274 -408 0
-274 -420 0
-274 -429 0
-381 -385 0
-381 -399 0
-381 -408 0
-381 -420 0
-381 -429 0
-385 -399 0
-385 -408 0
-385 -420 0
-385 -429 0
-399 -408 0
-399 -420 0
-399 -429 0
-408 -420 0
-408 -429 0
-420 -429 0
45 56 128 180 263 284 365 395 434 439 442 0
-45 -56 0
-45 -128 0
-45 -180 0
-45 -263 0
-45 -284 0
-45 -365 0
-45 -395 0
-45 -434 0
-45 -439 0
-45 -442 0
-56 -128 0
-56 -180 0
-56 -263 0
-56 -284 0
-56 -365 0
-56 -395 0
-56 -434 0
-56 -439 0
-56 -442 0
-128 -180 0
-128 -263 0
-128 -284 0
-128 -365 0
-128 -395 0
-128 -434 0
-128 -439 0
-128 -442 0
-180 -263 0
-180 -284 0
-180 -365 0
-180 -395 0
-180 -434 0
-180 -439 0
-180 -442 0
-263 -284 0
-263 -365 0
-263 -395 0
-263 -434 0
-263 -439 0
-263 -442 0
-284 -365 0
-284 -395 0
-284 -434 0
-284 -439 0
-284 -442 0
-365 -395 0
-365 -434 0
-365 -439 0
-365 -442 0
-395 -434 0
-395 -439 0
-395 -442 0
-434 -439 0
-434 -442 0
-439 -442 0
34 179 285 293 305 318 331 341 351 362 375 0
-34 -179 0
-34 -285 0
-34 -293 0
-34 -305 0
-34 -318 0
-34 -331 0
-34 -341 0
-34 -351 0
-34 -362 0
-34 -375 0
-179 -285 0
-179 -293 0
-179 -305 0
-179 -318 0
-179 -331 0
-179 -341 0
-179 -351 0
-179 -362 0
-179 -375 0
-285 -293 0
-285 -305 0
-285 -318 0
-285 -331 0
-285 -341 0
-285 -351 0
-285 -362 0
-285 -375 0
-293 -305 0
-293 -318 0
-293 -331 0
-293 -341 0
-293 -351 0
-293 -362 0
-293 -375 0
-305 -318 0
-305 -331 0
-305 -341 0
-305 -351 0
-305 -362 0
-305 -375 0
-318 -331 0
-318 -341 0
-318 -351 0
-318 -362 0
-318 -375 0
-331 -341 0
-331 -351 0
-331 -362 0
-331 -375 0
-341 -351 0
-341 -362 0
-341 -375 0
-351 -362 0
-351 -375 0
-362 -375 0
45 139 190 275 302 378 382 386 400 421 430 0
-45 -139 0
-45 -190 0
-45 -275 0
-45 -302 0
-45 -378 0
-45 -382 0
-45 -386 0
-45 -400 0
-45 -421 0
-45 -430 0
-139 -190 0
-139 -275 0
-139 -302 0
-139 -378 0
-139 -382 0
-139 -386 0
-139 -400 0
-139 -421 0
-139 -430 0
-190 -275 0
-190 -302 0
-190 -378 0
-190 -382 0
-190 -386 0
-190 -400 0
-190 -421 0
-190 -430 0
-275 -302 0
-275 -378 0
-275 -382 0
-275 -386 0
-275 -400 0
-275 -421 0
-275 -430 0
-302 -378 0
-302 -382 0
-302 -386 0
-302 -400 0
-302 -421 0
-302 -430 0
-378 -382 0
-378 -386 0
-378 -400 0
-378 -421 0
-378 -430 0
-382 -386 0
-382 -400 0
-382 -421 0
-382 -430 0
-386 -400 0
-386 -421 0
-386 -430 0
-400 -421 0
-400 -430 0
-421 -430 0
11 23 35 46 58 70 81 115 126 137 148 160 0
-11 -23 0
-11 -35 0
-11 -46 0
-11 -58 0
-11 -70 0
-11 -81 0
-11 -115 0
-11 -126 0
-11 -137 0
-11 -148 0
-11 -160 0
-23 -35 0
-23 -46 0
-23 -58 0
-23 -70 0
-23 -81 0
-23 -115 0
-23 -126 0
-23 -137 0
-23 -148 0
-23 -160 0
-35 -46 0
-35 -58 0
-35 -70 0
-35 -81 0
-35 -115 0
-35 -126 0
-35 -137 0
-35 -148 0
-35 -160 0
-46 -58 0
-46 -70 0
-46 -81 0
-46 -115 0
-46 -126 0
-46 -137 0
-46 -148 0
-46 -160 0
-58 -70 0
-58 -81 0
-58 -115 0
-58 -126 0
-58 -137 0
-58 -148 0
-58 -160 0
-70 -81 0
-70 -115 0
-70 -126 0
-70 -137 0
-70 -148 0
-70 -160 0
-81 -115 0
-81 -126 0
-81 -137 0
-81 -148 0
-81 -160 0
-115 -126 0
-115 -137 0
-115 -148 0
-115 -160 0
-126 -137 0
-126 -148 0
-126 -160 0
-137 -148 0
-137 -160 0
-148 -160 0
11 168 169 192 203 214 236 248 260 272 283 0
-11 -168 0
-11 -169 0
-11 -192 0
-11 -203 0
-11 -214 0
-11 -236 0
-11 -248 0
-11 -260 0
-11 -272 0
-11 -283 0
-168 -169 0
-168 -192 0
-168 -203 0
-168 -214 0
-168 -236 0
-168 -248 0
-168 -260 0
-168 -272 0
-168 -283 0
-169 -192 0
-169 -203 0
-169 -214 0
-169 -236 0
-169 -248 0
-169 -260 0
-169 -272 0
-169 -283 0
-192 -203 0
-192 -214 0
-192 -236 0
-192 -248 0
-192 -260 0
-192 -272 0
-192 -283 0
-203 -214 0
-203 -236 0
-203 -248 0
-203 -260 0
-203 -272 0
-203 -283 0
-214 -236 0
-214 -248 0
-214 -260 0
-214 -272 0
-214 -283 0
-236 -248 0
-236 -260 0
-236 -272 0
-236 -283 0
-248 -260 0
-248 -272 0
-248 -283 0
-260 -272 0
-260 -283 0
-272 -283 0
23 150 180 286 294 296 306 319 342 352 363 376 0
-23 -150 0
-23 -180 0
-23 -286 0
-23 -294 0
-23 -296 0
-23 -306 0
-23 -319 0
-23 -342 0
-23 -352 0
-23 -363 0
-23 -376 0
-150 -180 0
-150 -286 0
-150 -294 0
-150 -296 0
-150 -306 0
-150 -319 0
-150 -342 0
-150 -352 0
-150 -363 0
-150 -376 0
-180 -286 0
-180 -294 0
-180 -296 0
-180 -306 0
-180 -319 0
-180 -342 0
-180 -352 0
-180 -363 0
-180 -376 0
-286 -294 0
-286 -296 0
-286 -306 0
-286 -319 0
-286 -342 0
-286 -352 0
-286 -363 0
-286 -376 0
-294 -296 0
-294 -306 0
-294 -319 0
-294 -342 0
-294 -352 0
-294 -363 0
-294 -376 0
-296 -306 0
-296 -319 0
-296 -342 0
-296 -352 0
-296 -363 0
-296 -376 0
-306 -319 0
-306 -342 0
-306 -352 0
-306 -363 0
-306 -376 0
-319 -342 0
-319 -352 0
-319 -363 0
-319 -376 0
-342 -352 0
-342 -363 0
-342 -376 0
-352 -363 0
-352 -376 0
-363 -376 0
11 24 47 59 71 82 105 116 127 138 149 0
-11 -24 0
-11 -47 0
-11 -59 0
-11 -71 0
-11 -82 0
-11 -105 0
-11 -116 0
-11 -127 0
-11 -138 0
-11 -149 0
-24 -47 0
-24 -59 0
-24 -71 0
-24 -82 0
-24 -105 0
-24 -116 0
-24 -127 0
-24 -138 0
-24 -149 0
-47 -59 0
-47 -71 0
-47 -82 0
-47 -105 0
-47 -116 0
-47 -127 0
-47 -138 0
-47 -149 0
-59 -71 0
-59 -82 0
-59 -105 0
-59 -116 0
-59 -127 0
-59 -138 0
-59 -149 0
-71 -82 0
-71 -105 0
-71 -116 0
-71 -127 0
-71 -138 0
-71 -149 0
-82 -105 0
-82 -116 0
-82 -127 0
-82 -138 0
-82 -149 0
-105 -116 0
-105 -127 0
-105 -138 0
-105 -149 0
-116 -127 0
-116 -138 0
-116 -149 0
-127 -138 0
-127 -149 0
-138 -149 0
23 161 170 181 193 204 237 249 261 273 284 0
-23 -161 0
-23 -170 0
-23 -181 0
-23 -193 0
-23 -204 0
-23 -237 0
-23 -249 0
-23 -261 0
-23 -273 0
-23 -284 0
-161 -170 0
-161 -181 0
-161 -193 0
-161 -204 0
-161 -237 0
-161 -249 0
-161 -261 0
-161 -273 0
-161 -284 0
-170 -181 0
-170 -193 0
-170 -204 0
-170 -237 0
-170 -249 0
-170 -261 0
-170 -273 0
-170 -284 0
-181 -193 0
-181 -204 0
-181 -237 0
-181 -249 0
-181 -261 0
-181 -273 0
-181 -284 0
-193 -204 0
-193 -237 0
-193 -249 0
-193 -261 0
-193 -273 0
-193 -284 0
-204 -237 0
-204 -249 0
-204 -261 0
-204 -273 0
-204 -284 0
-237 -249 0
-237 -261 0
-237 -273 0
-237 -284 0
-249 -261 0
-249 -273 0
-249 -284 0
-261 -273 0
-261 -284 0
-273 -284 0
-6 -22 -26 -43 -59 -61 -75 -89 -98 -117 -126 -136 -141 -158 -167 -174 -192 -204 -207 -217 -238 -244 -252 -275 -280 -293 -304 -314 -323 -343 -344 -357 -376 -380 -391 -409 -420 -425 -439 -454 0
-4 -18 -26 -42 -59 -68 -81 -94 -96 -113 -125 -134 -141 -156 -170 -177 -190 -200 -207 -225 -230 -248 -257 -264 -285 -287 -301 -316 -326 -342 -350 -364 -368 -380 -395 -408 -414 -426 -445 -455 0
-5 -19 -26 -42 -59 -67 -76 -87 -96 -115 -124 -136 -141 -161 -166 -179 -185 -195 -206 -225 -236 -242 -257 -274 -286 -287 -303 -315 -325 -340 -348 -359 -368 -382 -398 -403 -414 -432 -439 -448 0
-11 -18 -26 -40 -56 -65 -77 -91 -104 -110 -119 -139 -141 -154 -170 -177 -191 -200 -206 -226 -229 -244 -258 -268 -278 -292 -305 -317 -323 -342 -347 -359 -377 -380 -393 -407 -420 -427 -436 -456 0
-9 -23 -26 -41 -56 -64 -80 -94 -99 -116 -121 -130 -141 -155 -168 -173 -186 -196 -216 -226 -229 -242 -258 -269 -280 -295 -301 -316 -328 -338 -351 -355 -371 -383 -400 -404 -416 -433 -436 -452 0
-11 -21 -26 -41 -57 -64 -75 -92 -98 -117 -122 -130 -141 -158 -164 -178 -186 -202 -210 -227 -238 -241 -255 -264 -284 -289 -305 -312 -321 -343 -348 -359 -376 -379 -394 -408 -421 -428 -437 -447 0
-3 -19 -26 -38 -59 -67 -81 -90 -104 -113 -119 -135 -144 -161 -163 -178 -187 -197 -212 -225 -228 -244 -263 -272 -285 -287 -301 -317 -325 -342 -349 -359 -378 -381 -401 -411 -422 -432 -438 -446 0
-3 -20 -26 -42 -59 -72 -81 -91 -104 -111 -119 -135 -144 -156 -170 -180 -185 -199 -206 -221 -229 -250 -258 -268 -283 -291 -305 -317 -325 -335 -354 -355 -377 -381 -401 -407 -422 -430 -445 -446 0
-3 -19 -26 -43 -59 -66 -79 -93 -102 -111 -126 -130 -144 -161 -166 -176 -192 -195 -209 -224 -235 -240 -262 -275 -278 -294 -299 -315 -332 -336 -350 -362 -369 -379 -395 -409 -419 -429 -445 -454 0
-2 -25 -26 -38 -58 -67 -74 -92 -103 -112 -125 -138 -144 -157 -167 -182 -188 -202 -214 -218 -230 -249 -256 -275 -279 -295 -306 -315 -326 -336 -348 -362 -373 -388 -395 -411 -420 -431 -435 -452 0
-8 -25 -26 -38 -52 -67 -79 -86 -105 -114 -121 -130 -144 -160 -163 -179 -192 -204 -216 -219 -230 -247 -257 -274 -279 -292 -298 -315 -326 -337 -353 -363 -366 -386 -397 -407 -416 -428 -439 -452 0
-8 -25 -26 -47 -57 -61 -75 -92 -97 -110 -126 -134 -144 -156 -170 -179 -187 -203 -215 -223 -229 -242 -259 -268 -278 -290 -301 -316 -328 -337 -350 -364 -376 -381 -401 -405 -422 -430 -442 -448 0
-2 -22 -26 -41 -57 -70 -74 -90 -101 -111 -127 -134 -144 -161 -169 -175 -188 -198 -211 -218 -228 -242 -257 -270 -286 -287 -305 -314 -328 -336 -350 -365 -371 -384 -400 -412 -417 -429 -444 -455 0
-7 -22 -26 -42 -59 -69 -75 -94 -97 -115 -119 -132 -144 -159 -167 -175 -185 -195 -214 -226 -239 -240 -254 -268 -284 -293 -298 -312 -325 -342 -354 -364 -366 -384 -394 -411 -420 -430 -435 -453 0
-5 -21 -26 -46 -49 -65 -79 -87 -106 -112 -125 -138 -145 -151 -163 -176 -192 -198 -211 -217 -238 -246 -252 -271 -284 -297 -303 -319 -326 -341 -346 -357 -369 -380 -399 -407 -419 -430 -437 -446 0
-6 -23 -26 -41 -57 -61 -75 -92 -106 -110 -127 -131 -145 -159 -163 -179 -189 -196 -215 -225 -232 -251 -260 -264 -277 -290 -304 -309 -328 -343 -346 -357 -373 -386 -395 -403 -420 -427 -435 -454 0
-7 -25 -26 -43 -50 -70 -82 -92 -104 -108 -122 -131 -145 -154 -163 -180 -186 -204 -210 -223 -239 -244 -258 -274 -283 -291 -304 -312 -324 -343 -348 -355 -375 -383 -401 -405 -415 -430 -441 -455 0
-10 -24 -26 -41 -51 -61 -75 -86 -106 -112 -126 -132 -145 -159 -163 -175 -191 -203 -211 -221 -231 -242 -252 -275 -284 -293 -308 -309 -323 -336 -352 -357 -373 -384 -397 -408 -417 -433 -435 -452 0
-3 -19 -26 -41 -56 -69 -81 -91 -106 -111 -127 -130 -145 -155 -171 -179 -189 -195 -213 -221 -237 -248 -256 -268 -286 -297 -298 -311 -332 -339 -350 -361 -373 -386 -399 -403 -419 -431 -443 -449 0
-6 -15 -26 -47 -56 -69 -75 -91 -106 -113 -121 -137 -145 -151 -168 -175 -189 -204 -210 -221 -228 -242 -253 -270 -285 -292 -298 -309 -330 -343 -349 -363 -369 -388 -392 -409 -418 -430 -438 -446 0
-11 -25 -26 -43 -50 -61 -76 -92 -104 -111 -122 -131 -145 -156 -166 -179 -188 -202 -208 -220 -239 -250 -254 -265 -284 -291 -303 -319 -327 -334 -353 -355 -369 -382 -391 -406 -415 -429 -436 -450 0
-5 -24 -26 -44 -50 -67 -76 -94 -101 -109 -126 -136 -145 -151 -166 -176 -184 -195 -212 -217 -233 -243 -259 -272 -284 -291 -303 -319 -331 -336 -344 -358 -368 -386 -398 -402 -418 -432 -443 -454 0
-3 -24 -26 -41 -55 -68 -83 -88 -104 -111 -119 -137 -145 -155 -168 -173 -186 -204 -207 -219 -234 -245 -263 -270 -280 -292 -305 -315 -330 -338 -354 -363 -366 -386 -392 -410 -414 -428 -444 -455 0
-11 -16 -26 -44 -53 -62 -77 -93 -100 -112 -119 -131 -146 -161 -172 -174 -189 -197 -210 -224 -238 -240 -259 -269 -277 -294 -304 -315 -331 -336 -348 -357 -366 -379 -395 -407 -421 -427 -435 -452 0
-8 -23 -26 -44 -51 -64 -82 -87 -96 -109 -128 -136 -146 -154 -163 -176 -189 -201 -216 -226 -235 -244 -260 -269 -276 -287 -305 -316 -330 -336 -354 -360 -372 -383 -401 -407 -421 -432 -445 -456 0
-7 -25 -26 -46 -51 -61 -79 -90 -97 -116 -121 -136 -146 -154 -163 -176 -191 -201 -211 -226 -237 -246 -256 -275 -283 -287 -299 -320 -324 -340 -351 -361 -376 -385 -398 -404 -415 -434 -436 -452 0
-2 -25 -26 -38 -57 -64 -77 -92 -100 -113 -121 -138 -146 -160 -170 -177 -192 -196 -212 -218 -230 -250 -257 -269 -281 -287 -303 -319 -327 -336 -353 -357 -375 -381 -397 -402 -421 -434 -436 -452 0
-3 -22 -26 -41 -54 -69 -81 -85 -106 -111 -122 -138 -146 -156 -165 -181 -190 -195 -216 -218 -232 -248 -252 -274 -281 -297 -306 -312 -322 -339 -351 -361 -374 -388 -397 -411 -415 -431 -442 -456 0
-8 -18 -26 -43 -49 -70 -83 -88 -104 -116 -121 -130 -147 -154 -163 -175 -184 -204 -213 -220 -234 -250 -263 -270 -283 -295 -305 -312 -324 -342 -354 -355 -372 -382 -397 -412 -420 -431 -435 -450 0
-9 -23 -26 -41 -51 -64 -83 -93 -98 -108 -127 -131 -147 -154 -163 -175 -184 -201 -213 -227 -231 -246 -260 -274 -279 -297 -304 -316 -331 -336 -354 -360 -372 -383 -394 -412 -421 -428 -442 -455 0
-4 -18 -26 -41 -55 -71 -77 -93 -101 -108 -128 -131 -147 -160 -170 -175 -189 -195 -206 -217 -231 -246 -260 -270 -285 -287 -306 -316 -324 -343 -354 -357 -372 -383 -400 -402 -415 -429 -435 -452 0
-8 -17 -26 -39 -55 -71 -83 -88 -104 -115 -120 -132 -147 -151 -164 -173 -190 -203 -213 -218 -229 -247 -261 -274 -279 -291 -305 -316 -321 -337 -350 -363 -377 -379 -396 -409 -423 -427 -439 -450 0
-2 -17 -26 -41 -58 -63 -80 -94 -105 -112 -121 -134 -147 -158 -164 -173 -189 -204 -212 -222 -235 -243 -263 -272 -285 -295 -303 -312 -321 -342 -354 -361 -371 -386 -394 -411 -420 -432 -436 -454 0
-7 -17 -26 -42 -51 -61 -80 -87 -105 -117 -120 -134 -147 -160 -169 -174 -184 -200 -207 -219 -233 -249 -263 -270 -277 -293 -306 -320 -329 -338 -344 -358 -368 -384 -396 -408 -414 -430 -437 -454 0
-9 -19 -26 -39 -49 -72 -75 -89 -98 -116 -125 -137 -147 -151 -164 -180 -192 -198 -207 -224 -231 -243 -262 -273 -276 -293 -304 -316 -322 -336 -344 -358 -371 -386 -396 -408 -422 -425 -445 -450 0
-3 -25 -26 -39 -54 -62 -81 -91 -96 -112 -125 -138 -147 -157 -163 -180 -193 -201 -211 -222 -238 -248 -256 -275 -279 -295 -300 -313 -329 -341 -349 -357 -366 -389 -399 -410 -418 -425 -441 -448 0
-8 -16 -26 -38 -51 -68 -80 -91 -106 -112 -127 -130 -148 -152 -169 -180 -193 -198 -211 -220 -229 -242 -255 -275 -282 -291 -308 -311 -331 -340 -353 -359 -371 -381 -394 -411 -419 -426 -443 -454 0
-5 -15 -26 -40 -54 -61 -82 -91 -104 -117 -124 -132 -148 -157 -166 -177 -192 -202 -216 -224 -238 -240 -254 -265 -284 -290 -308 -314 -324 -343 -351 -355 -376 -382 -399 -409 -414 -425 -436 -448 0
-3 -19 -26 -38 -55 -71 -76 -90 -104 -117 -122 -135 -148 -151 -167 -182 -193 -202 -208 -220 -236 -241 -256 -264 -279 -295 -302 -311 -324 -341 -348 -363 -371 -385 -395 -403 -419 -432 -440 -455 0
-2 -21 -26 -47 -50 -65 -75 -93 -100 -112 -128 -135 -148 -158 -164 -182 -186 -204 -213 -222 -234 -243 -252 -272 -286 -289 -304 -314 -324 -335 -354 -364 -375 -379 -401 -408 -421 -431 -435 -450 0
-6 -15 -26 -47 -54 -67 -75 -93 -102 -110 -124 -139 -148 -151 -164 -182 -187 -200 -214 -224 -237 -240 -253 -271 -280 -290 -304 -320 -328 -342 -348 -362 -371 -383 -401 -404 -416 -429 -442 -451 0
-6 -21 -26 -46 -54 -62 -76 -93 -96 -110 -128 -135 -149 -152 -172 -181 -185 -203 -211 -219 -230 -246 -262 -271 -279 -289 -301 -320 -329 -341 -347 -359 -376 -389 -391 -407 -421 -431 -440 -448 0
-6 -21 -26 -41 -50 -70 -79 -93 -103 -111 -128 -130 -149 -152 -172 -174 -189 -204 -209 -222 -232 -242 -259 -272 -285 -294 -298 -314 -322 -343 -347 -358 -378 -380 -393 -411 -414 -431 -435 -454 0
-6 -16 -26 -38 -49 -68 -77 -91 -96 -113 -126 -136 -149 -161 -167 -173 -192 -199 -208 -226 -235 -245 -254 -265 -286 -292 -300 -315 -331 -337 -354 -359 -366 -386 -394 -403 -414 -428 -439 -456 0
-6 -22 -26 -42 -57 -67 -75 -89 -98 -115 -119 -131 -149 -161 -169 -173 -187 -200 -208 -224 -233 -244 -263 -265 -277 -290 -298 -309 -328 -342 -348 -362 -371 -386 -392 -404 -416 -428 -437 -455 0
-11 -22 -26 -38 -55 -69 -76 -85 -101 -109 -122 -132 -150 -158 -163 -182 -188 -197 -211 -219 -239 -240 -254 -270 -284 -289 -298 -312 -331 -339 -349 -364 -378 -389 -396 -410 -420 -428 -441 -447 0
-11 -15 -26 -39 -56 -69 -76 -91 -101 -111 -123 -132 -150 -151 -165 -178 -187 -196 -206 -225 -230 -249 -262 -265 -282 -287 -302 -318 -326 -336 -350 -364 -371 -385 -398 -406 -415 -427 -443 -454 0
-2 -24 -26 -41 -51 -68 -81 -90 -104 -112 -121 -134 -150 -154 -170 -175 -189 -202 -212 -220 -232 -246 -252 -272 -278 -292 -302 -317 -323 -341 -354 -359 -371 -381 -394 -411 -415 -434 -436 -452 0
-10 -24 -26 -38 -54 -63 -78 -89 -96 -115 -120 -132 -150 -156 -166 -176 -184 -195 -210 -225 -239 -242 -260 -273 -278 -289 -300 -316 -331 -340 -349 -358 -378 -388 -396 -406 -420 -433 -439 -450 0
-2 -18 -26 -38 -59 -68 -81 -90 -101 -113 -125 -132 -150 -159 -164 -173 -192 -200 -208 -224 -231 -251 -261 -271 -285 -287 -304 -313 -326 -343 -349 -365 -373 -382 -397 -408 -414 -428 -436 -455 0
-9 -17 -26 -46 -51 -71 -79 -87 -101 -113 -120 -136 -150 -151 -164 -179 -187 -199 -207 -225 -238 -248 -252 -273 -278 -295 -302 -311 -325 -339 -347 -358 -373 -385 -401 -404 -414 -427 -442 -451 0
-12 -19 -27 -39 -58 -69 -78 -92 -99 -113 -127 -131 -145 -153 -162 -179 -191 -197 -211 -226 -237 -244 -260 -269 -278 -292 -298 -319 -330 -335 -353 -361 -378 -384 -397 -412 -420 -426 -439 -453 0
-9 -18 -27 -45 -52 -62 -79 -89 -106 -116 -118 -137 -141 -153 -170 -175 -185 -205 -206 -220 -230 -246 -258 -271 -283 -293 -307 -319 -330 -339 -346 -358 -366 -385 -398 -405 -415 -426 -441 -449 0
-12 -18 -27 -47 -49 -68 -76 -93 -103 -112 -126 -133 -146 -153 -164 -176 -188 -202 -211 -224 -237 -250 -255 -264 -283 -297 -298 -319 -331 -335 -350 -365 -372 -384 -396 -412 -421 -429 -437 -450 0
-5 -22 -27 -46 -53 -67 -82 -84 -101 -114 -120 -139 -142 -158 -169 -183 -185 -199 -206 -224 -229 -249 -257 -266 -281 -293 -306 -313 -323 -340 -348 -365 -377 -381 -394 -407 -415 -427 -444 -449 0
-7 -22 -27 -38 -59 -72 -81 -86 -103 -114 -118 -132 -146 -155 -162 -181 -189 -196 -210 -220 -236 -251 -253 -274 -282 -288 -304 -309 -331 -337 -349 -364 -376 -382 -395 -403 -422 -433 -435 -451 0
-3 -19 -27 -48 -58 -66 -79 -84 -99 -114 -122 -134 -149 -157 -169 -178 -187 -196 -206 -224 -237 -241 -255 -271 -286 -288 -302 -314 -331 -335 -344 -365 -377 -389 -401 -405 -423 -427 -440 -452 0
-6 -21 -27 -46 -53 -71 -75 -93 -98 -107 -124 -139 -145 -152 -172 -180 -187 -205 -210 -217 -234 -243 -261 -267 -283 -290 -305 -310 -332 -339 -353 -359 -374 -383 -398 -405 -415 -429 -444 -450 0
-3 -17 -27 -42 -51 -64 -83 -92 -105 -113 -118 -136 -148 -159 -167 -180 -192 -204 -209 -218 -238 -251 -253 -269 -276 -293 -304 -310 -325 -338 -344 -358 -378 -387 -401 -408 -416 -425 -438 -452 0
-8 -23 -27 -44 -52 -67 -83 -93 -98 -111 -127 -129 -141 -155 -162 -178 -186 -196 -213 -224 -232 -248 -263 -265 -285 -295 -300 -310 -321 -336 -348 -360 -372 -389 -400 -407 -416 -428 -444 -455 0
-12 -24 -27 -40 -54 -63 -79 -89 -104 -109 -121 -133 -146 -160 -164 -179 -185 -204 -210 -220 -236 -245 -252 -265 -281 -294 -302 -310 -324 -339 -344 -365 -369 -383 -398 -411 -420 -426 -441 -450 0
-11 -22 -27 -45 -51 -64 -78 -86 -102 -110 -118 -133 -150 -158 -172 -177 -185 -200 -209 -224 -231 -242 -261 -274 -276 -287 -299 -318 -332 -333 -348 -359 -374 -389 -397 -405 -423 -428 -436 -448 0
-11 -22 -27 -43 -53 -63 -80 -87 -99 -109 -128 -129 -145 -156 -172 -181 -184 -201 -208 -222 -238 -247 -257 -266 -279 -297 -300 -319 -328 -333 -348 -362 -374 -382 -390 -405 -423 -429 -438 -456 0
-3 -19 -27 -41 -55 -68 -83 -90 -100 -116 -125 -133 -140 -160 -169 -181 -186 -195 -212 -219 -239 -243 -252 -269 -281 -287 -301 -318 -329 -333 -346 -363 -372 -385 -400 -405 -419 -434 -437 -454 0
-7 -16 -27 -39 -59 -60 -75 -92 -97 -115 -128 -136 -145 -159 -170 -179 -184 -195 -211 -225 -231 -250 -260 -266 -278 -296 -300 -316 -328 -333 -350 -359 -377 -387 -396 -412 -421 -429 -437 -455 0
-8 -17 -27 -40 -56 -60 -78 -87 -105 -114 -122 -137 -141 -161 -168 -174 -194 -200 -207 -219 -232 -240 -254 -275 -282 -291 -305 -316 -330 -333 -352 -358 -366 -380 -396 -404 -423 -428 -445 -451 0
-3 -25 -27 -44 -51 -64 -75 -91 -102 -116 -118 -136 -148 -158 -167 -174 -191 -204 -214 -227 -231 -250 -253 -267 -280 -297 -305 -317 -327 -333 -349 -358 -376 -380 -393 -410 -421 -434 -435 -451 0
-10 -18 -27 -40 -53 -60 -77 -91 -105 -110 -128 -133 -148 -152 -169 -181 -185 -197 -213 -223 -230 -244 -253 -275 -280 -293 -300 -319 -327 -333 -350 -364 -369 -380 -399 -411 -423 -426 -438 -453 0
-12 -22 -27 -38 -57 -70 -76 -90 -100 -112 -127 -131 -142 -159 -169 -179 -186 -198 -207 -218 -234 -242 -256 -273 -276 -291 -304 -312 -325 -336 -345 -365 -376 -380 -401 -408 -418 -430 -435 -454 0
-4 -21 -27 -47 -52 -72 -81 -84 -100 -114 -123 -135 -141 -157 -168 -175 -194 -200 -210 -217 -229 -251 -252 -269 -284 -297 -301 -318 -329 -335 -345 -359 -376 -382 -393 -406 -423 -431 -435 -454 0
-8 -24 -27 -44 -51 -67 -73 -88 -99 -109 -121 -136 -150 -160 -164 -181 -185 -198 -216 -224 -229 -240 -257 -272 -281 -291 -301 -316 -324 -341 -345 -355 -369 -382 -390 -411 -416 -432 -442 -447 0
-5 -13 -27 -40 -57 -66 -79 -94 -97 -113 -121 -138 -146 -160 -167 -176 -193 -205 -208 -222 -228 -248 -254 -275 -279 -294 -308 -313 -325 -343 -351 -356 -372 -385 -390 -409 -419 -432 -442 -451 0
-8 -18 -27 -48 -58 -69 -73 -91 -99 -112 -121 -135 -149 -152 -172 -175 -191 -200 -208 -217 -231 -249 -258 -272 -285 -292 -302 -313 -323 -342 -354 -356 -377 -389 -395 -410 -418 -425 -436 -452 0
-5 -22 -27 -42 -58 -65 -82 -86 -101 -107 -125 -132 -150 -159 -171 -174 -186 -200 -207 -227 -230 -248 -258 -269 -284 -297 -302 -318 -326 -335 -354 -356 -370 -384 -396 -408 -416 -425 -437 -450 0
-5 -21 -27 -47 -49 -64 -80 -84 -102 -110 -126 -135 -150 -158 -168 -182 -184 -197 -208 -222 -234 -241 -263 -273 -277 -295 -298 -314 -329 -337 -351 -356 -369 -382 -393 -410 -419 -424 -435 -448 0
-7 -24 -27 -48 -54 -60 -79 -93 -99 -109 -121 -134 -148 -155 -168 -181 -190 -197 -209 -217 -239 -247 -252 -265 -280 -293 -300 -314 -321 -337 -352 -356 -374 -389 -401 -407 -416 -431 -439 -446 0
-12 -17 -27 -47 -49 -68 -77 -88 -102 -114 -126 -134 -142 -155 -169 -179 -187 -199 -213 -219 -234 -241 -252 -273 -277 -292 -306 -320 -330 -337 -347 -361 -367 -380 -397 -408 -417 -430 -439 -456 0
-12 -17 -27 -40 -56 -65 -82 -91 -97 -114 -123 -132 -148 -155 -171 -179 -191 -203 -210 -221 -229 -242 -261 -267 -281 -297 -300 -317 -332 -339 -352 -361 -367 -380 -396 -408 -421 -425 -441 -450 0
-1 -20 -28 -40 -58 -69 -78 -92 -103 -110 -122 -139 -149 -154 -172 -180 -188 -198 -208 -226 -237 -244 -258 -268 -283 -291 -305 -313 -332 -337 -353 -356 -366 -384 -393 -405 -413 -426 -445 -456 0
-1 -18 -28 -47 -57 -65 -79 -87 -101 -117 -123 -134 -148 -154 -172 -177 -186 -203 -213 -219 -238 -247 -261 -270 -278 -288 -307 -314 -330 -341 -347 -363 -378 -388 -397 -407 -422 -429 -442 -448 0
-8 -25 -28 -45 -58 -61 -78 -92 -101 -116 -122 -132 -140 -154 -166 -174 -194 -203 -209 -220 -239 -241 -259 -273 -282 -288 -305 -316 -326 -340 -344 -363 -372 -381 -396 -402 -422 -427 -438 -452 0
-9 -18 -28 -48 -59 -61 -74 -88 -102 -114 -118 -135 -148 -154 -172 -177 -190 -202 -209 -220 -228 -249 -260 -274 -278 -296 -305 -317 -324 -338 -348 -364 -367 -379 -395 -409 -419 -426 -438 -448 0
-8 -13 -28 -46 -51 -69 -78 -85 -101 -116 -128 -132 -147 -154 -167 -174 -194 -203 -209 -227 -235 -245 -261 -268 -276 -294 -300 -310 -330 -336 -349 -362 -378 -385 -394 -404 -422 -428 -443 -451 0
-11 -18 -28 -42 -56 -64 -73 -89 -96 -114 -121 -134 -150 -154 -172 -181 -189 -196 -212 -225 -231 -246 -252 -274 -278 -293 -307 -313 -329 -339 -347 -356 -374 -388 -394 -411 -421 -426 -445 -452 0
-6 -20 -28 -43 -58 -72 -73 -87 -96 -114 -123 -135 -149 -154 -163 -182 -193 -198 -212 -225 -239 -244 -252 -272 -280 -291 -303 -319 -325 -343 -354 -362 -367 -382 -395 -411 -413 -425 -438 -454 0
-6 -23 -28 -37 -56 -65 -74 -91 -96 -114 -127 -139 -145 -154 -172 -178 -194 -203 -209 -221 -233 -243 -259 -264 -282 -295 -305 -309 -332 -338 -349 -359 -367 -381 -398 -407 -416 -427 -438 -454 0
-6 -25 -28 -37 -50 -68 -82 -89 -103 -108 -125 -134 -148 -154 -166 -180 -193 -199 -208 -226 -236 -251 -253 -267 -282 -293 -299 -317 -324 -338 -353 -355 -367 -383 -400 -408 -417 -433 -444 -451 0
-6 -20 -28 -37 -54 -69 -82 -92 -106 -115 -119 -134 -142 -154 -168 -183 -193 -195 -208 -219 -232 -246 -262 -270 -276 -294 -299 -318 -326 -340 -346 -361 -378 -384 -395 -411 -419 -431 -440 -449 0
-6 -20 -28 -45 -54 -60 -82 -91 -98 -115 -124 -130 -150 -154 -172 -182 -185 -204 -213 -222 -232 -244 -252 -270 -283 -293 -300 -313 -330 -333 -354 -360 -377 -381 -390 -411 -414 -426 -441 -449 0
-5 -14 -28 -44 -58 -71 -83 -88 -95 -114 -123 -132 -146 -157 -170 -173 -187 -199 -211 -224 -235 -241 -255 -272 -285 -292 -302 -313 -330 -342 -353 -365 -366 -379 -390 -411 -417 -428 -441 -449 0
-7 -17 -28 -39 -59 -67 -81 -84 -104 -108 -123 -139 -147 -153 -167 -173 -188 -202 -216 -218 -236 -249 -262 -267 -277 -291 -306 -317 -329 -343 -344 -362 -371 -384 -393 -411 -420 -431 -439 -448 0
-10 -17 -28 -39 -50 -67 -81 -88 -102 -108 -127 -129 -145 -161 -172 -173 -187 -203 -213 -218 -234 -246 -262 -267 -277 -292 -300 -315 -331 -333 -344 -363 -374 -388 -398 -411 -420 -430 -439 -447 0
-11 -22 -28 -43 -51 -66 -75 -88 -106 -113 -121 -136 -140 -151 -166 -175 -188 -204 -212 -220 -228 -242 -253 -274 -278 -289 -305 -317 -327 -333 -349 -363 -370 -379 -396 -409 -421 -434 -438 -447 0
-7 -21 -28 -46 -51 -60 -79 -93 -103 -116 -121 -133 -150 -151 -163 -178 -193 -197 -213 -219 -228 -248 -254 -274 -280 -289 -305 -309 -327 -338 -345 -364 -374 -382 -394 -404 -419 -428 -442 -453 0
-7 -25 -28 -39 -58 -67 -75 -92 -103 -108 -125 -129 -149 -153 -170 -177 -189 -201 -215 -225 -231 -243 -256 -266 -283 -289 -300 -309 -324 -343 -348 -363 -375 -386 -395 -402 -413 -425 -437 -456 0
-12 -14 -28 -44 -51 -71 -80 -90 -98 -113 -126 -133 -146 -156 -167 -181 -192 -197 -210 -221 -228 -241 -255 -271 -285 -289 -304 -316 -327 -343 -344 -361 -376 -379 -401 -409 -421 -428 -442 -452 0
-4 -13 -28 -48 -55 -63 -81 -89 -103 -108 -124 -136 -149 -156 -166 -181 -190 -199 -215 -225 -231 -240 -260 -266 -286 -289 -300 -318 -329 -333 -348 -361 -377 -388 -396 -412 -422 -425 -439 -447 0
-12 -23 -28 -39 -56 -62 -76 -93 -103 -112 -119 -138 -142 -159 -163 -178 -187 -203 -212 -220 -228 -244 -259 -274 -277 -289 -305 -317 -324 -338 -353 -361 -367 -383 -401 -404 -417 -430 -443 -452 0
-4 -22 -28 -40 -59 -66 -80 -94 -100 -113 -119 -137 -140 -159 -171 -179 -189 -198 -209 -220 -229 -248 -254 -275 -284 -289 -306 -310 -321 -338 -354 -359 -372 -387 -391 -408 -416 -426 -440 -446 0
-5 -25 -28 -41 -56 -64 -80 -90 -95 -116 -121 -130 -146 -160 -169 -178 -193 -195 -208 -222 -232 -242 -258 -268 -286 -289 -301 -320 -328 -333 -351 -355 -370 -381 -400 -404 -419 -433 -437 -449 0
-7 -13 -28 -48 -55 -71 -79 -87 -100 -114 -123 -130 -143 -160 -165 -175 -189 -203 -216 -217 -238 -243 -261 -264 -282 -289 -305 -315 -324 -343 -354 -363 -373 -381 -397 -407 -421 -434 -435 -449 0
-5 -20 -28 -37 -55 -61 -80 -94 -101 -110 -126 -135 -149 -158 -172 -182 -190 -202 -208 -220 -236 -246 -261 -266 -276 -296 -303 -311 -324 -337 -345 -362 -372 -384 -390 -406 -419 -426 -442 -453 0
-4 -13 -28 -48 -52 -61 -78 -89 -105 -114 -122 -137 -147 -158 -165 -178 -192 -202 -212 -219 -239 -240 -254 -273 -285 -288 -306 -311 -330 -337 -353 -361 -378 -388 -394 -408 -422 -426 -439 -456 0
-1 -20 -28 -47 -55 -63 -80 -87 -101 -115 -128 -135 -143 -158 -172 -182 -185 -204 -212 -225 -236 -242 -257 -267 -280 -294 -302 -311 -332 -337 -350 -362 -377 -383 -396 -408 -417 -432 -441 -447 0
-5 -20 -28 -40 -56 -70 -83 -93 -105 -107 -123 -132 -146 -151 -163 -182 -188 -197 -212 -221 -235 -249 -254 -264 -283 -288 -302 -311 -331 -342 -350 -360 -377 -385 -390 -404 -418 -432 -441 -453 0
-12 -20 -28 -38 -56 -63 -77 -88 -96 -115 -127 -136 -146 -153 -171 -179 -193 -196 -214 -225 -233 -245 -254 -268 -278 -295 -303 -311 -325 -342 -349 -359 -378 -384 -397 -407 -420 -424 -444 -451 0
-4 -13 -28 -48 -57 -70 -78 -88 -102 -108 -122 -138 -147 -158 -169 -180 -188 -196 -216 -220 -234 -249 -258 -266 -276 -293 -304 -313 -322 -337 -354 -356 -373 -379 -399 -412 -421 -426 -437 -451 0
-1 -17 -28 -48 -50 -70 -79 -89 -100 -112 -127 -136 -145 -159 -166 -181 -191 -195 -209 -224 -239 -248 -262 -266 -278 -294 -300 -315 -322 -340 -353 -356 -375 -386 -399 -410 -414 -428 -439 -451 0
-12 -17 -28 -41 -59 -63 -79 -93 -103 -112 -126 -130 -142 -159 -163 -180 -190 -196 -214 -221 -237 -247 -262 -264 -277 -295 -305 -315 -322 -338 -345 -360 -373 -381 -401 -404 -419 -428 -437 -454 0
-4 -18 -28 -41 -59 -61 -77 -84 -104 -112 -126 -135 -150 -159 -162 -181 -190 -200 -216 -220 -236 -241 -256 -271 -285 -291 -304 -309 -329 -334 -346 -356 -377 -385 -391 -404 -419 -434 -437 -446 0
-10 -17 -28 -43 -58 -65 -73 -85 -100 -112 -121 -139 -149 -158 -171 -177 -185 -204 -209 -217 -239 -241 -259 -272 -281 -297 -303 -314 -332 -334 -352 -356 -375 -388 -390 -405 -417 -434 -436 -446 0
-10 -25 -28 -39 -58 -71 -78 -85 -98 -113 -118 -133 -145 -156 -172 -177 -189 -202 -208 -217 -231 -245 -261 -274 -283 -297 -300 -310 -327 -334 -351 -363 -374 -388 -400 -411 -422 -426 -439 -456 0
-6 -24 -28 -37 -55 -69 -77 -85 -102 -111 -128 -135 -142 -160 -172 -181 -187 -201 -208 -217 -236 -246 -256 -264 -281 -294 -301 -318 -324 -334 -347 -361 -367 -381 -393 -411 -419 -430 -441 -447 0
-11 -18 -28 -41 -57 -66 -73 -87 -101 -111 -124 -130 -146 -161 -163 -182 -189 -196 -212 -220 -228 -246 -263 -271 -277 -294 -302 -314 -330 -334 -351 -356 -370 -385 -401 -409 -419 -425 -437 -451 0
-11 -14 -28 -48 -52 -65 -75 -93 -98 -107 -122 -134 -147 -158 -172 -174 -190 -200 -213 -226 -228 -244 -261 -268 -280 -297 -305 -315 -332 -340 -352 -357 -373 -384 -397 -407 -420 -431 -439 -456 0
-6 -20 -28 -45 -54 -62 -83 -91 -105 -107 -119 -135 -148 -153 -170 -182 -187 -201 -206 -218 -230 -244 -260 -271 -280 -293 -307 -319 -330 -338 -354 -357 -371 -385 -401 -409 -419 -425 -438 -450 0
-9 -18 -28 -44 -59 -72 -80 -88 -102 -111 -118 -132 -148 -151 -169 -175 -186 -199 -207 -218 -228 -242 -259 -270 -284 -293 -307 -313 -327 -333 -344 -357 -376 -382 -391 -411 -423 -425 -436 -454 0
-1 -18 -28 -46 -53 -62 -80 -90 -101 -110 -128 -135 -149 -159 -169 -183 -189 -201 -207 -225 -231 -242 -261 -267 -278 -294 -300 -313 -332 -343 -351 -357 -372 -386 -391 -407 -417 -433 -444 -448 0
-12 -17 -28 -40 -57 -61 -77 -92 -102 -116 -122 -137 -146 -153 -171 -177 -187 -202 -212 -218 -236 -242 -256 -273 -281 -297 -303 -314 -331 -340 -352 -357 -378 -379 -390 -410 -420 -434 -436 -456 0
-9 -17 -28 -39 -56 -61 -81 -89 -104 -112 -118 -138 -150 -153 -170 -182 -187 -199 -213 -218 -228 -248 -256 -266 -282 -293 -300 -316 -330 -337 -353 -357 -378 -379 -390 -412 -417 -429 -436 -446 0
-8 -22 -28 -45 -51 -70 -74 -85 -106 -107 -127 -134 -143 -156 -170 -182 -189 -201 -207 -218 -236 -245 -257 -264 -277 -291 -307 -314 -331 -337 -352 -357 -374 -385 -401 -405 -418 -427 -441 -450 0
-5 -24 -28 -43 -58 -65 -80 -85 -101 -117 -124 -129 -145 -153 -162 -180 -193 -200 -214 -218 -239 -245 -257 -270 -280 -292 -300 -315 -332 -340 -344 -362 -368 -388 -400 -407 -417 -429 -436 -456 0
-8 -22 -28 -38 -51 -72 -80 -85 -105 -107 -126 -132 -146 -156 -163 -179 -187 -197 -206 -227 -236 -250 -254 -273 -281 -296 -302 -320 -330 -339 -345 -355 -368 -387 -395 -408 -419 -432 -444 -454 0
-4 -19 -28 -37 -55 -63 -80 -85 -103 -116 -124 -139 -148 -157 -167 -183 -194 -202 -206 -219 -232 -248 -254 -265 -284 -296 -298 -318 -327 -343 -344 -361 -368 -383 -393 -412 -416 -429 -436 -450 0
-5 -19 -28 -43 -58 -71 -76 -84 -104 -108 -124 -139 -145 -153 -162 -179 -187 -197 -215 -227 -237 -247 -259 -272 -278 -295 -306 -316 -324 -339 -349 -365 -368 -388 -399 -405 -417 -431 -445 -447 0
-5 -19 -28 -37 -55 -71 -76 -92 -106 -108 -125 -132 -145 -160 -162 -181 -189 -195 -208 -220 -236 -245 -258 -274 -286 -297 -303 -318 -324 -333 -348 -361 -368 -382 -395 -405 -419 -432 -440 -451 0
-12 -24 -28 -39 -56 -61 -78 -93 -102 -115 -123 -132 -143 -156 -165 -181 -189 -203 -212 -221 -230 -240 -259 -265 -278 -293 -299 -314 -329 -338 -350 -363 -368 -387 -397 -408 -417 -430 -437 -453 0
-6 -20 -28 -45 -54 -67 -73 -85 -105 -110 -124 -133 -148 -161 -172 -179 -185 -198 -214 -225 -230 -250 -256 -264 -280 -291 -299 -317 -332 -333 -352 -355 -368 -388 -397 -406 -416 -429 -444 -450 0
-4 -22 -28 -43 -52 -70 -76 -84 -96 -114 -122 -139 -149 -158 -165 -183 -194 -195 -212 -219 -228 -249 -254 -272 -281 -296 -298 -318 -327 -343 -344 -361 -368 -388 -394 -412 -418 -431 -439 -454 0
-3 -17 -29 -43 -52 -71 -76 -93 -106 -115 -123 -135 -140 -151 -163 -180 -193 -205 -212 -223 -232 -246 -252 -267 -283 -293 -299 -311 -327 -333 -350 -358 -366 -385 -400 -406 -415 -427 -441 -455 0
-3 -21 -29 -47 -54 -70 -79 -93 -101 -111 -119 -139 -140 -157 -163 -182 -184 -204 -209 -227 -233 -247 -259 -272 -279 -294 -301 -310 -324 -334 -350 -365 -375 -381 -394 -412 -413 -431 -435 -450 0
-7 -21 -29 -47 -49 -62 -79 -94 -103 -108 -121 -136 -140 -160 -163 -178 -184 -204 -209 -222 -231 -242 -262 -272 -286 -288 -301 -311 -325 -335 -344 -365 -375 -386 -390 -405 -422 -429 -443 -452 0
-4 -14 -29 -40 -55 -71 -77 -92 -104 -115 -128 -131 -140 -157 -168 -181 -189 -205 -206 -221 -229 -246 -256 -270 -286 -287 -303 -315 -327 -334 -350 -362 -370 -386 -391 -407 -415 -427 -436 -452 0
-9 -25 -29 -45 -49 -70 -74 -88 -96 -111 -127 -135 -140 -157 -168 -183 -187 -201 -207 -222 -238 -249 -254 -267 -278 -294 -301 -318 -324 -334 -350 -361 -369 -383 -391 -406 -415 -433 -441 -450 0
-2 -22 -29 -41 -58 -64 -80 -91 -106 -110 -123 -138 -140 -154 -169 -176 -184 -199 -216 -223 -232 -244 -255 -270 -284 -293 -306 -312 -325 -333 -354 -355 -370 -381 -400 -411 -414 -427 -441 -446 0
-7 -23 -29 -45 -55 -72 -75 -90 -95 -116 -124 -130 -141 -153 -162 -177 -192 -202 -211 -224 -239 -244 -255 -268 -285 -289 -301 -320 -323 -340 -344 -359 -373 -381 -392 -407 -422 -427 -436 -452 0
-7 -22 -29 -43 -58 -66 -82 -87 -96 -117 -118 -136 -141 -154 -171 -174 -188 -203 -207 -219 -234 -249 -258 -268 -286 -287 -302 -314 -330 -343 -351 -359 -367 -380 -390 -408 -418 -431 -439 -446 0
-8 -22 -29 -43 -58 -69 -82 -85 -106 -112 -121 -129 -141 -154 -167 -183 -186 -196 -207 -218 -238 -248 -252 -269 -284 -293 -307 -313 -327 -335 -344 -363 -371 -385 -394 -410 -421 -427 -435 -447 0
-4 -21 -29 -40 -56 -70 -80 -89 -103 -116 -118 -130 -141 -161 -171 -183 -191 -198 -210 -223 -229 -242 -257 -267 -283 -289 -301 -313 -321 -341 -350 -358 -376 -380 -391 -408 -421 -426 -437 -454 0
-10 -14 -29 -42 -58 -67 -82 -84 -101 -113 -121 -133 -141 -161 -168 -174 -189 -197 -210 -219 -238 -241 -252 -269 -286 -292 -304 -312 -322 -336 -351 -361 -366 -382 -391 -406 -416 -433 -442 -452 0
-1 -16 -29 -47 -56 -66 -78 -88 -99 -113 -126 -136 -141 -161 -168 -174 -194 -199 -207 -217 -232 -247 -257 -270 -286 -292 -302 -318 -330 -334 -345 -359 -366 -384 -396 -402 -415 -427 -438 -449 0
-3 -24 -29 -42 -55 -70 -73 -89 -104 -112 -128 -135 -143 -151 -168 -177 -186 -204 -212 -219 -229 -247 -255 -264 -279 -294 -301 -317 -325 -334 -346 -355 -375 -389 -390 -412 -421 -432 -435 -454 0
-9 -16 -29 -45 -53 -70 -82 -94 -96 -112 -118 -135 -143 -152 -172 -179 -192 -197 -208 -221 -235 -246 -261 -274 -277 -289 -307 -316 -327 -342 -346 -361 -374 -383 -398 -403 -423 -426 -435 -456 0
-8 -24 -29 -43 -56 -60 -80 -85 -101 -110 -126 -139 -143 -152 -164 -181 -192 -200 -208 -220 -239 -245 -253 -271 -282 -289 -304 -319 -323 -341 -346 -361 -373 -383 -401 -407 -413 -429 -435 -456 0
-10 -24 -29 -41 -50 -60 -78 -94 -103 -108 -120 -137 -143 -156 -172 -173 -186 -202 -210 -218 -237 -247 -260 -266 -279 -292 -302 -319 -325 -340 -351 -365 -366 -384 -399 -405 -415 -424 -438 -449 0
-1 -15 -29 -42 -50 -70 -80 -91 -106 -113 -127 -135 -143 -156 -170 -177 -187 -202 -211 -220 -236 -241 -258 -266 -285 -287 -308 -314 -329 -340 -352 -360 -377 -387 -400 -406 -420 -434 -444 -455 0
-3 -13 -29 -48 -55 -70 -79 -89 -105 -108 -123 -136 -143 -156 -167 -181 -192 -198 -206 -218 -235 -246 -257 -274 -286 -292 -302 -311 -331 -337 -350 -358 -377 -383 -392 -405 -423 -434 -437 -453 0
-11 -15 -29 -48 -52 -60 -77 -91 -96 -114 -121 -135 -143 -157 -164 -178 -188 -201 -206 -221 -235 -250 -253 -275 -284 -296 -305 -320 -327 -336 -344 -361 -369 -381 -398 -409 -423 -426 -438 -452 0
-3 -24 -29 -40 -55 -60 -79 -93 -106 -115 -123 -130 -143 -157 -172 -177 -189 -203 -206 -221 -235 -243 -256 -270 -284 -287 -303 -311 -327 -341 -346 -363 -378 -385 -397 -407 -415 -424 -437 -446 0
-11 -22 -29 -42 -52 -61 -80 -89 -106 -110 -118 -131 -143 -159 -162 -179 -189 -196 -208 -221 -231 -251 -253 -274 -284 -296 -299 -309 -324 -343 -349 -357 -369 -380 -400 -409 -417 -432 -435 -448 0
-7 -25 -29 -43 -56 -69 -73 -85 -105 -109 -123 -132 -143 -160 -169 -178 -186 -196 -216 -218 -233 -249 -254 -265 -282 -289 -302 -320 -324 -342 -344 -358 -375 -385 -397 -403 -416 -424 -438 -448 0
-9 -15 -29 -47 -52 -65 -83 -93 -98 -107 -119 -135 -143 -160 -164 -179 -186 -198 -215 -227 -228 -248 -261 -265 -280 -294 -307 -309 -328 -337 -348 -365 -369 -383 -400 -408 -418 -428 -443 -456 0
-1 -23 -29 -43 -50 -71 -77 -88 -102 -114 -120 -139 -147 -154 -166 -179 -188 -203 -216 -220 -229 -250 -259 -267 -278 -295 -303 -313 -328 -337 -354 -356 -369 -385 -391 -403 -423 -426 -442 -451 0
-4 -13 -29 -45 -52 -71 -78 -89 -103 -108 -120 -137 -147 -161 -162 -179 -189 -203 -210 -220 -235 -245 -256 -274 -286 -288 -304 -312 -322 -337 -354 -361 -373 -389 -391 -412 -422 -426 -443 -451 0
-8 -14 -29 -43 -58 -62 -82 -88 -95 -110 -125 -139 -147 -152 -163 -179 -191 -198 -214 -227 -237 -250 -257 -267 -281 -294 -304 -313 -328 -334 -353 -365 -369 -380 -399 -411 -419 -426 -445 -454 0
-7 -17 -29 -37 -50 -61 -77 -91 -104 -116 -120 -135 -148 -161 -167 -174 -194 -199 -213 -219 -228 -241 -263 -272 -277 -287 -306 -315 -327 -334 -350 -362 -367 -389 -399 -406 -421 -431 -438 -454 0
-12 -21 -29 -42 -57 -61 -74 -88 -102 -116 -120 -135 -148 -154 -169 -174 -187 -197 -211 -222 -228 -241 -256 -271 -284 -287 -306 -320 -331 -336 -348 -356 -378 -385 -390 -402 -415 -432 -438 -456 0
-9 -24 -29 -44 -52 -69 -73 -86 -98 -111 -128 -130 -148 -157 -163 -173 -192 -196 -210 -221 -237 -251 -258 -271 -277 -288 -302 -318 -321 -339 -350 -363 -369 -380 -397 -409 -418 -424 -437 -447 0
-7 -13 -29 -47 -49 -66 -78 -92 -104 -111 -119 -132 -148 -161 -162 -180 -188 -203 -212 -219 -239 -243 -257 -274 -281 -288 -308 -312 -327 -334 -349 -362 -374 -382 -394 -402 -423 -431 -437 -453 0
-3 -13 -29 -47 -53 -66 -78 -93 -99 -112 -119 -135 -148 -161 -167 -180 -186 -199 -209 -227 -236 -240 -255 -269 -285 -288 -304 -314 -328 -334 -354 -360 -369 -387 -391 -408 -419 -430 -445 -447 0
-10 -14 -29 -42 -52 -62 -82 -89 -106 -109 -121 -129 -148 -159 -171 -180 -193 -200 -207 -218 -236 -251 -256 -268 -279 -293 -304 -311 -324 -343 -344 -360 -378 -381 -392 -407 -416 -424 -437 -455 0
-12 -20 -29 -42 -52 -67 -79 -86 -104 -116 -119 -133 -148 -153 -164 -174 -191 -204 -214 -226 -228 -245 -258 -268 -280 -297 -305 -315 -332 -335 -352 -357 -374 -386 -394 -407 -420 -432 -439 -456 0
-9 -14 -29 -40 -50 -70 -73 -89 -104 -111 -124 -131 -149 -161 -172 -173 -188 -202 -212 -218 -236 -250 -256 -268 -279 -294 -302 -314 -325 -336 -344 -365 -375 -387 -398 -403 -416 -432 -440 -451 0
-10 -13 -29 -40 -53 -66 -74 -91 -106 -108 -120 -137 -149 -154 -171 -174 -187 -203 -213 -223 -237 -244 -263 -268 -280 -294 -307 -314 -332 -341 -349 -356 -369 -380 -400 -409 -423 -428 -440 -446 0
-4 -14 -29 -41 -54 -70 -73 -91 -104 -112 -128 -135 -149 -152 -169 -179 -186 -198 -213 -222 -229 -247 -256 -273 -286 -292 -307 -315 -323 -337 -346 -357 -378 -389 -401 -410 -414 -427 -435 -456 0
-4 -20 -29 -43 -56 -72 -81 -85 -103 -114 -120 -129 -149 -156 -172 -182 -192 -201 -210 -221 -237 -240 -257 -271 -277 -289 -302 -312 -331 -333 -353 -363 -373 -388 -390 -403 -419 -426 -438 -450 0
-1 -20 -29 -47 -52 -69 -78 -87 -103 -109 -124 -137 -150 -154 -163 -179 -194 -198 -216 -220 -235 -248 -256 -273 -280 -287 -302 -316 -330 -337 -353 -365 -367 -380 -401 -406 -418 -429 -443 -456 0
-1 -15 -29 -44 -57 -70 -74 -91 -105 -113 -123 -133 -150 -156 -170 -182 -187 -197 -211 -224 -233 -241 -259 -272 -277 -292 -302 -317 -331 -337 -353 -356 -369 -389 -395 -402 -416 -428 -437 -451 0
-2 -21 -29 -41 -56 -69 -75 -84 -101 -110 -123 -138 -150 -160 -166 -183 -186 -203 -210 -217 -228 -244 -261 -274 -278 -292 -305 -312 -332 -337 -353 -357 -370 -386 -391 -410 -415 -427 -441 -453 0
-5 -13 -30 -46 -56 -66 -82 -89 -104 -108 -121 -134 -141 -161 -162 -183 -187 -201 -213 -218 -234 -246 -257 -274 -283 -289 -302 -312 -324 -342 -347 -362 -374 -389 -398 -402 -419 -431 -437 -447 0
-5 -21 -30 -44 -49 -65 -77 -84 -96 -114 -127 -132 -148 -161 -165 -180 -194 -198 -216 -223 -230 -248 -253 -264 -278 -290 -298 -318 -330 -337 -354 -357 -367 -389 -391 -407 -421 -427 -440 -449 0
-5 -21 -30 -42 -50 -69 -73 -85 -105 -117 -124 -131 -148 -157 -163 -183 -184 -200 -214 -217 -233 -249 -259 -274 -279 -296 -307 -313 -330 -338 -351 -357 -366 -386 -395 -404 -418 -432 -443 -454 0
-5 -22 -30 -37 -57 -70 -77 -91 -102 -117 -121 -130 -149 -152 -172 -174 -189 -204 -215 -220 -230 -248 -258 -269 -280 -296 -300 -312 -322 -333 -349 -364 -375 -387 -395 -404 -421 -433 -441 -450 0
-5 -13 -30 -47 -49 -68 -76 -90 -98 -114 -119 -134 -150 -160 -167 -173 -188 -198 -215 -220 -230 -249 -255 -275 -283 -293 -307 -310 -323 -338 -354 -359 -371 -384 -392 -408 -417 -434 -440 -452 0
-8 -18 -30 -37 -56 -72 -75 -93 -96 -109 -126 -134 -149 -153 -164 -181 -186 -200 -206 -224 -239 -243 -259 -272 -285 -291 -303 -319 -321 -343 -346 -358 -368 -384 -401 -407 -413 -430 -437 -454 0
-1 -18 -30 -47 -57 -66 -79 -86 -98 -113 -126 -134 -150 -154 -172 -179 -186 -205 -211 -218 -233 -248 -259 -267 -284 -291 -308 -309 -329 -336 -345 -358 -377 -388 -397 -408 -418 -430 -445 -452 0
-9 -18 -30 -38 -53 -61 -79 -93 -105 -110 -128 -129 -141 -160 -163 -183 -186 -205 -209 -222 -228 -242 -258 -273 -283 -287 -305 -315 -326 -342 -353 -357 -370 -382 -392 -408 -419 -432 -444 -450 0
-12 -18 -30 -45 -55 -71 -79 -90 -98 -113 -119 -131 -143 -160 -167 -175 -188 -205 -208 -220 -230 -241 -260 -273 -276 -287 -303 -311 -332 -342 -351 -359 -372 -381 -392 -412 -413 -432 -440 -447 0
-10 -18 -30 -48 -49 -65 -77 -84 -96 -110 -127 -134 -143 -160 -172 -181 -184 -196 -208 -223 -231 -242 -260 -274 -280 -294 -300 -320 -331 -334 -349 -358 -366 -384 -395 -407 -421 -433 -440 -454 0
-3 -18 -30 -44 -53 -60 -80 -94 -103 -116 -119 -134 -143 -160 -171 -177 -186 -203 -212 -219 -237 -247 -263 -265 -278 -294 -308 -312 -326 -341 -346 -357 -377 -383 -400 -412 -413 -426 -437 -453 0
-10 -24 -30 -43 -51 -72 -76 -84 -99 -109 -126 -130 -142 -158 -168 -177 -185 -195 -211 -219 -237 -240 -263 -268 -277 -289 -298 -316 -330 -341 -345 -358 -376 -386 -396 -403 -422 -433 -435 -448 0
-8 -22 -30 -45 -51 -70 -83 -86 -99 -107 -121 -134 -149 -151 -163 -173 -187 -197 -212 -223 -230 -248 -256 -273 -285 -287 -298 -310 -326 -337 -349 -364 -376 -387 -401 -410 -415 -433 -441 -455 0
-1 -21 -30 -44 -51 -69 -76 -86 -106 -110 -127 -133 -145 -160 -170 -175 -187 -195 -211 -220 -236 -246 -255 -266 -285 -287 -308 -313 -329 -334 -352 -356 -377 -386 -391 -406 -419 -431 -442 -455 0
-9 -24 -30 -45 -51 -72 -79 -84 -97 -113 -119 -137 -142 -154 -172 -179 -185 -203 -210 -219 -237 -240 -257 -271 -279 -291 -303 -313 -330 -337 -354 -363 -367 -389 -396 -408 -414 -428 -445 -455 0
-1 -24 -30 -45 -51 -72 -79 -86 -102 -110 -126 -134 -143 -158 -168 -179 -188 -197 -216 -219 -230 -247 -253 -273 -278 -296 -303 -315 -323 -337 -346 -357 -374 -389 -401 -407 -413 -432 -445 -456 0
-1 -16 -30 -42 -51 -67 -81 -92 -104 -109 -128 -138 -143 -157 -168 -177 -185 -205 -216 -223 -229 -249 -258 -269 -277 -297 -305 -316 -326 -342 -346 -357 -374 -386 -390 -407 -422 -432 -444 -453 0
-1 -21 -30 -42 -51 -65 -81 -92 -104 -109 -121 -138 -143 -161 -165 -175 -191 -195 -211 -218 -236 -250 -263 -269 -277 -287 -305 -316 -330 -337 -352 -357 -370 -381 -396 -412 -421 -432 -435 -450 0
-12 -23 -30 -43 -49 -63 -79 -93 -103 -116 -119 -132 -143 -157 -164 -179 -194 -198 -211 -222 -235 -248 -255 -265 -276 -287 -303 -311 -326 -336 -350 -361 -378 -385 -396 -406 -419 -425 -439 -450 0
-10 -15 -30 -47 -50 -61 -76 -94 -100 -115 -118 -134 -143 -158 -164 -182 -189 -204 -213 -222 -228 -251 -257 -265 -283 -293 -299 -313 -323 -342 -350 -364 -378 -387 -397 -408 -417 -434 -436 -449 0
-10 -14 -30 -43 -53 -62 -81 -94 -100 -116 -121 -129 -145 -152 -163 -175 -193 -197 -213 -222 -234 -250 -263 -269 -283 -295 -305 -312 -328 -342 -354 -357 -370 -381 -400 -410 -419 -426 -435 -453 0
-9 -16 -30 -44 -53 -60 -80 -85 -100 -117 -127 -131 -148 -154 -172 -174 -186 -202 -214 -222 -238 -249 -258 -269 -276 -296 -300 -310 -330 -336 -349 -362 -366 -388 -400 -407 -413 -425 -439 -453 0
-2 -24 -30 -37 -56 -66 -78 -89 -100 -115 -125 -139 -142 -154 -165 -183 -193 -202 -208 -219 -234 -245 -258 -264 -283 -290 -308 -318 -325 -340 -346 -361 -376 -385 -398 -406 -418 -432 -436 -450 0
-4 -14 -30 -47 -55 -68 -83 -90 -100 -114 -118 -137 -141 -157 -169 -173 -190 -198 -209 -225 -234 -249 -263 -265 -280 -287 -307 -319 -329 -338 -349 -362 -374 -379 -392 -408 -418 -428 -444 -454 0
-2 -25 -30 -41 -55 -69 -77 -87 -100 -115 -124 -129 -149 -154 -165 -182 -190 -204 -216 -223 -235 -243 -260 -267 -279 -291 -305 -310 -329 -342 -346 -364 -371 -384 -392 -406 -419 -434 -443 -455 0
-9 -15 -30 -47 -57 -60 -76 -85 -100 -117 -124 -133 -148 -153 -169 -179 -187 -197 -206 -222 -230 -249 -256 -271 -286 -297 -304 -312 -328 -336 -347 -365 -371 -386 -393 -408 -415 -427 -436 -456 0
-2 -22 -30 -38 -53 -67 -83 -84 -104 -116 -122 -137 -142 -158 -164 -177 -186 -204 -212 -223 -236 -243 -263 -264 -285 -295 -306 -312 -332 -334 -346 -356 -371 -385 -398 -410 -421 -426 -438 -456 0
-3 -23 -30 -43 -57 -65 -73 -92 -99 -117 -122 -130 -149 -158 -172 -179 -188 -197 -208 -226 -235 -244 -260 -264 -281 -297 -302 -316 -332 -335 -345 -359 -368 -379 -390 -403 -417 -426 -439 -456 0
-3 -23 -30 -37 -54 -69 -75 -91 -106 -113 -124 -138 -144 -151 -171 -177 -185 -201 -211 -220 -235 -248 -253 -267 -279 -297 -300 -317 -329 -337 -351 -359 -367 -386 -399 -406 -418 -431 -439 -448 0
-10 -24 -30 -46 -54 -61 -76 -87 -95 -111 -128 -134 -144 -152 -172 -174 -187 -204 -211 -220 -233 -242 -259 -267 -283 -293 -298 -310 -330 -338 -352 -358 -378 -385 -398 -402 -419 -431 -443 -450 0
-11 -17 -30 -44 -54 -67 -80 -89 -95 -110 -119 -139 -144 -152 -170 -178 -185 -205 -210 -219 -229 -245 -258 -271 -277 -291 -306 -310 -331 -343 -350 -358 -371 -383 -398 -411 -413 -426 -439 -450 0
-1 -21 -30 -45 -53 -72 -81 -92 -103 -111 -120 -138 -144 -153 -165 -175 -187 -202 -208 -226 -230 -251 -261 -272 -281 -296 -303 -318 -321 -335 -353 -359 -374 -388 -401 -411 -413 -429 -443 -450 0
-8 -21 -30 -46 -57 -61 -75 -94 -95 -109 -124 -138 -144 -153 -162 -178 -193 -196 -214 -221 -231 -250 -263 -271 -278 -290 -305 -317 -325 -343 -354 -359 -376 -379 -399 -409 -421 -426 -437 -450 0
-11 -17 -30 -43 -53 -68 -83 -90 -96 -114 -120 -129 -144 -153 -167 -182 -185 -204 -210 -225 -239 -242 -252 -267 -279 -294 -300 -320 -332 -337 -351 -361 -374 -386 -391 -408 -423 -433 -439 -450 0
-8 -21 -30 -44 -57 -61 -83 -86 -95 -111 -127 -132 -144 -160 -171 -181 -186 -196 -211 -221 -230 -248 -263 -265 -278 -290 -299 -318 -329 -336 -353 -356 -376 -379 -390 -409 -421 -428 -436 -450 0
-1 -16 -30 -44 -59 -66 -78 -86 -99 -113 -125 -139 -144 -160 -172 -181 -185 -199 -215 -224 -232 -248 -257 -266 -281 -294 -300 -313 -328 -341 -353 -356 -366 -384 -395 -402 -413 -426 -445 -451 0
-2 -22 -30 -46 -54 -62 -78 -93 -102 -110 -118 -138 -144 -161 -162 -183 -187 -203 -210 -220 -234 -244 -258 -274 -278 -290 -305 -317 -324 -337 -354 -361 -376 -379 -401 -409 -417 -430 -439 -451 0
-10 -25 -30 -42 -49 -70 -75 -89 -95 -108 -127 -134 -142 -155 -169 -183 -187 -200 -207 -220 -235 -244 -254 -273 -280 -295 -302 -318 -329 -342 -347 -360 -368 -381 -392 -402 -423 -434 -440 -454 0
-12 -24 -30 -38 -55 -68 -76 -90 -96 -109 -125 -137 -142 -155 -168 -177 -184 -198 -207 -224 -237 -244 -254 -268 -281 -294 -298 -318 -332 -338 -350 -356 -368 -384 -400 -407 -422 -434 -443 -447 0
-12 -17 -30 -47 -55 -61 -79 -89 -97 -114 -123 -137 -142 -155 -167 -175 -193 -205 -214 -221 -233 -240 -253 -271 -277 -294 -302 -311 -325 -340 -345 -362 -377 -379 -399 -410 -415 -431 -439 -453 0
-8 -24 -30 -37 -56 -69 -78 -85 -98 -111 -120 -139 -148 -155 -172 -179 -192 -197 -206 -221 -230 -249 -259 -267 -281 -291 -308 -310 -322 -340 -344 -359 -376 -381 -393 -410 -422 -426 -441 -456 0
-10 -14 -30 -48 -54 -70 -78 -86 -99 -113 -121 -129 -149 -155 -165 -178 -192 -196 -207 -226 -237 -245 -263 -271 -276 -289 -302 -313 -326 -342 -354 -355 -375 -384 -401 -403 -414 -427 -438 -446 0
-1 -17 -30 -42 -55 -68 -76 -86 -104 -115 -121 -139 -149 -155 -164 -183 -192 -205 -207 -224 -233 -245 -259 -273 -281 -297 -306 -316 -332 -338 -351 -357 -372 -387 -395 -402 -423 -426 -437 -450 0
-2 -21 -30 -48 -56 -65 -82 -84 -98 -114 -123 -137 -143 -155 -165 -173 -193 -196 -213 -226 -236 -245 -254 -275 -281 -295 -303 -313 -332 -338 -352 -355 -375 -384 -399 -403 -417 -433 -441 -448 0
-8 -21 -30 -38 -49 -68 -83 -93 -105 -110 -118 -130 -148 -155 -172 -173 -194 -197 -209 -217 -234 -245 -260 -271 -284 -288 -305 -319 -325 -338 -354 -364 -366 -382 -397 -402 -415 -429 -438 -456 0
-2 -20 -31 -38 -52 -67 -83 -84 -105 -114 -122 -135 -142 -160 -164 -174 -188 -204 -214 -224 -232 -240 -263 -268 -285 -296 -298 -316 -326 -335 -345 -357 -377 -386 -399 -411 -423 -431 -438 -452 0
-6 -14 -31 -38 -57 -67 -81 -89 -95 -109 -127 -135 -142 -161 -172 -174 -184 -205 -209 -221 -233 -247 -258 -271 -283 -290 -301 -318 -330 -342 -346 -357 -378 -385 -397 -402 -423 -431 -442 -450 0
-6 -13 -31 -38 -56 -70 -82 -91 -97 -113 -125 -132 -150 -151 -168 -173 -188 -201 -208 -217 -232 -250 -261 -267 -281 -290 -304 -314 -331 -336 -353 -356 -373 -389 -398 -406 -414 -430 -444 -451 0
-2 -16 -31 -38 -53 -70 -73 -92 -100 -112 -125 -138 -146 -161 -168 -173 -186 -199 -212 -218 -232 -250 -263 -266 -281 -288 -303 -319 -327 -340 -344 -362 -378 -388 -397 -412 -415 -424 -444 -455 0
-6 -25 -31 -38 -53 -60 -82 -92 -104 -108 -120 -132 -148 -159 -164 -180 -192 -200 -207 -218 -232 -251 -261 -270 -285 -289 -307 -309 -326 -335 -346 -356 -374 -383 -399 -402 -423 -430 -435 -449 0
-2 -24 -31 -44 -57 -60 -76 -87 -99 -117 -126 -134 -144 -156 -162 -181 -186 -199 -213 -227 -236 -247 -255 -270 -279 -292 -305 -319 -330 -333 -347 -360 -366 -384 -397 -412 -414 -430 -439 -448 0
-2 -17 -31 -44 -57 -70 -82 -89 -95 -112 -121 -134 -144 -161 -171 -183 -190 -196 -210 -218 -230 -247 -260 -271 -279 -296 -301 -317 -321 -338 -351 -360 -373 -387 -397 -402 -423 -434 -437 -450 0
-2 -19 -31 -45 -51 -72 -82 -87 -102 -115 -118 -134 -147 -154 -166 -179 -191 -197 -216 -219 -228 -250 -260 -273 -278 -296 -307 -316 -330 -333 -346 -358 -371 -385 -401 -403 -419 -432 -445 -455 0
-12 -22 -31 -47 -49 -69 -76 -87 -99 -115 -119 -134 -144 -156 -163 -182 -186 -198 -211 -224 -233 -240 -261 -272 -277 -290 -306 -310 -330 -341 -348 -360 -377 -387 -394 -408 -423 -430 -439 -453 0
-5 -20 -31 -48 -56 -64 -81 -84 -96 -114 -120 -134 -149 -153 -170 -173 -191 -199 -212 -226 -230 -245 -255 -268 -283 -296 -298 -312 -325 -338 -351 -355 -377 -380 -401 -411 -419 -430 -441 -448 0
-7 -17 -31 -48 -49 -68 -81 -87 -100 -116 -125 -134 -140 -151 -164 -179 -192 -199 -211 -226 -229 -243 -252 -271 -284 -287 -306 -310 -322 -338 -348 -360 -373 -383 -398 -408 -414 -430 -441 -456 0
-4 -22 -31 -39 -55 -64 -83 -86 -95 -113 -126 -136 -149 -151 -165 -175 -193 -203 -211 -224 -238 -241 -254 -264 -279 -289 -301 -320 -321 -341 -346 -356 -376 -389 -400 -402 -413 -432 -439 -453 0
-1 -16 -31 -40 -56 -69 -75 -91 -100 -113 -127 -139 -141 -160 -165 -183 -192 -200 -208 -217 -237 -245 -253 -274 -282 -289 -307 -318 -321 -338 -346 -363 -373 -388 -398 -403 -422 -427 -435 -447 0
-10 -25 -31 -46 -49 -62 -76 -85 -100 -112 -118 -138 -146 -153 -165 -182 -191 -198 -211 -218 -239 -242 -256 -272 -284 -292 -306 -312 -331 -336 -353 -357 -371 -385 -390 -403 -417 -430 -435 -452 0
-1 -18 -31 -45 -53 -72 -81 -88 -97 -116 -124 -133 -146 -153 -165 -179 -192 -202 -209 -227 -237 -247 -255 -274 -277 -294 -298 -309 -330 -335 -348 -357 -377 -383 -392 -412 -414 -432 -440 -448 0
-2 -16 -31 -37 -53 -63 -82 -93 -106 -112 -124 -137 -146 -154 -165 -174 -193 -202 -214 -221 -234 -240 -262 -275 -282 -294 -305 -310 -332 -340 -353 -359 -366 -381 -398 -410 -415 -424 -439 -456 0
-2 -18 -31 -40 -58 -72 -80 -84 -102 -111 -124 -138 -142 -159 -164 -173 -185 -202 -216 -220 -234 -248 -261 -270 -285 -295 -303 -313 -326 -335 -354 -363 -367 -386 -399 -411 -414 -427 -442 -447 0
-5 -24 -31 -45 -52 -68 -83 -91 -97 -113 -118 -130 -142 -160 -172 -173 -185 -203 -210 -220 -232 -247 -258 -273 -277 -292 -298 -312 -331 -337 -347 -356 -376 -385 -394 -402 -415 -431 -437 -447 0
-2 -23 -31 -37 -51 -69 -76 -91 -98 -111 -127 -139 -147 -156 -168 -183 -185 -197 -211 -222 -230 -245 -262 -270 -276 -289 -300 -318 -329 -340 -344 -365 -369 -389 -390 -410 -422 -428 -441 -447 0
-7 -16 -31 -46 -49 -68 -73 -91 -106 -114 -127 -133 -144 -151 -171 -178 -185 -203 -213 -224 -229 -249 -254 -268 -280 -297 -300 -319 -327 -337 -345 -362 -374 -386 -394 -408 -422 -428 -439 -453 0
-2 -16 -31 -40 -55 -68 -75 -93 -100 -113 -118 -137 -149 -161 -162 -182 -185 -202 -214 -222 -232 -251 -257 -270 -281 -292 -306 -310 -322 -336 -347 -362 -378 -388 -398 -411 -415 -431 -442 -447 0
-3 -13 -31 -44 -59 -65 -75 -93 -106 -112 -119 -137 -144 -159 -166 -181 -185 -196 -214 -224 -231 -240 -263 -271 -285 -294 -307 -310 -326 -335 -350 -359 -371 -384 -401 -411 -421 -431 -435 -450 0
-7 -17 -31 -37 -58 -63 -79 -86 -104 -110 -127 -139 -146 -151 -162 -182 -185 -200 -214 -224 -233 -241 -256 -271 -284 -289 -303 -310 -327 -335 -353 -362 -376 -389 -401 -410 -420 -428 -441 -449 0
-6 -14 -31 -47 -49 -65 -80 -87 -99 -107 -124 -139 -146 -160 -172 -173 -185 -203 -210 -219 -234 -245 -262 -273 -282 -297 -308 -312 -329 -337 -351 -363 -370 -383 -395 -408 -414 -432 -445 -454 0
-1 -19 -31 -47 -55 -62 -76 -86 -100 -110 -125 -137 -147 -161 -164 -180 -189 -195 -214 -220 -232 -251 -258 -274 -278 -289 -304 -318 -329 -335 -345 -359 -378 -379 -390 -412 -416 -431 -440 -454 0
-10 -19 -31 -39 -53 -67 -75 -94 -98 -116 -119 -131 -140 -160 -164 -183 -193 -205 -208 -220 -234 -241 -252 -272 -279 -289 -303 -314 -321 -342 -351 -365 -370 -379 -398 -408 -417 -430 -437 -449 0
-11 -17 -31 -44 -52 -67 -76 -85 -104 -107 -121 -139 -144 -152 -166 -174 -193 -205 -213 -227 -233 -241 -258 -267 -277 -292 -305 -312 -326 -342 -350 -356 -377 -379 -395 -410 -419 -431 -437 -455 0
-2 -22 -31 -40 -50 -63 -80 -94 -95 -115 -127 -133 -146 -157 -170 -179 -189 -203 -215 -219 -233 -243 -254 -264 -279 -295 -308 -311 -327 -333 -346 -355 -376 -379 -400 -411 -420 -434 -441 -450 0
-6 -20 -31 -46 -56 -72 -73 -85 -105 -110 -125 -133 -146 -152 -164 -179 -192 -198 -216 -218 -229 -250 -261 -271 -280 -295 -303 -319 -322 -337 -345 -358 -378 -379 -401 -408 -419 -428 -440 -455 0
-12 -17 -31 -39 -53 -68 -82 -88 -104 -108 -120 -137 -142 -159 -164 -179 -189 -195 -214 -218 -232 -250 -259 -264 -284 -290 -306 -316 -322 -343 -354 -360 -367 -379 -399 -411 -417 -430 -445 -453 0
-11 -17 -31 -45 -52 -60 -76 -92 -98 -117 -119 -131 -144 -159 -170 -178 -191 -195 -212 -218 -232 -250 -252 -267 -277 -297 -300 -312 -331 -333 -352 -360 -374 -379 -394 -412 -420 -428 -437 -455 0
-10 -15 -31 -48 -55 -63 -81 -84 -105 -112 -121 -130 -143 -157 -166 -175 -188 -202 -206 -227 -230 -241 -260 -273 -285 -295 -298 -312 -329 -342 -348 -365 -366 -389 -393 -412 -420 -430 -435 -447 0
-5 -15 -31 -46 -52 -61 -76 -91 -104 -107 -121 -138 -147 -161 -162 -183 -192 -198 -211 -225 -233 -241 -258 -268 -285 -287 -303 -317 -326 -336 -352 -360 -378 -380 -393 -412 -420 -427 -439 -447 0
-1 -20 -31 -44 -59 -63 -74 -91 -101 -109 -128 -136 -148 -154 -172 -174 -190 -204 -214 -221 -231 -250 -259 -267 -280 -290 -305 -317 -332 -343 -345 -355 -376 -380 -393 -402 -423 -431 -435 -454 0
-7 -17 -31 -47 -56 -61 -74 -91 -100 -107 -125 -139 -148 -152 -168 -174 -188 -200 -216 -226 -230 -249 -256 -265 -282 -296 -307 -318 -322 -335 -347 -356 -374 -380 -393 -412 -414 -431 -435 -448 0
-10 -16 -31 -37 -53 -63 -81 -91 -97 -112 -119 -139 -149 -154 -166 -176 -194 -203 -208 -227 -237 -240 -259 -265 -280 -294 -308 -309 -326 -337 -345 -362 -377 -383 -393 -412 -417 -433 -442 -455 0
-5 -23 -31 -40 -56 -65 -83 -86 -104 -110 -118 -130 -149 -159 -162 -183 -191 -197 -207 -221 -234 -250 -255 -270 -283 -287 -305 -311 -332 -338 -346 -360 -377 -386 -393 -402 -415 -427 -436 -454 0
-11 -18 -31 -45 -55 -72 -76 -87 -96 -111 -124 -131 -140 -156 -163 -173 -189 -197 -212 -227 -237 -246 -254 -271 -285 -290 -306 -309 -330 -339 -354 -356 -373 -383 -393 -403 -413 -429 -445 -451 0
-6 -15 -31 -37 -50 -61 -76 -91 -99 -114 -126 -138 -147 -161 -164 -182 -190 -199 -214 -225 -228 -245 -263 -265 -281 -296 -305 -317 -323 -338 -345 -359 -373 -383 -401 -404 -413 -429 -440 -454 0
-3 -22 -31 -37 -59 -64 -75 -93 -102 -117 -119 -137 -146 -155 -170 -176 -189 -195 -212 -222 -232 -244 -260 -274 -276 -289 -306 -310 -321 -336 -350 -362 -378 -387 -392 -404 -417 -433 -442 -453 0
-10 -17 -31 -40 -53 -63 -81 -91 -97 -117 -118 -130 -149 -153 -166 -175 -194 -202 -216 -217 -233 -243 -261 -264 -283 -287 -301 -311 -332 -342 -353 -362 -371 -389 -400 -404 -419 -434 -444 -446 0
-6 -14 -31 -43 -58 -69 -75 -89 -105 -117 -121 -135 -140 -152 -163 -179 -191 -204 -215 -219 -234 -246 -260 -269 -286 -292 -298 -311 -323 -338 -350 -360 -378 -385 -390 -404 -419 -434 -440 -447 0
-12 -24 -31 -44 -51 -67 -76 -87 -99 -112 -119 -136 -148 -152 -163 -176 -191 -203 -212 -223 -237 -246 -256 -266 -279 -289 -300 -317 -324 -333 -351 -363 -378 -380 -390 -404 -423 -434 -443 -452 0
-1 -18 -31 -44 -49 -67 -80 -88 -102 -116 -128 -132 -143 -160 -170 -182 -192 -196 -208 -220 -234 -241 -254 -270 -280 -292 -308 -311 -331 -335 -347 -363 -377 -387 -397 -404 -417 -430 -443 -452 0
-5 -15 -31 -40 -59 -69 -74 -91 -102 -117 -124 -137 -140 -151 -168 -178 -194 -195 -210 -224 -232 -240 -254 -268 -284 -290 -301 -313 -325 -341 -352 -356 -366 -386 -394 -411 -415 -425 -445 -453 0
-7 -17 -31 -46 -56 -71 -73 -91 -100 -108 -120 -136 -142 -161 -163 -175 -189 -199 -216 -225 -228 -242 -258 -272 -285 -289 -308 -314 -323 -333 -350 -363 -373 -385 -400 -412 -422 -425 -444 -449 0
-4 -19 -31 -39 -58 -61 -82 -91 -97 -107 -125 -139 -147 -157 -162 -179 -189 -198 -216 -225 -238 -248 -256 -265 -284 -287 -303 -313 -322 -343 -354 -356 -376 -389 -401 -408 -414 -425 -437 -456 0
-11 -13 -31 -43 -53 -61 -75 -93 -98 -117 -120 -135 -144 -156 -162 -183 -186 -202 -212 -221 -237 -246 -255 -274 -281 -290 -305 -314 -329 -340 -353 -365 -376 -388 -401 -409 -421 -425 -440 -448 0
-7 -17 -31 -44 -49 -72 -73 -87 -105 -114 -119 -137 -146 -155 -171 -183 -189 -203 -212 -219 -229 -246 -254 -271 -284 -297 -303 -311 -327 -337 -351 -363 -378 -388 -392 -412 -413 -425 -440 -448 0
-12 -18 -31 -40 -50 -65 -79 -86 -99 -114 -127 -130 -148 -159 -162 -179 -191 -195 -211 -219 -238 -248 -255 -268 -284 -297 -306 -311 -323 -338 -345 -359 -378 -389 -397 -408 -416 -425 -440 -451 0
-1 -23 -31 -43 -53 -62 -79 -86 -100 -110 -128 -136 -149 -156 -172 -179 -194 -203 -210 -218 -232 -242 -259 -268 -281 -290 -303 -309 -327 -343 -345 -357 -378 -380 -397 -411 -423 -425 -445 -453 0
-10 -19 -32 -38 -58 -71 -77 -85 -102 -117 -118 -132 -144 -152 -163 -176 -189 -203 -209 -217 -237 -250 -263 -271 -279 -288 -299 -320 -330 -342 -349 -362 -378 -387 -394 -411 -420 -432 -441 -449 0
-11 -19 -32 -39 -53 -68 -77 -87 -99 -108 -125 -129 -141 -161 -163 -182 -190 -200 -206 -225 -231 -242 -263 -267 -279 -293 -299 -310 -322 -342 -348 -359 -374 -389 -398 -408 -423 -425 -440 -452 0
-11 -19 -32 -39 -56 -61 -77 -87 -102 -114 -118 -131 -150 -154 -172 -181 -187 -200 -215 -224 -231 -240 -256 -271 -278 -293 -304 -312 -325 -336 -348 -356 -377 -379 -390 -408 -415 -430 -436 -452 0
-5 -19 -32 -41 -54 -72 -82 -84 -104 -115 -120 -135 -142 -151 -169 -180 -185 -201 -206 -221 -229 -242 -257 -273 -281 -295 -302 -318 -322 -335 -348 -359 -367 -381 -401 -403 -414 -433 -441 -448 0
-1 -19 -32 -47 -49 -63 -79 -90 -104 -115 -121 -139 -143 -157 -169 -180 -193 -198 -211 -224 -239 -242 -253 -267 -278 -295 -308 -312 -322 -339 -349 -359 -375 -381 -394 -404 -423 -428 -437 -450 0
-10 -19 -32 -37 -50 -61 -76 -90 -99 -109 -126 -138 -150 -155 -168 -181 -187 -197 -215 -219 -229 -251 -252 -266 -281 -297 -302 -318 -322 -339 -345 -359 -374 -380 -401 -404 -413 -432 -439 -454 0
-1 -19 -32 -38 -54 -68 -74 -94 -97 -115 -122 -136 -149 -157 -163 -181 -190 -202 -209 -226 -239 -247 -260 -266 -279 -297 -306 -315 -322 -341 -348 -359 -367 -387 -394 -407 -415 -428 -439 -456 0
-6 -13 -32 -38 -49 -72 -81 -89 -96 -116 -125 -132 -147 -158 -164 -180 -192 -199 -212 -223 -239 -250 -255 -273 -276 -288 -299 -311 -330 -335 -349 -362 -378 -388 -394 -408 -422 -424 -441 -446 0
-1 -16 -32 -48 -56 -64 -80 -89 -100 -109 -126 -138 -143 -158 -169 -181 -186 -195 -210 -223 -235 -243 -258 -266 -286 -289 -304 -313 -328 -343 -348 -355 -375 -380 -399 -412 -421 -425 -437 -449 0
-10 -23 -32 -41 -49 -60 -82 -94 -101 -110 -119 -133 -144 -158 -165 -182 -191 -196 -207 -218 -228 -251 -260 -266 -281 -293 -301 -317 -324 -335 -345 -364 -378 -381 -394 -402 -423 -434 -445 -453 0
-7 -14 -32 -45 -54 -70 -75 -92 -97 -117 -121 -129 -149 -155 -170 -175 -186 -200 -215 -222 -229 -248 -259 -270 -276 -293 -308 -319 -321 -336 -348 -360 -368 -379 -401 -407 -413 -428 -440 -451 0
-10 -23 -32 -39 -59 -64 -77 -87 -96 -109 -128 -129 -143 -157 -172 -175 -184 -205 -208 -223 -235 -246 -260 -266 -279 -293 -307 -314 -321 -334 -354 -359 -374 -384 -393 -407 -421 -429 -440 -455 0
-7 -17 -32 -45 -51 -72 -77 -86 -105 -107 -126 -132 -147 -151 -168 -175 -194 -195 -212 -223 -230 -246 -255 -273 -276 -293 -299 -311 -323 -340 -352 -356 -366 -388 -394 -411 -415 -425 -440 -452 0
-11 -17 -32 -37 -53 -68 -77 -93 -96 -112 -120 -139 -142 -155 -170 -175 -187 -199 -207 -224 -234 -250 -259 -264 -277 -289 -306 -314 -331 -340 -353 -356 -372 -389 -395 -405 -420 -428 -444 -450 0
-7 -15 -32 -38 -51 -60 -77 -93 -98 -117 -119 -138 -147 -160 -167 -182 -193 -195 -210 -220 -236 -240 -263 -267 -277 -290 -305 -313 -328 -337 -352 -364 -367 -380 -391 -408 -421 -431 -443 -455 0
-5 -25 -32 -40 -53 -61 -81 -92 -104 -116 -120 -129 -145 -153 -168 -176 -190 -199 -216 -223 -232 -250 -255 -266 -284 -290 -306 -320 -328 -334 -344 -362 -370 -384 -394 -402 -415 -426 -445 -453 0
-8 -14 -32 -44 -58 -72 -74 -88 -95 -111 -127 -136 -144 -152 -166 -174 -193 -203 -209 -224 -239 -241 -259 -268 -285 -290 -304 -319 -327 -336 -353 -365 -372 -382 -390 -411 -422 -428 -441 -446 0
-8 -15 -32 -44 -51 -64 -80 -84 -105 -110 -126 -133 -150 -151 -164 -182 -192 -195 -212 -225 -232 -247 -261 -268 -276 -290 -304 -313 -327 -337 -351 -356 -372 -386 -396 -406 -416 -428 -442 -448 0
-7 -14 -32 -39 -49 -72 -79 -90 -104 -110 -127 -133 -140 -160 -165 -182 -189 -201 -207 -218 -237 -244 -260 -264 -286 -291 -305 -314 -324 -335 -354 -357 -371 -382 -392 -406 -420 -434 -445 -450 0
-3 -23 -32 -38 -53 -71 -77 -84 -104 -117 -119 -135 -144 -156 -167 -183 -186 -195 -210 -225 -236 -245 -252 -274 -278 -291 -304 -318 -325 -343 -348 -365 -369 -387 -398 -411 -414 -430 -438 -452 0
-8 -14 -32 -40 -56 -62 -83 -93 -98 -107 -120 -138 -144 -160 -166 -182 -185 -195 -209 -220 -228 -249 -260 -275 -282 -296 -307 -315 -326 -341 -346 -360 -369 -385 -391 -409 -418 -432 -445 -454 0
-10 -16 -32 -39 -58 -64 -75 -90 -96 -116 -118 -131 -150 -157 -172 -173 -185 -199 -214 -225 -232 -247 -262 -273 -277 -297 -302 -310 -326 -340 -348 -362 -370 -388 -395 -403 -420 -426 -441 -449 0
-11 -18 -32 -48 -49 -62 -76 -87 -103 -107 -125 -130 -147 -156 -163 -179 -189 -205 -213 -220 -233 -251 -252 -266 -284 -297 -308 -311 -326 -335 -352 -356 -372 -382 -399 -412 -416 -431 -437 -450 0
-10 -16 -32 -48 -51 -64 -81 -84 -97 -111 -123 -130 -149 -157 -166 -180 -193 -203 -210 -217 -229 -251 -262 -264 -278 -288 -301 -311 -332 -338 -353 -361 -375 -389 -393 -406 -414 -430 -441 -453 0
-1 -17 -32 -40 -57 -70 -79 -86 -102 -116 -123 -132 -150 -155 -167 -182 -192 -198 -210 -227 -235 -241 -254 -267 -284 -289 -301 -310 -331 -338 -354 -364 -372 -388 -394 -403 -420 -430 -435 -454 0
-8 -25 -32 -39 -52 -68 -81 -93 -96 -109 -121 -138 -140 -154 -163 -180 -193 -196 -211 -224 -238 -248 -257 -275 -279 -293 -299 -310 -321 -338 -348 -359 -374 -389 -393 -409 -420 -424 -441 -455 0
-5 -15 -32 -45 -50 -71 -76 -90 -95 -112 -126 -135 -150 -151 -165 -182 -193 -195 -211 -225 -236 -242 -252 -269 -282 -293 -299 -320 -323 -338 -345 -359 -374 -385 -398 -402 -413 -432 -438 -454 0
-12 -14 -32 -46 -50 -64 -79 -89 -99 -116 -120 -136 -145 -155 -167 -182 -192 -195 -209 -225 -231 -246 -252 -269 -284 -293 -301 -319 -322 -338 -354 -364 -370 -386 -394 -408 -414 -431 -435 -449 0
-7 -25 -32 -44 -58 -61 -80 -84 -100 -116 -123 -131 -142 -154 -165 -183 -190 -196 -214 -226 -237 -243 -253 -271 -281 -293 -304 -313 -323 -338 -348 -363 -377 -380 -396 -409 -414 -434 -437 -446 0
-3 -20 -32 -37 -58 -62 -80 -94 -103 -112 -127 -135 -144 -151 -168 -182 -185 -198 -212 -220 -228 -244 -253 -273 -280 -295 -299 -315 -323 -338 -352 -362 -367 -387 -400 -411 -417 -434 -438 -447 0
-1 -16 -32 -47 -56 -63 -83 -88 -97 -115 -123 -136 -143 -157 -172 -179 -189 -204 -214 -217 -238 -243 -259 -269 -280 -296 -304 -311 -328 -338 -348 -364 -366 -382 -399 -404 -416 -424 -441 -446 0
-7 -17 -32 -39 -56 -60 -82 -85 -98 -115 -123 -136 -141 -161 -168 -183 -189 -201 -209 -222 -238 -241 -254 -264 -278 -289 -305 -314 -330 -342 -347 -358 -372 -382 -392 -402 -413 -432 -441 -448 0
-8 -16 -32 -39 -59 -68 -73 -86 -101 -114 -126 -130 -150 -154 -171 -174 -187 -200 -214 -224 -231 -251 -253 -271 -284 -293 -301 -320 -332 -333 -347 -355 -370 -379 -400 -412 -415 -429 -437 -450 0
-5 -13 -32 -40 -56 -69 -82 -94 -103 -110 -126 -130 -141 -157 -169 -183 -185 -200 -210 -225 -228 -242 -261 -270 -279 -295 -301 -318 -322 -342 -347 -361 -370 -389 -391 -408 -418 -430 -443 -454 0
-2 -23 -32 -45 -54 -68 -74 -94 -101 -113 -118 -133 -149 -155 -166 -177 -186 -202 -209 -226 -236 -251 -258 -264 -277 -297 -301 -318 -324 -337 -347 -357 -367 -379 -392 -412 -418 -433 -436 -448 0
-1 -18 -32 -46 -53 -68 -82 -88 -104 -109 -123 -133 -150 -153 -168 -176 -189 -199 -208 -219 -238 -251 -254 -270 -284 -297 -302 -318 -332 -334 -347 -359 -369 -379 -392 -407 -417 -433 -440 -448 0
-11 -17 -33 -39 -55 -65 -83 -88 -96 -110 -125 -131 -140 -158 -162 -177 -185 -201 -211 -219 -238 -241 -261 -271 -286 -287 -308 -310 -329 -341 -348 -357 -371 -383 -400 -408 -418 -434 -436 -446 0
-11 -18 -33 -40 -53 -66 -75 -93 -106 -110 -119 -131 -140 -159 -162 -179 -191 -195 -215 -223 -237 -251 -256 -268 -278 -290 -306 -311 -328 -333 -346 -365 -373 -382 -393 -403 -420 -427 -440 -455 0
-8 -21 -33 -40 -59 -62 -83 -93 -96 -115 -122 -132 -140 -152 -164 -180 -185 -197 -214 -223 -239 -249 -253 -274 -279 -288 -305 -314 -326 -337 -354 -357 -373 -383 -391 -407 -421 -424 -437 -451 0
-9 -25 -33 -39 -52 -69 -81 -85 -102 -116 -120 -133 -140 -153 -164 -174 -192 -201 -216 -220 -232 -250 -261 -271 -280 -294 -300 -314 -322 -341 -349 -358 -366 -379 -400 -408 -418 -434 -441 -449 0
-2 -20 -33 -48 -51 -69 -77 -87 -99 -115 -127 -134 -140 -156 -171 -180 -193 -201 -214 -217 -233 -251 -255 -268 -279 -291 -308 -310 -329 -334 -344 -360 -375 -381 -394 -409 -419 -430 -441 -455 0
-6 -25 -33 -41 -59 -61 -77 -86 -104 -111 -126 -134 -140 -153 -164 -174 -192 -200 -210 -224 -237 -245 -263 -271 -285 -291 -303 -319 -321 -335 -348 -357 -370 -386 -397 -405 -414 -429 -437 -446 0
-7 -25 -33 -39 -59 -66 -78 -86 -98 -115 -119 -136 -140 -154 -163 -178 -191 -204 -212 -227 -236 -246 -257 -267 -285 -290 -299 -309 -327 -333 -346 -361 -376 -386 -393 -403 -420 -433 -439 -455 0
-4 -20 -33 -39 -59 -64 -77 -91 -96 -117 -126 -136 -140 -152 -169 -179 -187 -195 -210 -225 -237 -244 -254 -268 -286 -290 -308 -315 -329 -334 -345 -360 -370 -386 -393 -411 -420 -427 -442 -449 0
-8 -16 -33 -39 -59 -61 -78 -94 -101 -111 -126 -136 -140 -152 -168 -174 -187 -200 -212 -226 -229 -242 -261 -268 -286 -292 -305 -310 -326 -336 -354 -357 -372 -386 -392 -409 -419 -424 -442 -446 0
-8 -25 -33 -39 -57 -64 -78 -85 -99 -116 -120 -137 -140 -153 -169 -178 -190 -197 -209 -225 -237 -242 -255 -269 -286 -287 -305 -314 -322 -338 -349 -360 -370 -379 -401 -407 -417 -429 -442 -448 0
-6 -14 -33 -41 -58 -62 -78 -93 -105 -110 -123 -129 -141 -161 -163 -178 -190 -203 -209 -222 -232 -240 -263 -271 -285 -287 -300 -319 -328 -334 -348 -360 -370 -380 -393 -411 -423 -429 -438 -448 0
-5 -13 -33 -42 -57 -64 -81 -91 -102 -116 -121 -130 -141 -161 -169 -173 -186 -199 -211 -225 -230 -243 -258 -269 -286 -290 -302 -314 -329 -333 -351 -359 -371 -385 -390 -404 -416 -426 -439 -450 0
-8 -14 -33 -46 -59 -64 -83 -93 -98 -111 -118 -134 -141 -155 -166 -180 -190 -195 -215 -220 -239 -249 -256 -272 -276 -291 -303 -313 -321 -334 -348 -360 -375 -381 -392 -402 -413 -433 -437 -451 0
-4 -13 -33 -45 -53 -70 -77 -85 -101 -116 -122 -134 -141 -161 -169 -183 -186 -202 -209 -223 -233 -242 -252 -269 -282 -294 -300 -312 -328 -341 -346 -357 -371 -385 -394 -410 -413 -426 -437 -456 0
-7 -21 -33 -38 -51 -61 -80 -90 -105 -107 -126 -139 -141 -153 -171 -174 -188 -204 -211 -225 -236 -242 -257 -267 -286 -297 -303 -313 -323 -338 -348 -357 -375 -380 -395 -408 -414 -432 -438 -456 0
-11 -14 -33 -39 -55 -62 -76 -93 -106 -109 -123 -129 -142 -156 -163 -178 -193 -205 -212 -220 -232 -246 -263 -271 -276 -289 -300 -319 -331 -339 -354 -358 -372 -385 -396 -403 -423 -430 -437 -449 0
-2 -17 -33 -39 -58 -67 -82 -89 -104 -112 -128 -129 -142 -158 -168 -173 -193 -199 -208 -224 -234 -244 -262 -275 -277 -292 -299 -315 -323 -342 -353 -362 -367 -379 -392 -411 -417 -427 -436 -456 0
-11 -15 -33 -40 -54 -62 -80 -85 -102 -107 -122 -134 -142 -161 -171 -180 -187 -200 -210 -220 -239 -244 -254 -265 -282 -290 -303 -315 -332 -341 -345 -359 -371 -386 -399 -405 -415 -427 -436 -454 0
-8 -21 -33 -46 -51 -71 -75 -84 -101 -117 -120 -136 -142 -151 -164 -173 -185 -203 -213 -220 -229 -247 -261 -274 -279 -288 -305 -314 -326 -337 -353 -363 -373 -386 -391 -407 -422 -427 -442 -453 0
-5 -20 -33 -47 -49 -70 -77 -91 -101 -107 -119 -136 -142 -161 -172 -180 -190 -198 -215 -218 -233 -248 -252 -268 -277 -291 -303 -312 -322 -336 -345 -360 -375 -380 -393 -408 -423 -427 -438 -456 0
-2 -23 -33 -40 -59 -69 -78 -94 -98 -113 -123 -129 -143 -155 -167 -175 -194 -198 -213 -222 -230 -251 -257 -272 -276 -292 -308 -311 -325 -336 -344 -362 -372 -386 -394 -411 -420 -432 -442 -453 0
-7 -15 -33 -45 -51 -66 -82 -91 -96 -110 -118 -137 -143 -161 -172 -176 -184 -203 -211 -222 -235 -244 -262 -270 -277 -290 -305 -313 -329 -342 -344 -360 -372 -381 -390 -410 -422 -426 -441 -455 0
-8 -15 -33 -39 -58 -60 -78 -87 -96 -116 -128 -136 -143 -156 -170 -178 -194 -195 -212 -220 -235 -248 -252 -269 -277 -297 -306 -312 -327 -338 -351 -360 -372 -382 -397 -409 -420 -433 -437 -456 0
-7 -23 -33 -42 -55 -60 -82 -94 -98 -114 -122 -131 -143 -151 -165 -174 -194 -202 -209 -217 -234 -248 -252 -265 -282 -290 -303 -311 -328 -336 -344 -364 -375 -386 -395 -405 -415 -429 -445 -455 0
-3 -23 -33 -48 -52 -67 -73 -89 -104 -116 -122 -130 -143 -158 -171 -179 -185 -203 -210 -220 -229 -244 -259 -275 -281 -297 -303 -315 -324 -334 -348 -365 -369 -380 -397 -406 -420 -426 -437 -451 0
-7 -24 -33 -45 -54 -70 -73 -87 -106 -108 -122 -134 -143 -152 -167 -174 -186 -204 -213 -219 -229 -251 -260 -266 -280 -291 -303 -314 -332 -341 -352 -357 -369 -380 -397 -410 -413 -429 -440 -456 0
-3 -19 -33 -39 -58 -67 -80 -85 -103 -116 -128 -129 -143 -157 -167 -173 -194 -204 -209 -218 -229 -245 -259 -275 -283 -297 -298 -315 -332 -339 -352 -362 -369 -389 -393 -410 -420 -427 -436 -456 0
-11 -13 -33 -42 -55 -65 -74 -85 -106 -109 -122 -136 -143 -156 -165 -181 -191 -201 -206 -226 -232 -243 -263 -266 -281 -290 -307 -319 -327 -334 -351 -361 -373 -386 -392 -407 -420 -432 -444 -454 0
-6 -15 -33 -48 -50 -67 -81 -89 -105 -114 -118 -130 -143 -158 -167 -177 -193 -195 -209 -225 -238 -240 -263 -266 -283 -287 -298 -318 -325 -342 -348 -364 -378 -380 -397 -404 -422 -429 -435 -451 0
-1 -21 -33 -41 -57 -63 -83 -88 -98 -115 -127 -131 -143 -158 -168 -174 -186 -204 -211 -217 -238 -241 -263 -267 -280 -297 -303 -312 -331 -342 -348 -357 -378 -380 -397 -412 -423 -425 -438 -451 0
-1 -24 -33 -48 -49 -63 -80 -90 -98 -112 -126 -134 -143 -157 -164 -177 -191 -201 -211 -221 -237 -248 -263 -265 -278 -296 -298 -312 -331 -338 -348 -357 -373 -386 -397 -407 -420 -433 -437 -456 0
-3 -18 -33 -48 -57 -71 -76 -85 -101 -115 -123 -129 -143 -159 -168 -182 -190 -196 -208 -223 -239 -249 -257 -265 -276 -293 -306 -313 -323 -334 -347 -365 -373 -389 -393 -407 -417 -427 -438 -451 0
-4 -13 -33 -48 -49 -66 -81 -91 -105 -112 -119 -136 -144 -157 -166 -181 -190 -203 -216 -217 -228 -244 -259 -274 -280 -292 -305 -320 -323 -338 -345 -363 -372 -383 -396 -402 -423 -434 -438 -452 0
-7 -25 -33 -47 -49 -66 -80 -85 -99 -107 -126 -134 -144 -153 -170 -180 -194 -199 -208 -223 -231 -242 -256 -270 -283 -297 -298 -318 -327 -335 -347 -361 -371 -382 -397 -412 -422 -429 -443 -450 0
-9 -14 -33 -40 -58 -62 -80 -89 -98 -107 -127 -139 -144 -152 -163 -180 -193 -198 -215 -220 -239 -248 -256 -270 -280 -290 -307 -316 -331 -339 -354 -360 -372 -383 -399 -411 -423 -426 -438 -450 0
-12 -16 -33 -45 -53 -67 -81 -88 -97 -116 -119 -133 -144 -158 -168 -181 -186 -199 -206 -217 -229 -250 -255 -270 -281 -297 -303 -310 -331 -342 -348 -359 -372 -388 -401 -407 -419 -433 -440 -449 0
-9 -25 -33 -41 -59 -62 -73 -87 -96 -109 -125 -137 -144 -156 -165 -174 -191 -204 -207 -224 -232 -251 -260 -266 -285 -287 -302 -320 -326 -339 -352 -356 -373 -381 -390 -410 -414 -434 -438 -455 0
-1 -19 -33 -46 -59 -72 -75 -91 -97 -113 -123 -136 -144 -153 -168 -176 -187 -201 -211 -226 -237 -244 -254 -275 -278 -293 -306 -312 -324 -337 -353 -365 -373 -383 -393 -402 -413 -433 -445 -451 0
-11 -17 -33 -41 -50 -66 -73 -88 -106 -114 -120 -134 -144 -151 -163 -179 -188 -205 -213 -219 -237 -247 -252 -266 -279 -291 -307 -316 -325 -339 -345 -363 -366 -386 -399 -405 -417 -432 -442 -449 0
-3 -21 -33 -38 -52 -61 -80 -89 -106 -115 -127 -129 -144 -158 -168 -178 -194 -204 -208 -219 -231 -246 -263 -265 -276 -296 -298 -309 -325 -339 -345 -358 -375 -386 -391 -405 -419 -433 -443 -449 0
-3 -24 -33 -48 -55 -70 -76 -85 -101 -111 -125 -129 -144 -158 -168 -181 -186 -195 -211 -219 -233 -240 -258 -275 -278 -292 -305 -313 -325 -333 -349 -358 -376 -379 -396 -410 -416 -434 -437 -451 0
-8 -17 -33 -45 -52 -67 -83 -87 -105 -107 -126 -130 -144 -152 -172 -175 -194 -204 -208 -217 -232 -247 -258 -271 -283 -296 -305 -320 -328 -335 -348 -356 -371 -383 -396 -404 -416 -429 -444 -452 0
-6 -21 -33 -47 -57 -72 -75 -89 -96 -109 -126 -129 -145 -153 -162 -175 -188 -204 -214 -223 -239 -250 -259 -269 -278 -294 -298 -311 -323 -343 -348 -362 -378 -388 -394 -407 -420 -434 -444 -452 0
-5 -21 -33 -48 -53 -61 -81 -84 -101 -109 -127 -136 -145 -153 -171 -181 -187 -202 -211 -217 -236 -243 -257 -275 -280 -290 -303 -314 -331 -334 -353 -355 -376 -380 -391 -410 -420 -434 -444 -449 0
-1 -19 -33 -41 -58 -67 -80 -94 -98 -111 -127 -131 -145 -155 -170 -179 -191 -196 -215 -220 -234 -241 -260 -269 -277 -288 -307 -311 -321 -339 -352 -361 -373 -381 -397 -402 -421 -434 -443 -447 0
-2 -19 -33 -46 -53 -67 -83 -87 -105 -114 -118 -133 -145 -155 -164 -182 -187 -204 -214 -225 -234 -240 -263 -268 -282 -293 -298 -310 -329 -342 -353 -357 -378 -383 -401 -411 -416 -429 -438 -452 0
-11 -15 -33 -39 -53 -61 -75 -94 -95 -112 -121 -136 -145 -159 -164 -181 -187 -200 -216 -224 -231 -241 -259 -264 -285 -294 -302 -320 -326 -336 -344 -356 -369 -385 -390 -402 -419 -432 -442 -447 0
-5 -14 -33 -46 -50 -69 -83 -88 -95 -113 -127 -131 -145 -159 -163 -173 -193 -200 -214 -220 -239 -245 -258 -271 -285 -291 -307 -313 -329 -335 -344 -363 -378 -383 -392 -405 -420 -426 -442 -455 0
-4 -14 -33 -41 -58 -63 -82 -93 -106 -112 -118 -131 -145 -159 -172 -179 -194 -202 -206 -219 -234 -249 -260 -268 -279 -297 -303 -311 -326 -336 -352 -361 -378 -381 -392 -405 -419 -432 -442 -446 0
-8 -14 -33 -47 -49 -62 -81 -84 -100 -117 -121 -136 -146 -156 -168 -176 -187 -200 -212 -226 -237 -240 -263 -265 -278 -293 -308 -312 -329 -334 -353 -363 -371 -386 -393 -409 -419 -424 -445 -454 0
-5 -20 -33 -42 -52 -70 -80 -85 -106 -107 -127 -131 -146 -153 -169 -179 -184 -204 -208 -221 -231 -242 -259 -275 -280 -294 -299 -309 -332 -343 -349 -357 -369 -379 -395 -408 -423 -424 -435 -454 0
-5 -15 -33 -48 -57 -70 -74 -90 -96 -112 -127 -129 -146 -157 -167 -182 -188 -195 -214 -221 -230 -249 -259 -275 -276 -294 -308 -310 -323 -336 -348 -362 -372 -388 -395 -412 -420 -433 -435 -451 0
-2 -16 -33 -40 -58 -69 -75 -90 -100 -116 -128 -129 -146 -157 -162 -182 -190 -198 -216 -225 -234 -243 -261 -272 -280 -292 -308 -319 -322 -343 -349 -362 -367 -379 -401 -408 -418 -433 -435 -453 0
-11 -20 -33 -42 -51 -64 -73 -85 -99 -109 -128 -136 -146 -153 -165 -181 -190 -202 -216 -217 -232 -250 -252 -267 -278 -289 -303 -319 -323 -343 -346 -361 -375 -389 -399 -412 -414 -432 -438 -447 0
-6 -25 -33 -47 -49 -66 -74 -84 -96 -113 -126 -136 -146 -154 -163 -180 -188 -203 -211 -224 -237 -245 -256 -275 -285 -297 -299 -316 -323 -339 -346 -361 -367 -387 -393 -412 -415 -429 -438 -446 0
-6 -21 -33 -47 -54 -61 -76 -84 -97 -115 -121 -136 -150 -154 -168 -178 -185 -204 -209 -222 -228 -245 -253 -275 -285 -297 -299 -312 -326 -333 -348 -365 -370 -388 -401 -405 -415 -427 -438 -446 0
-3 -18 -33 -47 -53 -61 -77 -88 -99 -107 -125 -137 -150 -159 -167 -175 -186 -205 -213 -218 -237 -251 -252 -265 -283 -293 -308 -311 -321 -335 -353 -356 -370 -379 -400 -408 -416 -434 -444 -450 0
-9 -13 -33 -38 -51 -71 -80 -85 -98 -112 -120 -137 -150 -157 -162 -183 -190 -202 -209 -218 -237 -246 -260 -274 -279 -292 -298 -315 -332 -338 -353 -362 -368 -388 -394 -407 -415 -434 -435 -456 0
-5 -20 -33 -37 -59 -64 -77 -93 -96 -109 -126 -134 -150 -153 -170 -174 -190 -197 -206 -221 -235 -246 -262 -272 -277 -291 -305 -316 -321 -343 -346 -357 -369 -380 -395 -407 -420 -424 -437 -449 0
-4 -18 -33 -37 -59 -69 -76 -91 -101 -115 -123 -130 -150 -152 -172 -175 -186 -204 -211 -225 -233 -242 -262 -272 -282 -288 -302 -311 -323 -341 -353 -365 -373 -389 -393 -408 -418 -424 -441 -449 0
-9 -15 -33 -38 -51 -61 -82 -84 -104 -112 -126 -132 -150 -157 -164 -181 -188 -203 -213 -221 -229 -251 -252 -274 -282 -293 -307 -309 -323 -338 -346 -356 -373 -382 -395 -410 -414 -433 -435 -452 0
-4 -21 -33 -46 -53 -63 -73 -85 -101 -109 -127 -136 -150 -158 -168 -181 -184 -196 -211 -220 -233 -241 -263 -266 -285 -288 -307 -314 -322 -337 -344 -358 -373 -379 -400 -412 -418 -427 -435 -447 0
-8 -22 -34 -48 -51 -61 -81 -88 -97 -116 -121 -129 -146 -154 -163 -181 -190 -205 -209 -220 -232 -240 -263 -272 -281 -287 -298 -310 -330 -339 -352 -364 -372 -384 -396 -412 -415 -433 -436 -450 0
-2 -22 -34 -48 -52 -66 -82 -87 -102 -107 -126 -134 -143 -155 -166 -182 -186 -196 -214 -224 -237 -251 -254 -264 -280 -289 -302 -314 -330 -342 -347 -365 -377 -389 -401 -407 -419 -432 -443 -454 0
-1 -22 -34 -46 -52 -71 -76 -87 -103 -109 -122 -139 -146 -154 -172 -176 -188 -196 -212 -223 -236 -250 -255 -273 -279 -288 -308 -317 -325 -343 -344 -363 -372 -387 -395 -402 -418 -433 -445 -452 0
-8 -22 -34 -39 -50 -72 -73 -91 -96 -111 -126 -138 -141 -156 -170 -174 -187 -203 -211 -226 -228 -241 -254 -268 -282 -297 -302 -312 -326 -334 -352 -356 -374 -383 -393 -411 -415 -424 -442 -446 0
-5 -22 -34 -48 -53 -70 -77 -85 -101 -116 -121 -134 -140 -152 -166 -181 -190 -195 -210 -218 -236 -242 -262 -268 -286 -290 -301 -313 -328 -333 -350 -360 -368 -383 -392 -406 -418 -434 -437 -453 0
-1 -17 -34 -40 -56 -70 -83 -90 -105 -113 -122 -131 -146 -153 -169 -177 -185 -201 -209 -221 -235 -247 -261 -275 -277 -292 -307 -317 -325 -334 -344 -363 -369 -384 -397 -402 -415 -426 -438 -448 0
-7 -21 -34 -38 -56 -71 -74 -84 -100 -108 -123 -137 -141 -161 -164 -176 -189 -203 -210 -227 -238 -240 -259 -265 -278 -288 -299 -316 -323 -338 -352 -357 -374 -387 -400 -402 -416 -433 -440 -451 0
-6 -21 -34 -47 -56 -72 -81 -87 -95 -113 -119 -133 -145 -152 -170 -175 -191 -198 -207 -222 -238 -247 -255 -272 -277 -292 -306 -312 -322 -333 -346 -364 -374 -382 -394 -403 -414 -428 -440 -447 0
-9 -23 -34 -39 -56 -65 -83 -88 -95 -110 -119 -138 -141 -154 -165 -183 -191 -198 -214 -224 -229 -250 -255 -267 -276 -292 -298 -309 -323 -338 -350 -361 -371 -382 -392 -411 -419 -432 -443 -450 0
-4 -21 -34 -37 -51 -68 -77 -86 -105 -113 -119 -137 -150 -156 -162 -182 -193 -197 -214 -221 -233 -241 -263 -271 -281 -290 -308 -310 -327 -340 -353 -357 -373 -384 -400 -404 -418 -433 -436 -453 0
-7 -23 -34 -42 -51 -68 -83 -87 -96 -116 -118 -131 -143 -159 -169 -173 -190 -197 -207 -227 -235 -243 -254 -267 -281 -291 -308 -309 -329 -335 -346 -364 -374 -384 -394 -404 -418 -434 -445 -454 0
-11 -14 -34 -48 -54 -68 -76 -87 -99 -112 -120 -134 -140 -155 -167 -182 -186 -196 -213 -227 -229 -246 -252 -269 -284 -291 -301 -316 -324 -342 -354 -360 -368 -383 -394 -412 -414 -430 -436 -448 0
-8 -24 -34 -37 -55 -68 -75 -88 -106 -115 -119 -131 -142 -155 -172 -176 -184 -196 -214 -225 -232 -247 -254 -270 -284 -294 -300 -310 -322 -337 -349 -359 -378 -384 -393 -407 -417 -431 -440 -447 0
-6 -13 -34 -47 -49 -68 -77 -87 -96 -113 -126 -134 -150 -154 -167 -183 -184 -196 -214 -221 -237 -250 -255 -271 -280 -291 -307 -314 -329 -335 -350 -360 -378 -384 -397 -405 -414 -434 -440 -452 0
-6 -24 -34 -48 -54 -67 -79 -87 -99 -113 -118 -130 -148 -152 -163 -177 -187 -200 -213 -219 -237 -248 -258 -266 -286 -289 -298 -310 -330 -339 -347 -358 -378 -380 -401 -404 -419 -431 -439 -446 0
-9 -25 -34 -39 -52 -61 -79 -87 -99 -116 -120 -137 -140 -157 -172 -180 -194 -196 -210 -224 -232 -242 -255 -273 -283 -290 -302 -310 -322 -339 -344 -359 -374 -389 -396 -409 -414 -425 -436 -454 0
-1 -18 -34 -41 -59 -72 -79 -88 -97 -111 -123 -137 -142 -159 -172 -175 -192 -200 -208 -220 -235 -250 -254 -270 -284 -294 -302 -311 -332 -335 -345 -359 -377 -379 -392 -406 -423 -431 -443 -454 0
-5 -14 -34 -37 -54 -70 -79 -88 -106 -113 -121 -138 -141 -159 -170 -174 -192 -198 -211 -220 -238 -241 -258 -271 -276 -290 -303 -319 -322 -340 -344 -361 -370 -380 -397 -404 -418 -430 -439 -453 0
-5 -14 -34 -47 -54 -70 -79 -89 -106 -112 -121 -129 -146 -152 -170 -178 -185 -195 -213 -221 -231 -246 -262 -272 -282 -289 -307 -312 -324 -342 -354 -361 -374 -386 -396 -403 -414 -428 -442 -446 0
-11 -21 -34 -40 -50 -62 -79 -94 -100 -113 -119 -131 -140 -158 -163 -180 -194 -200 -210 -219 -239 -240 -257 -273 -277 -292 -299 -311 -330 -336 -345 -355 -369 -383 -393 -403 -416 -430 -436 -455 0
-3 -25 -34 -40 -59 -62 -77 -92 -100 -107 -126 -130 -146 -157 -167 -183 -185 -195 -209 -225 -233 -245 -262 -272 -284 -294 -301 -320 -328 -334 -346 -355 -369 -387 -391 -411 -415 -430 -437 -454 0
-8 -13 -34 -43 -58 -62 -82 -92 -98 -108 -128 -131 -144 -156 -167 -174 -194 -197 -206 -221 -239 -249 -259 -272 -277 -290 -303 -314 -330 -343 -352 -361 -367 -386 -391 -405 -417 -425 -441 -453 0
-1 -21 -34 -47 -52 -65 -83 -92 -103 -109 -121 -133 -144 -160 -166 -174 -186 -204 -215 -219 -230 -251 -260 -265 -280 -290 -303 -314 -332 -333 -344 -364 -376 -386 -396 -404 -414 -428 -439 -454 0
-5 -14 -34 -48 -53 -71 -78 -92 -98 -112 -120 -129 -145 -160 -171 -176 -189 -195 -210 -221 -237 -251 -255 -270 -283 -290 -298 -320 -332 -334 -344 -361 -376 -386 -396 -402 -415 -432 -439 -450 0
-5 -19 -34 -37 -49 -72 -78 -85 -102 -116 -124 -137 -145 -153 -171 -178 -187 -202 -214 -227 -231 -243 -254 -273 -282 -295 -298 -312 -328 -334 -352 -365 -366 -386 -394 -410 -415 -424 -445 -456 0
-2 -18 -34 -40 -59 -60 -74 -89 -103 -111 -124 -137 -150 -159 -167 -173 -185 -197 -213 -219 -238 -248 -263 -273 -277 -295 -302 -316 -326 -336 -345 -355 -369 -388 -390 -403 -416 -433 -436 -455 0
-4 -18 -34 -40 -59 -65 -78 -85 -103 -107 -124 -137 -150 -152 -164 -183 -192 -200 -215 -222 -235 -241 -257 -273 -282 -290 -307 -317 -332 -334 -346 -361 -373 -388 -396 -404 -421 -434 -436 -454 0
-3 -18 -34 -47 -52 -65 -81 -90 -96 -111 -124 -129 -146 -161 -167 -180 -184 -196 -210 -227 -236 -241 -262 -268 -278 -292 -302 -310 -330 -334 -354 -359 -369 -384 -393 -406 -419 -424 -444 -451 0
-1 -19 -34 -48 -59 -63 -78 -86 -98 -113 -124 -137 -145 -154 -169 -181 -189 -196 -207 -224 -231 -245 -263 -271 -278 -295 -302 -316 -327 -336 -345 -363 -369 -388 -394 -411 -415 -426 -440 -448 0
-7 -21 -34 -38 -59 -66 -81 -87 -96 -117 -124 -129 -141 -155 -164 -183 -192 -205 -207 -225 -233 -247 -261 -268 -276 -292 -300 -309 -325 -334 -346 -363 -374 -384 -394 -407 -413 -430 -439 -453 0
-11 -21 -34 -42 -49 -62 -73 -89 -96 -117 -121 -135 -144 -156 -171 -181 -189 -199 -207 -221 -230 -243 -257 -271 -286 -295 -299 -314 -329 -335 -347 -355 -367 -387 -391 -404 -421 -434 -445 -450 0
-12 -18 -34 -42 -58 -62 -78 -89 -96 -116 -121 -135 -141 -156 -169 -177 -184 -195 -212 -218 -230 -247 -257 -271 -284 -294 -307 -314 -326 -335 -344 -356 -368 -379 -396 -410 -421 -428 -445 -452 0
-11 -16 -34 -42 -52 -62 -78 -85 -97 -107 -122 -135 -150 -157 -172 -182 -185 -200 -206 -225 -232 -246 -258 -273 -277 -292 -302 -317 -326 -343 -346 -356 -368 -388 -395 -407 -415 -424 -437 -447 0
-6 -14 -34 -37 -50 -72 -75 -89 -103 -116 -120 -135 -148 -159 -167 -182 -192 -204 -208 -219 -228 -251 -253 -271 -279 -289 -304 -315 -326 -343 -346 -365 -376 -386 -393 -403 -413 -431 -438 -450 0
-7 -21 -34 -42 -59 -63 -81 -84 -97 -111 -119 -139 -147 -153 -169 -175 -185 -200 -210 -225 -228 -251 -261 -268 -277 -287 -304 -313 -322 -343 -352 -360 -373 -389 -401 -407 -413 -428 -439 -455 0
-4 -25 -34 -39 -52 -61 -76 -91 -97 -115 -127 -129 -147 -158 -165 -180 -190 -205 -216 -223 -229 -249 -256 -266 -283 -297 -299 -315 -322 -340 -345 -358 -370 -388 -398 -412 -415 -427 -436 -449 0
-6 -13 -34 -46 -54 -67 -76 -87 -96 -111 -120 -138 -147 -161 -162 -177 -185 -203 -216 -223 -235 -250 -256 -270 -279 -289 -300 -310 -329 -336 -350 -363 -378 -389 -391 -407 -422 -434 -443 -449 0
-6 -22 -35 -41 -50 -72 -80 -91 -99 -116 -118 -130 -141 -158 -171 -183 -190 -195 -209 -223 -233 -242 -261 -272 -278 -289 -301 -318 -330 -335 -346 -363 -372 -380 -395 -402 -413 -429 -438 -454 0
-4 -21 -35 -42 -57 -71 -73 -92 -101 -117 -122 -130 -141 -157 -162 -182 -192 -200 -209 -225 -233 -241 -261 -269 -286 -290 -301 -310 -324 -334 -350 -362 -373 -382 -391 -404 -417 -429 -442 -447 0
-12 -17 -35 -41 -51 -69 -78 -92 -105 -112 -121 -130 -141 -158 -168 -173 -188 -200 -207 -218 -230 -249 -256 -270 -285 -294 -302 -309 -330 -335 -348 -356 -371 -389 -395 -404 -413 -428 -437 -451 0
-8 -14 -35 -47 -52 -67 -83 -93 -95 -110 -124 -133 -141 -155 -168 -179 -189 -196 -215 -220 -232 -240 -253 -275 -284 -292 -300 -319 -321 -334 -346 -361 -371 -380 -396 -404 -417 -432 -444 -451 0
-12 -20 -35 -38 -55 -64 -82 -90 -98 -108 -124 -136 -141 -155 -168 -173 -190 -199 -207 -226 -232 -244 -254 -268 -284 -291 -299 -318 -329 -333 -344 -359 -376 -384 -392 -411 -416 -424 -441 -447 0
-8 -18 -35 -37 -56 -64 -78 -94 -96 -110 -127 -136 -141 -154 -168 -176 -184 -200 -207 -226 -237 -244 -255 -270 -286 -288 -305 -312 -329 -338 -350 -355 -372 -384 -400 -407 -413 -427 -436 -455 0
-6 -21 -35 -41 -57 -60 -77 -85 -99 -117 -124 -138 -141 -153 -166 -173 -194 -202 -209 -218 -237 -242 -260 -275 -280 -292 -305 -309 -330 -342 -347 -358 -371 -381 -392 -404 -419 -432 -442 -455 0
-12 -19 -35 -42 -59 -61 -78 -89 -100 -109 -124 -136 -142 -154 -171 -180 -185 -200 -209 -224 -229 -248 -257 -273 -279 -293 -308 -317 -325 -336 -348 -356 -373 -386 -396 -408 -414 -432 -445 -449 0
-2 -19 -35 -39 -56 -72 -73 -91 -104 -116 -123 -132 -143 -157 -162 -178 -187 -203 -213 -219 -237 -243 -262 -275 -282 -293 -304 -312 -332 -334 -346 -355 -376 -389 -398 -406 -420 -425 -437 -454 0
-12 -15 -35 -42 -59 -64 -78 -92 -98 -114 -122 -130 -143 -157 -167 -180 -192 -195 -209 -222 -238 -249 -252 -269 -277 -290 -301 -316 -328 -340 -344 -362 -370 -386 -393 -405 -417 -429 -438 -448 0
-1 -22 -35 -40 -50 -69 -76 -91 -100 -109 -128 -138 -143 -158 -172 -176 -194 -201 -211 -219 -233 -243 -261 -272 -277 -287 -305 -313 -322 -340 -352 -360 -372 -380 -399 -410 -421 -426 -441 -455 0
-3 -18 -35 -45 -54 -64 -83 -84 -105 -113 -119 -135 -143 -159 -172 -173 -186 -204 -212 -223 -235 -243 -260 -267 -285 -294 -304 -313 -332 -338 -344 -358 -372 -385 -398 -403 -419 -426 -438 -448 0
-7 -22 -35 -45 -50 -66 -73 -91 -106 -111 -120 -138 -144 -151 -162 -182 -188 -196 -208 -224 -236 -249 -253 -268 -281 -291 -304 -319 -327 -336 -345 -362 -369 -385 -393 -406 -416 -426 -443 -451 0
-9 -16 -35 -48 -57 -65 -75 -92 -95 -112 -120 -138 -144 -151 -171 -176 -190 -195 -208 -222 -232 -242 -260 -271 -284 -291 -306 -318 -321 -333 -346 -360 -373 -388 -397 -404 -418 -429 -437 -450 0
-7 -17 -35 -42 -55 -60 -82 -94 -98 -108 -124 -136 -144 -152 -167 -183 -185 -196 -213 -222 -229 -248 -254 -274 -284 -291 -301 -316 -331 -342 -354 -358 -371 -386 -390 -411 -416 -432 -443 -447 0
-8 -17 -35 -48 -56 -61 -82 -84 -101 -110 -125 -134 -144 -152 -163 -175 -189 -198 -212 -225 -238 -242 -261 -272 -286 -292 -299 -317 -331 -333 -349 -358 -378 -381 -401 -410 -416 -433 -440 -446 0
-10 -17 -35 -41 -50 -60 -82 -90 -101 -108 -128 -134 -144 -152 -172 -174 -194 -196 -210 -221 -234 -249 -254 -271 -283 -291 -301 -318 -330 -335 -354 -356 -376 -385 -400 -402 -416 -432 -443 -451 0
-12 -14 -35 -43 -52 -71 -75 -93 -102 -109 -124 -132 -144 -158 -165 -178 -190 -202 -207 -219 -237 -248 -252 -274 -278 -293 -298 -317 -332 -337 -348 -358 -376 -388 -390 -407 -416 -433 -439 -447 0
-10 -17 -35 -41 -50 -71 -83 -88 -103 -107 -122 -130 -146 -152 -172 -180 -188 -196 -208 -223 -232 -250 -260 -273 -277 -289 -302 -318 -329 -335 -348 -356 -374 -385 -393 -403 -414 -424 -438 -447 0
-6 -16 -35 -41 -59 -68 -73 -93 -106 -108 -123 -133 -146 -152 -163 -179 -189 -198 -213 -226 -237 -251 -254 -272 -280 -292 -306 -311 -332 -337 -350 -356 -372 -389 -400 -408 -417 -432 -439 -453 0
-6 -16 -35 -42 -56 -72 -80 -84 -105 -113 -119 -133 -146 -152 -170 -174 -189 -201 -214 -222 -238 -241 -259 -269 -277 -292 -306 -313 -330 -333 -351 -357 -372 -382 -391 -406 -420 -433 -437 -456 0
-1 -22 -35 -47 -49 -65 -80 -90 -98 -112 -128 -133 -146 -155 -164 -183 -193 -198 -211 -222 -229 -248 -262 -268 -282 -296 -298 -311 -331 -337 -350 -355 -372 -384 -397 -407 -421 -429 -437 -456 0
-2 -22 -35 -42 -59 -65 -73 -87 -99 -117 -122 -136 -146 -156 -162 -176 -185 -200 -216 -224 -233 -248 -261 -269 -285 -296 -299 -317 -328 -335 -344 -356 -368 -384 -401 -402 -421 -429 -442 -448 0
-3 -25 -35 -47 -56 -62 -76 -85 -101 -107 -123 -136 -146 -155 -167 -182 -188 -204 -213 -219 -239 -245 -253 -268 -283 -289 -301 -315 -330 -341 -345 -363 -370 -386 -393 -403 -423 -429 -435 -448 0
-10 -18 -35 -41 -54 -61 -74 -94 -95 -111 -120 -138 -146 -156 -165 -178 -192 -204 -207 -226 -230 -240 -263 -271 -278 -293 -308 -311 -327 -335 -350 -356 -376 -386 -390 -410 -414 -429 -444 -453 0
-5 -14 -35 -48 -59 -65 -80 -87 -103 -112 -118 -134 -147 -152 -163 -177 -190 -202 -216 -223 -231 -250 -260 -269 -284 -296 -299 -312 -324 -338 -351 -357 -373 -384 -401 -408 -419 -433 -437 -446 0
-12 -15 -35 -45 -51 -67 -79 -90 -99 -112 -119 -132 -149 -157 -167 -177 -194 -203 -209 -217 -237 -241 -252 -271 -279 -288 -308 -314 -326 -341 -344 -363 -373 -379 -398 -411 -423 -427 -435 -452 0
-7 -22 -35 -43 -50 -62 -77 -93 -96 -117 -118 -131 -149 -155 -162 -183 -193 -200 -215 -219 -231 -246 -253 -272 -282 -291 -299 -309 -331 -336 -352 -357 -378 -380 -391 -406 -423 -425 -439 -451 0
-9 -18 -35 -41 -57 -64 -73 -87 -96 -117 -124 -133 -149 -152 -172 -179 -192 -196 -215 -225 -233 -243 -261 -268 -277 -290 -301 -316 -328 -334 -346 -363 -367 -380 -395 -404 -421 -427 -444 -455 0
-5 -21 -35 -48 -54 -68 -73 -87 -96 -112 -120 -136 -149 -157 -170 -173 -187 -200 -208 -222 -235 -248 -253 -266 -285 -294 -300 -310 -321 -336 -348 -358 -378 -380 -401 -404 -414 -428 -439 -451 0
-7 -22 -35 -48 -49 -60 -77 -87 -96 -114 -122 -134 -149 -154 -163 -181 -188 -196 -214 -223 -231 -250 -252 -275 -282 -291 -306 -310 -325 -336 -344 -358 -375 -384 -395 -405 -415 -433 -441 -452 0
-9 -18 -35 -40 -50 -60 -76 -92 -99 -114 -128 -130 -149 -152 -163 -176 -194 -199 -212 -225 -239 -242 -256 -273 -283 -293 -300 -313 -332 -333 -352 -358 -368 -386 -396 -403 -416 -425 -441 -447 0
-2 -19 -35 -48 -56 -65 -77 -91 -99 -107 -121 -136 -149 -155 -170 -179 -187 -196 -215 -225 -231 -242 -252 -272 -281 -288 -308 -309 -322 -339 -352 -361 -373 -386 -398 -411 -414 -425 -441 -452 0
-1 -22 -35 -38 -55 -63 -76 -86 -101 -110 -128 -136 -149 -158 -167 -183 -188 -196 -214 -220 -230 -241 -255 -273 -285 -296 -302 -311 -321 -335 -348 -360 -370 -389 -401 -402 -416 -432 -441 -455 0
-6 -14 -36 -43 -53 -69 -74 -90 -99 -116 -120 -135 -140 -160 -163 -173 -190 -203 -210 -227 -237 -244 -262 -269 -281 -290 -305 -313 -329 -342 -348 -365 -372 -387 -397 -406 -420 -426 -445 -453 0
-5 -21 -36 -47 -57 -64 -76 -90 -97 -110 -119 -135 -140 -160 -163 -173 -186 -199 -215 -217 -234 -249 -263 -269 -283 -290 -299 -310 -331 -339 -354 -359 -376 -387 -399 -404 -421 -428 -436 -450 0
-6 -23 -36 -45 -54 -68 -76 -87 -99 -108 -120 -138 -140 -159 -168 -178 -194 -196 -206 -227 -229 -242 -255 -270 -279 -293 -299 -310 -322 -338 -354 -359 -374 -389 -391 -409 -419 -425 -440 -454 0
-8 -15 -36 -39 -50 -68 -82 -91 -104 -112 -118 -137 -143 -151 -164 -179 -186 -203 -211 -221 -229 -250 -259 -264 -284 -292 -307 -319 -323 -338 -346 -360 -372 -385 -398 -410 -418 -430 -441 -447 0
-2 -23 -36 -47 -53 -67 -79 -93 -101 -110 -123 -129 -143 -155 -164 -179 -194 -203 -213 -221 -228 -246 -257 -275 -281 -291 -301 -313 -332 -334 -350 -364 -373 -381 -396 -404 -423 -427 -442 -449 0
-6 -15 -36 -45 -55 -71 -74 -84 -102 -108 -126 -135 -143 -158 -162 -177 -192 -202 -209 -227 -237 -247 -258 -265 -285 -294 -308 -317 -324 -337 -348 -358 -377 -381 -393 -409 -419 -426 -445 -446 0
-1 -23 -36 -44 -54 -62 -82 -93 -101 -113 -120 -134 -144 -153 -166 -174 -194 -203 -210 -219 -230 -251 -257 -271 -282 -290 -304 -315 -329 -336 -351 -365 -377 -382 -397 -411 -414 -431 -445 -449 0
-2 -23 -36 -43 -52 -66 -82 -93 -95 -110 -124 -133 -144 -157 -167 -175 -185 -203 -215 -227 -233 -242 -252 -271 -279 -295 -302 -314 -331 -333 -354 -359 -373 -385 -397 -410 -414 -431 -439 -455 0
-3 -24 -36 -44 -54 -70 -73 -88 -96 -111 -125 -134 -144 -157 -167 -180 -188 -204 -208 -219 -239 -241 -260 -264 -279 -288 -305 -316 -332 -339 -347 -361 -374 -388 -398 -405 -413 -430 -443 -456 0
-2 -22 -36 -38 -58 -65 -77 -93 -101 -107 -121 -138 -144 -159 -166 -174 -186 -205 -209 -217 -228 -251 -258 -272 -284 -288 -307 -319 -328 -335 -347 -362 -378 -388 -396 -411 -422 -429 -441 -452 0
-10 -14 -36 -42 -52 -67 -75 -89 -97 -107 -121 -138 -144 -160 -166 -175 -185 -204 -215 -220 -233 -248 -253 -275 -276 -293 -298 -312 -329 -342 -348 -365 -371 -387 -396 -411 -420 -432 -435 -447 0
-8 -16 -36 -43 -57 -64 -73 -85 -105 -111 -120 -135 -144 -160 -171 -179 -185 -197 -216 -221 -230 -249 -253 -272 -281 -294 -298 -320 -328 -339 -347 -365 -367 -387 -399 -402 -421 -426 -445 -451 0
-3 -24 -36 -43 -58 -65 -75 -93 -100 -112 -118 -135 -145 -151 -168 -177 -190 -204 -206 -219 -234 -243 -253 -268 -279 -292 -304 -310 -322 -338 -346 -363 -375 -383 -395 -403 -413 -433 -435 -456 0
-7 -21 -36 -45 -49 -70 -73 -87 -100 -108 -127 -135 -145 -154 -163 -181 -189 -197 -214 -226 -239 -240 -256 -271 -280 -290 -307 -316 -327 -333 -350 -363 -375 -383 -399 -410 -415 -433 -435 -453 0
-11 -22 -36 -39 -57 -65 -75 -86 -95 -112 -121 -130 -145 -159 -163 -175 -186 -200 -206 -224 -232 -250 -263 -273 -277 -288 -302 -320 -323 -340 -352 -362 -368 -387 -397 -407 -415 -429 -436 -452 0
-5 -14 -36 -44 -52 -69 -82 -87 -102 -115 -120 -129 -145 -159 -163 -173 -186 -198 -216 -225 -234 -249 -258 -272 -285 -290 -302 -319 -329 -340 -346 -365 -377 -389 -390 -405 -418 -432 -444 -449 0
-4 -24 -36 -42 -52 -68 -81 -93 -100 -113 -118 -131 -146 -151 -168 -176 -190 -200 -206 -222 -230 -249 -253 -267 -279 -293 -299 -310 -329 -342 -346 -357 -374 -384 -392 -402 -422 -425 -442 -452 0
-1 -23 -36 -38 -56 -65 -77 -87 -101 -109 -127 -136 -146 -155 -169 -178 -188 -202 -207 -219 -231 -245 -258 -275 -277 -288 -307 -315 -330 -339 -351 -357 -371 -384 -392 -408 -418 -433 -444 -446 0
-6 -22 -36 -42 -50 -61 -76 -86 -95 -115 -127 -136 -146 -154 -169 -174 -189 -204 -209 -224 -232 -246 -263 -265 -276 -296 -302 -318 -327 -335 -350 -356 -370 -389 -396 -408 -414 -425 -438 -449 0
-6 -15 -36 -41 -58 -60 -75 -93 -98 -108 -127 -134 -147 -158 -164 -183 -188 -202 -207 -223 -237 -240 -260 -270 -285 -294 -302 -320 -332 -340 -346 -358 -371 -384 -390 -409 -420 -433 -439 -447 0
-1 -15 -36 -38 -53 -63 -79 -90 -101 -116 -121 -136 -148 -159 -170 -179 -192 -196 -211 -225 -231 -241 -254 -274 -279 -288 -302 -319 -326 -343 -350 -365 -371 -380 -397 -409 -418 -424 -435 -452 0
-10 -15 -36 -39 -52 -61 -75 -89 -95 -110 -123 -137 -149 -159 -164 -178 -194 -203 -213 -221 -231 -241 -263 -273 -276 -293 -298 -312 -325 -342 -347 -356 -378 -379 -396 -410 -422 -433 -445 -446 0
-7 -14 -36 -46 -50 -68 -77 -91 -104 -109 -118 -133 -149 -155 -167 -177 -186 -204 -216 -226 -229 -244 -259 -272 -276 -294 -301 -318 -324 -334 -347 -365 -371 -380 -393 -411 -421 -431 -438 -447 0
-4 -18 -36 -45 -58 -64 -76 -85 -103 -107 -124 -131 -149 -159 -167 -173 -194 -197 -216 -225 -230 -241 -256 -273 -283 -290 -298 -315 -332 -343 -351 -356 -376 -388 -392 -404 -416 -431 -437 -447 0
-1 -22 -36 -40 -57 -70 -78 -87 -99 -113 -123 -131 -149 -155 -169 -176 -188 -198 -211 -224 -229 -242 -261 -267 -286 -291 -308 -310 -322 -343 -346 -360 -375 -384 -394 -404 -414 -430 -442 -455 0
-5 -23 -36 -37 -57 -61 -79 -89 -97 -112 -123 -134 -149 -153 -162 -178 -186 -203 -210 -221 -235 -243 -262 -275 -282 -291 -299 -312 -331 -336 -353 -365 -368 -383 -398 -405 -415 -432 -445 -454 0
-4 -14 -36 -46 -55 -63 -80 -88 -95 -113 -124 -131 -149 -158 -167 -173 -191 -204 -214 -220 -233 -241 -263 -267 -285 -292 -298 -312 -332 -337 -353 -361 -376 -379 -398 -405 -415 -430 -436 -452 0
-9 -22 -36 -46 -51 -61 -76 -93 -98 -107 -120 -133 -149 -156 -171 -179 -188 -204 -207 -217 -236 -251 -255 -268 -279 -296 -301 -311 -325 -338 -345 -364 -372 -382 -395 -403 -416 -431 -440 -448 0
