p cnf 456 10171
1 2 3 4 5 6 7 8 9 10 11 0
-1 -2 0
-1 -3 0
-1 -4 0
-1 -5 0
-1 -6 0
-1 -7 0
-1 -8 0
-1 -9 0
-1 -10 0
-1 -11 0
-2 -3 0
-2 -4 0
-2 -5 0
-2 -6 0
-2 -7 0
-2 -8 0
-2 -9 0
-2 -10 0
-2 -11 0
-3 -4 0
-3 -5 0
-3 -6 0
-3 -7 0
-3 -8 0
-3 -9 0
-3 -10 0
-3 -11 0
-4 -5 0
-4 -6 0
-4 -7 0
-4 -8 0
-4 -9 0
-4 -10 0
-4 -11 0
-5 -6 0
-5 -7 0
-5 -8 0
-5 -9 0
-5 -10 0
-5 -11 0
-6 -7 0
-6 -8 0
-6 -9 0
-6 -10 0
-6 -11 0
-7 -8 0
-7 -9 0
-7 -10 0
-7 -11 0
-8 -9 0
-8 -10 0
-8 -11 0
-9 -10 0
-9 -11 0
-10 -11 0
12 13 14 15 16 17 18 19 20 21 22 23 0
-12 -13 0
-12 -14 0
-12 -15 0
-12 -16 0
-12 -17 0
-12 -18 0
-12 -19 0
-12 -20 0
-12 -21 0
-12 -22 0
-12 -23 0
-13 -14 0
-13 -15 0
-13 -16 0
-13 -17 0
-13 -18 0
-13 -19 0
-13 -20 0
-13 -21 0
-13 -22 0
-13 -23 0
-14 -15 0
-14 -16 0
-14 -17 0
-14 -18 0
-14 -19 0
-14 -20 0
-14 -21 0
-14 -22 0
-14 -23 0
-15 -16 0
-15 -17 0
-15 -18 0
-15 -19 0
-15 -20 0
-15 -21 0
-15 -22 0
-15 -23 0
-16 -17 0
-16 -18 0
-16 -19 0
-16 -20 0
-16 -21 0
-16 -22 0
-16 -23 0
-17 -18 0
-17 -19 0
-17 -20 0
-17 -21 0
-17 -22 0
-17 -23 0
-18 -19 0
-18 -20 0
-18 -21 0
-18 -22 0
-18 -23 0
-19 -20 0
-19 -21 0
-19 -22 0
-19 -23 0
-20 -21 0
-20 -22 0
-20 -23 0
-21 -22 0
-21 -23 0
-22 -23 0
24 25 26 27 28 29 30 31 32 33 34 0
-24 -25 0
-24 -26 0
-24 -27 0
-24 -28 0
-24 -29 0
-24 -30 0
-24 -31 0
-24 -32 0
-24 -33 0
-24 -34 0
-25 -26 0
-25 -27 0
-25 -28 0
-25 -29 0
-25 -30 0
-25 -31 0
-25 -32 0
-25 -33 0
-25 -34 0
-26 -27 0
-26 -28 0
-26 -29 0
-26 -30 0
-26 -31 0
-26 -32 0
-26 -33 0
-26 -34 0
-27 -28 0
-27 -29 0
-27 -30 0
-27 -31 0
-27 -32 0
-27 -33 0
-27 -34 0
-28 -29 0
-28 -30 0
-28 -31 0
-28 -32 0
-28 -33 0
-28 -34 0
-29 -30 0
-29 -31 0
-29 -32 0
-29 -33 0
-29 -34 0
-30 -31 0
-30 -32 0
-30 -33 0
-30 -34 0
-31 -32 0
-31 -33 0
-31 -34 0
-32 -33 0
-32 -34 0
-33 -34 0
35 36 37 38 39 40 41 42 43 44 45 0
-35 -36 0
-35 -37 0
-35 -38 0
-35 -39 0
-35 -40 0
-35 -41 0
-35 -42 0
-35 -43 0
-35 -44 0
-35 -45 0
-36 -37 0
-36 -38 0
-36 -39 0
-36 -40 0
-36 -41 0
-36 -42 0
-36 -43 0
-36 -44 0
-36 -45 0
-37 -38 0
-37 -39 0
-37 -40 0
-37 -41 0
-37 -42 0
-37 -43 0
-37 -44 0
-37 -45 0
-38 -39 0
-38 -40 0
-38 -41 0
-38 -42 0
-38 -43 0
-38 -44 0
-38 -45 0
-39 -40 0
-39 -41 0
-39 -42 0
-39 -43 0
-39 -44 0
-39 -45 0
-40 -41 0
-40 -42 0
-40 -43 0
-40 -44 0
-40 -45 0
-41 -42 0
-41 -43 0
-41 -44 0
-41 -45 0
-42 -43 0
-42 -44 0
-42 -45 0
-43 -44 0
-43 -45 0
-44 -45 0
46 47 48 49 50 51 52 53 54 55 56 0
-46 -47 0
-46 -48 0
-46 -49 0
-46 -50 0
-46 -51 0
-46 -52 0
-46 -53 0
-46 -54 0
-46 -55 0
-46 -56 0
-47 -48 0
-47 -49 0
-47 -50 0
-47 -51 0
-47 -52 0
-47 -53 0
-47 -54 0
-47 -55 0
-47 -56 0
-48 -49 0
-48 -50 0
-48 -51 0
-48 -52 0
-48 -53 0
-48 -54 0
-48 -55 0
-48 -56 0
-49 -50 0
-49 -51 0
-49 -52 0
-49 -53 0
-49 -54 0
-49 -55 0
-49 -56 0
-50 -51 0
-50 -52 0
-50 -53 0
-50 -54 0
-50 -55 0
-50 -56 0
-51 -52 0
-51 -53 0
-51 -54 0
-51 -55 0
-51 -56 0
-52 -53 0
-52 -54 0
-52 -55 0
-52 -56 0
-53 -54 0
-53 -55 0
-53 -56 0
-54 -55 0
-54 -56 0
-55 -56 0
57 58 59 60 61 62 63 64 65 66 67 0
-57 -58 0
-57 -59 0
-57 -60 0
-57 -61 0
-57 -62 0
-57 -63 0
-57 -64 0
-57 -65 0
-57 -66 0
-57 -67 0
-58 -59 0
-58 -60 0
-58 -61 0
-58 -62 0
-58 -63 0
-58 -64 0
-58 -65 0
-58 -66 0
-58 -67 0
-59 -60 0
-59 -61 0
-59 -62 0
-59 -63 0
-59 -64 0
-59 -65 0
-59 -66 0
-59 -67 0
-60 -61 0
-60 -62 0
-60 -63 0
-60 -64 0
-60 -65 0
-60 -66 0
-60 -67 0
-61 -62 0
-61 -63 0
-61 -64 0
-61 -65 0
-61 -66 0
-61 -67 0
-62 -63 0
-62 -64 0
-62 -65 0
-62 -66 0
-62 -67 0
-63 -64 0
-63 -65 0
-63 -66 0
-63 -67 0
-64 -65 0
-64 -66 0
-64 -67 0
-65 -66 0
-65 -67 0
-66 -67 0
68 69 70 71 72 73 74 75 76 77 78 0
-68 -69 0
-68 -70 0
-68 -71 0
-68 -72 0
-68 -73 0
-68 -74 0
-68 -75 0
-68 -76 0
-68 -77 0
-68 -78 0
-69 -70 0
-69 -71 0
-69 -72 0
-69 -73 0
-69 -74 0
-69 -75 0
-69 -76 0
-69 -77 0
-69 -78 0
-70 -71 0
-70 -72 0
-70 -73 0
-70 -74 0
-70 -75 0
-70 -76 0
-70 -77 0
-70 -78 0
-71 -72 0
-71 -73 0
-71 -74 0
-71 -75 0
-71 -76 0
-71 -77 0
-71 -78 0
-72 -73 0
-72 -74 0
-72 -75 0
-72 -76 0
-72 -77 0
-72 -78 0
-73 -74 0
-73 -75 0
-73 -76 0
-73 -77 0
-73 -78 0
-74 -75 0
-74 -76 0
-74 -77 0
-74 -78 0
-75 -76 0
-75 -77 0
-75 -78 0
-76 -77 0
-76 -78 0
-77 -78 0
79 80 81 82 83 84 85 86 87 88 89 0
-79 -80 0
-79 -81 0
-79 -82 0
-79 -83 0
-79 -84 0
-79 -85 0
-79 -86 0
-79 -87 0
-79 -88 0
-79 -89 0
-80 -81 0
-80 -82 0
-80 -83 0
-80 -84 0
-80 -85 0
-80 -86 0
-80 -87 0
-80 -88 0
-80 -89 0
-81 -82 0
-81 -83 0
-81 -84 0
-81 -85 0
-81 -86 0
-81 -87 0
-81 -88 0
-81 -89 0
-82 -83 0
-82 -84 0
-82 -85 0
-82 -86 0
-82 -87 0
-82 -88 0
-82 -89 0
-83 -84 0
-83 -85 0
-83 -86 0
-83 -87 0
-83 -88 0
-83 -89 0
-84 -85 0
-84 -86 0
-84 -87 0
-84 -88 0
-84 -89 0
-85 -86 0
-85 -87 0
-85 -88 0
-85 -89 0
-86 -87 0
-86 -88 0
-86 -89 0
-87 -88 0
-87 -89 0
-88 -89 0
90 91 92 93 94 95 96 97 98 99 100 0
-90 -91 0
-90 -92 0
-90 -93 0
-90 -94 0
-90 -95 0
-90 -96 0
-90 -97 0
-90 -98 0
-90 -99 0
-90 -100 0
-91 -92 0
-91 -93 0
-91 -94 0
-91 -95 0
-91 -96 0
-91 -97 0
-91 -98 0
-91 -99 0
-91 -100 0
-92 -93 0
-92 -94 0
-92 -95 0
-92 -96 0
-92 -97 0
-92 -98 0
-92 -99 0
-92 -100 0
-93 -94 0
-93 -95 0
-93 -96 0
-93 -97 0
-93 -98 0
-93 -99 0
-93 -100 0
-94 -95 0
-94 -96 0
-94 -97 0
-94 -98 0
-94 -99 0
-94 -100 0
-95 -96 0
-95 -97 0
-95 -98 0
-95 -99 0
-95 -100 0
-96 -97 0
-96 -98 0
-96 -99 0
-96 -100 0
-97 -98 0
-97 -99 0
-97 -100 0
-98 -99 0
-98 -100 0
-99 -100 0
101 102 103 104 105 106 107 108 109 110 111 112 0
-101 -102 0
-101 -103 0
-101 -104 0
-101 -105 0
-101 -106 0
-101 -107 0
-101 -108 0
-101 -109 0
-101 -110 0
-101 -111 0
-101 -112 0
-102 -103 0
-102 -104 0
-102 -105 0
-102 -106 0
-102 -107 0
-102 -108 0
-102 -109 0
-102 -110 0
-102 -111 0
-102 -112 0
-103 -104 0
-103 -105 0
-103 -106 0
-103 -107 0
-103 -108 0
-103 -109 0
-103 -110 0
-103 -111 0
-103 -112 0
-104 -105 0
-104 -106 0
-104 -107 0
-104 -108 0
-104 -109 0
-104 -110 0
-104 -111 0
-104 -112 0
-105 -106 0
-105 -107 0
-105 -108 0
-105 -109 0
-105 -110 0
-105 -111 0
-105 -112 0
-106 -107 0
-106 -108 0
-106 -109 0
-106 -110 0
-106 -111 0
-106 -112 0
-107 -108 0
-107 -109 0
-107 -110 0
-107 -111 0
-107 -112 0
-108 -109 0
-108 -110 0
-108 -111 0
-108 -112 0
-109 -110 0
-109 -111 0
-109 -112 0
-110 -111 0
-110 -112 0
-111 -112 0
113 114 115 116 117 118 119 120 121 122 123 124 0
-113 -114 0
-113 -115 0
-113 -116 0
-113 -117 0
-113 -118 0
-113 -119 0
-113 -120 0
-113 -121 0
-113 -122 0
-113 -123 0
-113 -124 0
-114 -115 0
-114 -116 0
-114 -117 0
-114 -118 0
-114 -119 0
-114 -120 0
-114 -121 0
-114 -122 0
-114 -123 0
-114 -124 0
-115 -116 0
-115 -117 0
-115 -118 0
-115 -119 0
-115 -120 0
-115 -121 0
-115 -122 0
-115 -123 0
-115 -124 0
-116 -117 0
-116 -118 0
-116 -119 0
-116 -120 0
-116 -121 0
-116 -122 0
-116 -123 0
-116 -124 0
-117 -118 0
-117 -119 0
-117 -120 0
-117 -121 0
-117 -122 0
-117 -123 0
-117 -124 0
-118 -119 0
-118 -120 0
-118 -121 0
-118 -122 0
-118 -123 0
-118 -124 0
-119 -120 0
-119 -121 0
-119 -122 0
-119 -123 0
-119 -124 0
-120 -121 0
-120 -122 0
-120 -123 0
-120 -124 0
-121 -122 0
-121 -123 0
-121 -124 0
-122 -123 0
-122 -124 0
-123 -124 0
125 126 127 128 129 130 131 132 133 134 135 136 0
-125 -126 0
-125 -127 0
-125 -128 0
-125 -129 0
-125 -130 0
-125 -131 0
-125 -132 0
-125 -133 0
-125 -134 0
-125 -135 0
-125 -136 0
-126 -127 0
-126 -128 0
-126 -129 0
-126 -130 0
-126 -131 0
-126 -132 0
-126 -133 0
-126 -134 0
-126 -135 0
-126 -136 0
-127 -128 0
-127 -129 0
-127 -130 0
-127 -131 0
-127 -132 0
-127 -133 0
-127 -134 0
-127 -135 0
-127 -136 0
-128 -129 0
-128 -130 0
-128 -131 0
-128 -132 0
-128 -133 0
-128 -134 0
-128 -135 0
-128 -136 0
-129 -130 0
-129 -131 0
-129 -132 0
-129 -133 0
-129 -134 0
-129 -135 0
-129 -136 0
-130 -131 0
-130 -132 0
-130 -133 0
-130 -134 0
-130 -135 0
-130 -136 0
-131 -132 0
-131 -133 0
-131 -134 0
-131 -135 0
-131 -136 0
-132 -133 0
-132 -134 0
-132 -135 0
-132 -136 0
-133 -134 0
-133 -135 0
-133 -136 0
-134 -135 0
-134 -136 0
-135 -136 0
137 138 139 140 141 142 143 144 145 146 147 148 0
-137 -138 0
-137 -139 0
-137 -140 0
-137 -141 0
-137 -142 0
-137 -143 0
-137 -144 0
-137 -145 0
-137 -146 0
-137 -147 0
-137 -148 0
-138 -139 0
-138 -140 0
-138 -141 0
-138 -142 0
-138 -143 0
-138 -144 0
-138 -145 0
-138 -146 0
-138 -147 0
-138 -148 0
-139 -140 0
-139 -141 0
-139 -142 0
-139 -143 0
-139 -144 0
-139 -145 0
-139 -146 0
-139 -147 0
-139 -148 0
-140 -141 0
-140 -142 0
-140 -143 0
-140 -144 0
-140 -145 0
-140 -146 0
-140 -147 0
-140 -148 0
-141 -142 0
-141 -143 0
-141 -144 0
-141 -145 0
-141 -146 0
-141 -147 0
-141 -148 0
-142 -143 0
-142 -144 0
-142 -145 0
-142 -146 0
-142 -147 0
-142 -148 0
-143 -144 0
-143 -145 0
-143 -146 0
-143 -147 0
-143 -148 0
-144 -145 0
-144 -146 0
-144 -147 0
-144 -148 0
-145 -146 0
-145 -147 0
-145 -148 0
-146 -147 0
-146 -148 0
-147 -148 0
149 150 151 152 153 154 155 156 157 158 159 160 0
-149 -150 0
-149 -151 0
-149 -152 0
-149 -153 0
-149 -154 0
-149 -155 0
-149 -156 0
-149 -157 0
-149 -158 0
-149 -159 0
-149 -160 0
-150 -151 0
-150 -152 0
-150 -153 0
-150 -154 0
-150 -155 0
-150 -156 0
-150 -157 0
-150 -158 0
-150 -159 0
-150 -160 0
-151 -152 0
-151 -153 0
-151 -154 0
-151 -155 0
-151 -156 0
-151 -157 0
-151 -158 0
-151 -159 0
-151 -160 0
-152 -153 0
-152 -154 0
-152 -155 0
-152 -156 0
-152 -157 0
-152 -158 0
-152 -159 0
-152 -160 0
-153 -154 0
-153 -155 0
-153 -156 0
-153 -157 0
-153 -158 0
-153 -159 0
-153 -160 0
-154 -155 0
-154 -156 0
-154 -157 0
-154 -158 0
-154 -159 0
-154 -160 0
-155 -156 0
-155 -157 0
-155 -158 0
-155 -159 0
-155 -160 0
-156 -157 0
-156 -158 0
-156 -159 0
-156 -160 0
-157 -158 0
-157 -159 0
-157 -160 0
-158 -159 0
-158 -160 0
-159 -160 0
161 162 163 164 165 166 167 168 169 170 171 0
-161 -162 0
-161 -163 0
-161 -164 0
-161 -165 0
-161 -166 0
-161 -167 0
-161 -168 0
-161 -169 0
-161 -170 0
-161 -171 0
-162 -163 0
-162 -164 0
-162 -165 0
-162 -166 0
-162 -167 0
-162 -168 0
-162 -169 0
-162 -170 0
-162 -171 0
-163 -164 0
-163 -165 0
-163 -166 0
-163 -167 0
-163 -168 0
-163 -169 0
-163 -170 0
-163 -171 0
-164 -165 0
-164 -166 0
-164 -167 0
-164 -168 0
-164 -169 0
-164 -170 0
-164 -171 0
-165 -166 0
-165 -167 0
-165 -168 0
-165 -169 0
-165 -170 0
-165 -171 0
-166 -167 0
-166 -168 0
-166 -169 0
-166 -170 0
-166 -171 0
-167 -168 0
-167 -169 0
-167 -170 0
-167 -171 0
-168 -169 0
-168 -170 0
-168 -171 0
-169 -170 0
-169 -171 0
-170 -171 0
172 173 174 175 176 177 178 179 180 181 182 183 0
-172 -173 0
-172 -174 0
-172 -175 0
-172 -176 0
-172 -177 0
-172 -178 0
-172 -179 0
-172 -180 0
-172 -181 0
-172 -182 0
-172 -183 0
-173 -174 0
-173 -175 0
-173 -176 0
-173 -177 0
-173 -178 0
-173 -179 0
-173 -180 0
-173 -181 0
-173 -182 0
-173 -183 0
-174 -175 0
-174 -176 0
-174 -177 0
-174 -178 0
-174 -179 0
-174 -180 0
-174 -181 0
-174 -182 0
-174 -183 0
-175 -176 0
-175 -177 0
-175 -178 0
-175 -179 0
-175 -180 0
-175 -181 0
-175 -182 0
-175 -183 0
-176 -177 0
-176 -178 0
-176 -179 0
-176 -180 0
-176 -181 0
-176 -182 0
-176 -183 0
-177 -178 0
-177 -179 0
-177 -180 0
-177 -181 0
-177 -182 0
-177 -183 0
-178 -179 0
-178 -180 0
-178 -181 0
-178 -182 0
-178 -183 0
-179 -180 0
-179 -181 0
-179 -182 0
-179 -183 0
-180 -181 0
-180 -182 0
-180 -183 0
-181 -182 0
-181 -183 0
-182 -183 0
184 185 186 187 188 189 190 191 192 193 194 0
-184 -185 0
-184 -186 0
-184 -187 0
-184 -188 0
-184 -189 0
-184 -190 0
-184 -191 0
-184 -192 0
-184 -193 0
-184 -194 0
-185 -186 0
-185 -187 0
-185 -188 0
-185 -189 0
-185 -190 0
-185 -191 0
-185 -192 0
-185 -193 0
-185 -194 0
-186 -187 0
-186 -188 0
-186 -189 0
-186 -190 0
-186 -191 0
-186 -192 0
-186 -193 0
-186 -194 0
-187 -188 0
-187 -189 0
-187 -190 0
-187 -191 0
-187 -192 0
-187 -193 0
-187 -194 0
-188 -189 0
-188 -190 0
-188 -191 0
-188 -192 0
-188 -193 0
-188 -194 0
-189 -190 0
-189 -191 0
-189 -192 0
-189 -193 0
-189 -194 0
-190 -191 0
-190 -192 0
-190 -193 0
-190 -194 0
-191 -192 0
-191 -193 0
-191 -194 0
-192 -193 0
-192 -194 0
-193 -194 0
195 196 197 198 199 200 201 202 203 204 205 0
-195 -196 0
-195 -197 0
-195 -198 0
-195 -199 0
-195 -200 0
-195 -201 0
-195 -202 0
-195 -203 0
-195 -204 0
-195 -205 0
-196 -197 0
-196 -198 0
-196 -199 0
-196 -200 0
-196 -201 0
-196 -202 0
-196 -203 0
-196 -204 0
-196 -205 0
-197 -198 0
-197 -199 0
-197 -200 0
-197 -201 0
-197 -202 0
-197 -203 0
-197 -204 0
-197 -205 0
-198 -199 0
-198 -200 0
-198 -201 0
-198 -202 0
-198 -203 0
-198 -204 0
-198 -205 0
-199 -200 0
-199 -201 0
-199 -202 0
-199 -203 0
-199 -204 0
-199 -205 0
-200 -201 0
-200 -202 0
-200 -203 0
-200 -204 0
-200 -205 0
-201 -202 0
-201 -203 0
-201 -204 0
-201 -205 0
-202 -203 0
-202 -204 0
-202 -205 0
-203 -204 0
-203 -205 0
-204 -205 0
206 207 208 209 210 211 212 213 214 215 216 0
-206 -207 0
-206 -208 0
-206 -209 0
-206 -210 0
-206 -211 0
-206 -212 0
-206 -213 0
-206 -214 0
-206 -215 0
-206 -216 0
-207 -208 0
-207 -209 0
-207 -210 0
-207 -211 0
-207 -212 0
-207 -213 0
-207 -214 0
-207 -215 0
-207 -216 0
-208 -209 0
-208 -210 0
-208 -211 0
-208 -212 0
-208 -213 0
-208 -214 0
-208 -215 0
-208 -216 0
-209 -210 0
-209 -211 0
-209 -212 0
-209 -213 0
-209 -214 0
-209 -215 0
-209 -216 0
-210 -211 0
-210 -212 0
-210 -213 0
-210 -214 0
-210 -215 0
-210 -216 0
-211 -212 0
-211 -213 0
-211 -214 0
-211 -215 0
-211 -216 0
-212 -213 0
-212 -214 0
-212 -215 0
-212 -216 0
-213 -214 0
-213 -215 0
-213 -216 0
-214 -215 0
-214 -216 0
-215 -216 0
217 218 219 220 221 222 223 224 225 226 227 228 229 0
-217 -218 0
-217 -219 0
-217 -220 0
-217 -221 0
-217 -222 0
-217 -223 0
-217 -224 0
-217 -225 0
-217 -226 0
-217 -227 0
-217 -228 0
-217 -229 0
-218 -219 0
-218 -220 0
-218 -221 0
-218 -222 0
-218 -223 0
-218 -224 0
-218 -225 0
-218 -226 0
-218 -227 0
-218 -228 0
-218 -229 0
-219 -220 0
-219 -221 0
-219 -222 0
-219 -223 0
-219 -224 0
-219 -225 0
-219 -226 0
-219 -227 0
-219 -228 0
-219 -229 0
-220 -221 0
-220 -222 0
-220 -223 0
-220 -224 0
-220 -225 0
-220 -226 0
-220 -227 0
-220 -228 0
-220 -229 0
-221 -222 0
-221 -223 0
-221 -224 0
-221 -225 0
-221 -226 0
-221 -227 0
-221 -228 0
-221 -229 0
-222 -223 0
-222 -224 0
-222 -225 0
-222 -226 0
-222 -227 0
-222 -228 0
-222 -229 0
-223 -224 0
-223 -225 0
-223 -226 0
-223 -227 0
-223 -228 0
-223 -229 0
-224 -225 0
-224 -226 0
-224 -227 0
-224 -228 0
-224 -229 0
-225 -226 0
-225 -227 0
-225 -228 0
-225 -229 0
-226 -227 0
-226 -228 0
-226 -229 0
-227 -228 0
-227 -229 0
-228 -229 0
230 231 232 233 234 235 236 237 238 239 240 241 0
-230 -231 0
-230 -232 0
-230 -233 0
-230 -234 0
-230 -235 0
-230 -236 0
-230 -237 0
-230 -238 0
-230 -239 0
-230 -240 0
-230 -241 0
-231 -232 0
-231 -233 0
-231 -234 0
-231 -235 0
-231 -236 0
-231 -237 0
-231 -238 0
-231 -239 0
-231 -240 0
-231 -241 0
-232 -233 0
-232 -234 0
-232 -235 0
-232 -236 0
-232 -237 0
-232 -238 0
-232 -239 0
-232 -240 0
-232 -241 0
-233 -234 0
-233 -235 0
-233 -236 0
-233 -237 0
-233 -238 0
-233 -239 0
-233 -240 0
-233 -241 0
-234 -235 0
-234 -236 0
-234 -237 0
-234 -238 0
-234 -239 0
-234 -240 0
-234 -241 0
-235 -236 0
-235 -237 0
-235 -238 0
-235 -239 0
-235 -240 0
-235 -241 0
-236 -237 0
-236 -238 0
-236 -239 0
-236 -240 0
-236 -241 0
-237 -238 0
-237 -239 0
-237 -240 0
-237 -241 0
-238 -239 0
-238 -240 0
-238 -241 0
-239 -240 0
-239 -241 0
-240 -241 0
242 243 244 245 246 247 248 249 250 251 252 0
-242 -243 0
-242 -244 0
-242 -245 0
-242 -246 0
-242 -247 0
-242 -248 0
-242 -249 0
-242 -250 0
-242 -251 0
-242 -252 0
-243 -244 0
-243 -245 0
-243 -246 0
-243 -247 0
-243 -248 0
-243 -249 0
-243 -250 0
-243 -251 0
-243 -252 0
-244 -245 0
-244 -246 0
-244 -247 0
-244 -248 0
-244 -249 0
-244 -250 0
-244 -251 0
-244 -252 0
-245 -246 0
-245 -247 0
-245 -248 0
-245 -249 0
-245 -250 0
-245 -251 0
-245 -252 0
-246 -247 0
-246 -248 0
-246 -249 0
-246 -250 0
-246 -251 0
-246 -252 0
-247 -248 0
-247 -249 0
-247 -250 0
-247 -251 0
-247 -252 0
-248 -249 0
-248 -250 0
-248 -251 0
-248 -252 0
-249 -250 0
-249 -251 0
-249 -252 0
-250 -251 0
-250 -252 0
-251 -252 0
253 254 255 256 257 258 259 260 261 262 263 264 0
-253 -254 0
-253 -255 0
-253 -256 0
-253 -257 0
-253 -258 0
-253 -259 0
-253 -260 0
-253 -261 0
-253 -262 0
-253 -263 0
-253 -264 0
-254 -255 0
-254 -256 0
-254 -257 0
-254 -258 0
-254 -259 0
-254 -260 0
-254 -261 0
-254 -262 0
-254 -263 0
-254 -264 0
-255 -256 0
-255 -257 0
-255 -258 0
-255 -259 0
-255 -260 0
-255 -261 0
-255 -262 0
-255 -263 0
-255 -264 0
-256 -257 0
-256 -258 0
-256 -259 0
-256 -260 0
-256 -261 0
-256 -262 0
-256 -263 0
-256 -264 0
-257 -258 0
-257 -259 0
-257 -260 0
-257 -261 0
-257 -262 0
-257 -263 0
-257 -264 0
-258 -259 0
-258 -260 0
-258 -261 0
-258 -262 0
-258 -263 0
-258 -264 0
-259 -260 0
-259 -261 0
-259 -262 0
-259 -263 0
-259 -264 0
-260 -261 0
-260 -262 0
-260 -263 0
-260 -264 0
-261 -262 0
-261 -263 0
-261 -264 0
-262 -263 0
-262 -264 0
-263 -264 0
265 266 267 268 269 270 271 272 273 274 275 0
-265 -266 0
-265 -267 0
-265 -268 0
-265 -269 0
-265 -270 0
-265 -271 0
-265 -272 0
-265 -273 0
-265 -274 0
-265 -275 0
-266 -267 0
-266 -268 0
-266 -269 0
-266 -270 0
-266 -271 0
-266 -272 0
-266 -273 0
-266 -274 0
-266 -275 0
-267 -268 0
-267 -269 0
-267 -270 0
-267 -271 0
-267 -272 0
-267 -273 0
-267 -274 0
-267 -275 0
-268 -269 0
-268 -270 0
-268 -271 0
-268 -272 0
-268 -273 0
-268 -274 0
-268 -275 0
-269 -270 0
-269 -271 0
-269 -272 0
-269 -273 0
-269 -274 0
-269 -275 0
-270 -271 0
-270 -272 0
-270 -273 0
-270 -274 0
-270 -275 0
-271 -272 0
-271 -273 0
-271 -274 0
-271 -275 0
-272 -273 0
-272 -274 0
-272 -275 0
-273 -274 0
-273 -275 0
-274 -275 0
276 277 278 279 280 281 282 283 284 285 286 0
-276 -277 0
-276 -278 0
-276 -279 0
-276 -280 0
-276 -281 0
-276 -282 0
-276 -283 0
-276 -284 0
-276 -285 0
-276 -286 0
-277 -278 0
-277 -279 0
-277 -280 0
-277 -281 0
-277 -282 0
-277 -283 0
-277 -284 0
-277 -285 0
-277 -286 0
-278 -279 0
-278 -280 0
-278 -281 0
-278 -282 0
-278 -283 0
-278 -284 0
-278 -285 0
-278 -286 0
-279 -280 0
-279 -281 0
-279 -282 0
-279 -283 0
-279 -284 0
-279 -285 0
-279 -286 0
-280 -281 0
-280 -282 0
-280 -283 0
-280 -284 0
-280 -285 0
-280 -286 0
-281 -282 0
-281 -283 0
-281 -284 0
-281 -285 0
-281 -286 0
-282 -283 0
-282 -284 0
-282 -285 0
-282 -286 0
-283 -284 0
-283 -285 0
-283 -286 0
-284 -285 0
-284 -286 0
-285 -286 0
287 288 289 290 291 292 293 294 295 296 297 0
-287 -288 0
-287 -289 0
-287 -290 0
-287 -291 0
-287 -292 0
-287 -293 0
-287 -294 0
-287 -295 0
-287 -296 0
-287 -297 0
-288 -289 0
-288 -290 0
-288 -291 0
-288 -292 0
-288 -293 0
-288 -294 0
-288 -295 0
-288 -296 0
-288 -297 0
-289 -290 0
-289 -291 0
-289 -292 0
-289 -293 0
-289 -294 0
-289 -295 0
-289 -296 0
-289 -297 0
-290 -291 0
-290 -292 0
-290 -293 0
-290 -294 0
-290 -295 0
-290 -296 0
-290 -297 0
-291 -292 0
-291 -293 0
-291 -294 0
-291 -295 0
-291 -296 0
-291 -297 0
-292 -293 0
-292 -294 0
-292 -295 0
-292 -296 0
-292 -297 0
-293 -294 0
-293 -295 0
-293 -296 0
-293 -297 0
-294 -295 0
-294 -296 0
-294 -297 0
-295 -296 0
-295 -297 0
-296 -297 0
298 299 300 301 302 303 304 305 306 307 308 0
-298 -299 0
-298 -300 0
-298 -301 0
-298 -302 0
-298 -303 0
-298 -304 0
-298 -305 0
-298 -306 0
-298 -307 0
-298 -308 0
-299 -300 0
-299 -301 0
-299 -302 0
-299 -303 0
-299 -304 0
-299 -305 0
-299 -306 0
-299 -307 0
-299 -308 0
-300 -301 0
-300 -302 0
-300 -303 0
-300 -304 0
-300 -305 0
-300 -306 0
-300 -307 0
-300 -308 0
-301 -302 0
-301 -303 0
-301 -304 0
-301 -305 0
-301 -306 0
-301 -307 0
-301 -308 0
-302 -303 0
-302 -304 0
-302 -305 0
-302 -306 0
-302 -307 0
-302 -308 0
-303 -304 0
-303 -305 0
-303 -306 0
-303 -307 0
-303 -308 0
-304 -305 0
-304 -306 0
-304 -307 0
-304 -308 0
-305 -306 0
-305 -307 0
-305 -308 0
-306 -307 0
-306 -308 0
-307 -308 0
309 310 311 312 313 314 315 316 317 318 319 0
-309 -310 0
-309 -311 0
-309 -312 0
-309 -313 0
-309 -314 0
-309 -315 0
-309 -316 0
-309 -317 0
-309 -318 0
-309 -319 0
-310 -311 0
-310 -312 0
-310 -313 0
-310 -314 0
-310 -315 0
-310 -316 0
-310 -317 0
-310 -318 0
-310 -319 0
-311 -312 0
-311 -313 0
-311 -314 0
-311 -315 0
-311 -316 0
-311 -317 0
-311 -318 0
-311 -319 0
-312 -313 0
-312 -314 0
-312 -315 0
-312 -316 0
-312 -317 0
-312 -318 0
-312 -319 0
-313 -314 0
-313 -315 0
-313 -316 0
-313 -317 0
-313 -318 0
-313 -319 0
-314 -315 0
-314 -316 0
-314 -317 0
-314 -318 0
-314 -319 0
-315 -316 0
-315 -317 0
-315 -318 0
-315 -319 0
-316 -317 0
-316 -318 0
-316 -319 0
-317 -318 0
-317 -319 0
-318 -319 0
320 321 322 323 324 325 326 327 328 329 330 0
-320 -321 0
-320 -322 0
-320 -323 0
-320 -324 0
-320 -325 0
-320 -326 0
-320 -327 0
-320 -328 0
-320 -329 0
-320 -330 0
-321 -322 0
-321 -323 0
-321 -324 0
-321 -325 0
-321 -326 0
-321 -327 0
-321 -328 0
-321 -329 0
-321 -330 0
-322 -323 0
-322 -324 0
-322 -325 0
-322 -326 0
-322 -327 0
-322 -328 0
-322 -329 0
-322 -330 0
-323 -324 0
-323 -325 0
-323 -326 0
-323 -327 0
-323 -328 0
-323 -329 0
-323 -330 0
-324 -325 0
-324 -326 0
-324 -327 0
-324 -328 0
-324 -329 0
-324 -330 0
-325 -326 0
-325 -327 0
-325 -328 0
-325 -329 0
-325 -330 0
-326 -327 0
-326 -328 0
-326 -329 0
-326 -330 0
-327 -328 0
-327 -329 0
-327 -330 0
-328 -329 0
-328 -330 0
-329 -330 0
331 332 333 334 335 336 337 338 339 340 341 0
-331 -332 0
-331 -333 0
-331 -334 0
-331 -335 0
-331 -336 0
-331 -337 0
-331 -338 0
-331 -339 0
-331 -340 0
-331 -341 0
-332 -333 0
-332 -334 0
-332 -335 0
-332 -336 0
-332 -337 0
-332 -338 0
-332 -339 0
-332 -340 0
-332 -341 0
-333 -334 0
-333 -335 0
-333 -336 0
-333 -337 0
-333 -338 0
-333 -339 0
-333 -340 0
-333 -341 0
-334 -335 0
-334 -336 0
-334 -337 0
-334 -338 0
-334 -339 0
-334 -340 0
-334 -341 0
-335 -336 0
-335 -337 0
-335 -338 0
-335 -339 0
-335 -340 0
-335 -341 0
-336 -337 0
-336 -338 0
-336 -339 0
-336 -340 0
-336 -341 0
-337 -338 0
-337 -339 0
-337 -340 0
-337 -341 0
-338 -339 0
-338 -340 0
-338 -341 0
-339 -340 0
-339 -341 0
-340 -341 0
342 343 344 345 346 347 348 349 350 351 352 353 0
-342 -343 0
-342 -344 0
-342 -345 0
-342 -346 0
-342 -347 0
-342 -348 0
-342 -349 0
-342 -350 0
-342 -351 0
-342 -352 0
-342 -353 0
-343 -344 0
-343 -345 0
-343 -346 0
-343 -347 0
-343 -348 0
-343 -349 0
-343 -350 0
-343 -351 0
-343 -352 0
-343 -353 0
-344 -345 0
-344 -346 0
-344 -347 0
-344 -348 0
-344 -349 0
-344 -350 0
-344 -351 0
-344 -352 0
-344 -353 0
-345 -346 0
-345 -347 0
-345 -348 0
-345 -349 0
-345 -350 0
-345 -351 0
-345 -352 0
-345 -353 0
-346 -347 0
-346 -348 0
-346 -349 0
-346 -350 0
-346 -351 0
-346 -352 0
-346 -353 0
-347 -348 0
-347 -349 0
-347 -350 0
-347 -351 0
-347 -352 0
-347 -353 0
-348 -349 0
-348 -350 0
-348 -351 0
-348 -352 0
-348 -353 0
-349 -350 0
-349 -351 0
-349 -352 0
-349 -353 0
-350 -351 0
-350 -352 0
-350 -353 0
-351 -352 0
-351 -353 0
-352 -353 0
354 355 356 357 358 359 360 361 362 363 364 0
-354 -355 0
-354 -356 0
-354 -357 0
-354 -358 0
-354 -359 0
-354 -360 0
-354 -361 0
-354 -362 0
-354 -363 0
-354 -364 0
-355 -356 0
-355 -357 0
-355 -358 0
-355 -359 0
-355 -360 0
-355 -361 0
-355 -362 0
-355 -363 0
-355 -364 0
-356 -357 0
-356 -358 0
-356 -359 0
-356 -360 0
-356 -361 0
-356 -362 0
-356 -363 0
-356 -364 0
-357 -358 0
-357 -359 0
-357 -360 0
-357 -361 0
-357 -362 0
-357 -363 0
-357 -364 0
-358 -359 0
-358 -360 0
-358 -361 0
-358 -362 0
-358 -363 0
-358 -364 0
-359 -360 0
-359 -361 0
-359 -362 0
-359 -363 0
-359 -364 0
-360 -361 0
-360 -362 0
-360 -363 0
-360 -364 0
-361 -362 0
-361 -363 0
-361 -364 0
-362 -363 0
-362 -364 0
-363 -364 0
365 366 367 368 369 370 371 372 373 374 375 0
-365 -366 0
-365 -367 0
-365 -368 0
-365 -369 0
-365 -370 0
-365 -371 0
-365 -372 0
-365 -373 0
-365 -374 0
-365 -375 0
-366 -367 0
-366 -368 0
-366 -369 0
-366 -370 0
-366 -371 0
-366 -372 0
-366 -373 0
-366 -374 0
-366 -375 0
-367 -368 0
-367 -369 0
-367 -370 0
-367 -371 0
-367 -372 0
-367 -373 0
-367 -374 0
-367 -375 0
-368 -369 0
-368 -370 0
-368 -371 0
-368 -372 0
-368 -373 0
-368 -374 0
-368 -375 0
-369 -370 0
-369 -371 0
-369 -372 0
-369 -373 0
-369 -374 0
-369 -375 0
-370 -371 0
-370 -372 0
-370 -373 0
-370 -374 0
-370 -375 0
-371 -372 0
-371 -373 0
-371 -374 0
-371 -375 0
-372 -373 0
-372 -374 0
-372 -375 0
-373 -374 0
-373 -375 0
-374 -375 0
376 377 378 379 380 381 382 383 384 385 386 0
-376 -377 0
-376 -378 0
-376 -379 0
-376 -380 0
-376 -381 0
-376 -382 0
-376 -383 0
-376 -384 0
-376 -385 0
-376 -386 0
-377 -378 0
-377 -379 0
-377 -380 0
-377 -381 0
-377 -382 0
-377 -383 0
-377 -384 0
-377 -385 0
-377 -386 0
-378 -379 0
-378 -380 0
-378 -381 0
-378 -382 0
-378 -383 0
-378 -384 0
-378 -385 0
-378 -386 0
-379 -380 0
-379 -381 0
-379 -382 0
-379 -383 0
-379 -384 0
-379 -385 0
-379 -386 0
-380 -381 0
-380 -382 0
-380 -383 0
-380 -384 0
-380 -385 0
-380 -386 0
-381 -382 0
-381 -383 0
-381 -384 0
-381 -385 0
-381 -386 0
-382 -383 0
-382 -384 0
-382 -385 0
-382 -386 0
-383 -384 0
-383 -385 0
-383 -386 0
-384 -385 0
-384 -386 0
-385 -386 0
387 388 389 390 391 392 393 394 395 396 397 398 0
-387 -388 0
-387 -389 0
-387 -390 0
-387 -391 0
-387 -392 0
-387 -393 0
-387 -394 0
-387 -395 0
-387 -396 0
-387 -397 0
-387 -398 0
-388 -389 0
-388 -390 0
-388 -391 0
-388 -392 0
-388 -393 0
-388 -394 0
-388 -395 0
-388 -396 0
-388 -397 0
-388 -398 0
-389 -390 0
-389 -391 0
-389 -392 0
-389 -393 0
-389 -394 0
-389 -395 0
-389 -396 0
-389 -397 0
-389 -398 0
-390 -391 0
-390 -392 0
-390 -393 0
-390 -394 0
-390 -395 0
-390 -396 0
-390 -397 0
-390 -398 0
-391 -392 0
-391 -393 0
-391 -394 0
-391 -395 0
-391 -396 0
-391 -397 0
-391 -398 0
-392 -393 0
-392 -394 0
-392 -395 0
-392 -396 0
-392 -397 0
-392 -398 0
-393 -394 0
-393 -395 0
-393 -396 0
-393 -397 0
-393 -398 0
-394 -395 0
-394 -396 0
-394 -397 0
-394 -398 0
-395 -396 0
-395 -397 0
-395 -398 0
-396 -397 0
-396 -398 0
-397 -398 0
399 400 401 402 403 404 405 406 407 408 409 0
-399 -400 0
-399 -401 0
-399 -402 0
-399 -403 0
-399 -404 0
-399 -405 0
-399 -406 0
-399 -407 0
-399 -408 0
-399 -409 0
-400 -401 0
-400 -402 0
-400 -403 0
-400 -404 0
-400 -405 0
-400 -406 0
-400 -407 0
-400 -408 0
-400 -409 0
-401 -402 0
-401 -403 0
-401 -404 0
-401 -405 0
-401 -406 0
-401 -407 0
-401 -408 0
-401 -409 0
-402 -403 0
-402 -404 0
-402 -405 0
-402 -406 0
-402 -407 0
-402 -408 0
-402 -409 0
-403 -404 0
-403 -405 0
-403 -406 0
-403 -407 0
-403 -408 0
-403 -409 0
-404 -405 0
-404 -406 0
-404 -407 0
-404 -408 0
-404 -409 0
-405 -406 0
-405 -407 0
-405 -408 0
-405 -409 0
-406 -407 0
-406 -408 0
-406 -409 0
-407 -408 0
-407 -409 0
-408 -409 0
410 411 412 413 414 415 416 417 418 419 420 421 0
-410 -411 0
-410 -412 0
-410 -413 0
-410 -414 0
-410 -415 0
-410 -416 0
-410 -417 0
-410 -418 0
-410 -419 0
-410 -420 0
-410 -421 0
-411 -412 0
-411 -413 0
-411 -414 0
-411 -415 0
-411 -416 0
-411 -417 0
-411 -418 0
-411 -419 0
-411 -420 0
-411 -421 0
-412 -413 0
-412 -414 0
-412 -415 0
-412 -416 0
-412 -417 0
-412 -418 0
-412 -419 0
-412 -420 0
-412 -421 0
-413 -414 0
-413 -415 0
-413 -416 0
-413 -417 0
-413 -418 0
-413 -419 0
-413 -420 0
-413 -421 0
-414 -415 0
-414 -416 0
-414 -417 0
-414 -418 0
-414 -419 0
-414 -420 0
-414 -421 0
-415 -416 0
-415 -417 0
-415 -418 0
-415 -419 0
-415 -420 0
-415 -421 0
-416 -417 0
-416 -418 0
-416 -419 0
-416 -420 0
-416 -421 0
-417 -418 0
-417 -419 0
-417 -420 0
-417 -421 0
-418 -419 0
-418 -420 0
-418 -421 0
-419 -420 0
-419 -421 0
-420 -421 0
422 423 424 425 426 427 428 429 430 431 432 433 0
-422 -423 0
-422 -424 0
-422 -425 0
-422 -426 0
-422 -427 0
-422 -428 0
-422 -429 0
-422 -430 0
-422 -431 0
-422 -432 0
-422 -433 0
-423 -424 0
-423 -425 0
-423 -426 0
-423 -427 0
-423 -428 0
-423 -429 0
-423 -430 0
-423 -431 0
-423 -432 0
-423 -433 0
-424 -425 0
-424 -426 0
-424 -427 0
-424 -428 0
-424 -429 0
-424 -430 0
-424 -431 0
-424 -432 0
-424 -433 0
-425 -426 0
-425 -427 0
-425 -428 0
-425 -429 0
-425 -430 0
-425 -431 0
-425 -432 0
-425 -433 0
-426 -427 0
-426 -428 0
-426 -429 0
-426 -430 0
-426 -431 0
-426 -432 0
-426 -433 0
-427 -428 0
-427 -429 0
-427 -430 0
-427 -431 0
-427 -432 0
-427 -433 0
-428 -429 0
-428 -430 0
-428 -431 0
-428 -432 0
-428 -433 0
-429 -430 0
-429 -431 0
-429 -432 0
-429 -433 0
-430 -431 0
-430 -432 0
-430 -433 0
-431 -432 0
-431 -433 0
-432 -433 0
434 435 436 437 438 439 440 441 442 443 444 0
-434 -435 0
-434 -436 0
-434 -437 0
-434 -438 0
-434 -439 0
-434 -440 0
-434 -441 0
-434 -442 0
-434 -443 0
-434 -444 0
-435 -436 0
-435 -437 0
-435 -438 0
-435 -439 0
-435 -440 0
-435 -441 0
-435 -442 0
-435 -443 0
-435 -444 0
-436 -437 0
-436 -438 0
-436 -439 0
-436 -440 0
-436 -441 0
-436 -442 0
-436 -443 0
-436 -444 0
-437 -438 0
-437 -439 0
-437 -440 0
-437 -441 0
-437 -442 0
-437 -443 0
-437 -444 0
-438 -439 0
-438 -440 0
-438 -441 0
-438 -442 0
-438 -443 0
-438 -444 0
-439 -440 0
-439 -441 0
-439 -442 0
-439 -443 0
-439 -444 0
-440 -441 0
-440 -442 0
-440 -443 0
-440 -444 0
-441 -442 0
-441 -443 0
-441 -444 0
-442 -443 0
-442 -444 0
-443 -444 0
445 446 447 448 449 450 451 452 453 454 455 456 0
-445 -446 0
-445 -447 0
-445 -448 0
-445 -449 0
-445 -450 0
-445 -451 0
-445 -452 0
-445 -453 0
-445 -454 0
-445 -455 0
-445 -456 0
-446 -447 0
-446 -448 0
-446 -449 0
-446 -450 0
-446 -451 0
-446 -452 0
-446 -453 0
-446 -454 0
-446 -455 0
-446 -456 0
-447 -448 0
-447 -449 0
-447 -450 0
-447 -451 0
-447 -452 0
-447 -453 0
-447 -454 0
-447 -455 0
-447 -456 0
-448 -449 0
-448 -450 0
-448 -451 0
-448 -452 0
-448 -453 0
-448 -454 0
-448 -455 0
-448 -456 0
-449 -450 0
-449 -451 0
-449 -452 0
-449 -453 0
-449 -454 0
-449 -455 0
-449 -456 0
-450 -451 0
-450 -452 0
-450 -453 0
-450 -454 0
-450 -455 0
-450 -456 0
-451 -452 0
-451 -453 0
-451 -454 0
-451 -455 0
-451 -456 0
-452 -453 0
-452 -454 0
-452 -455 0
-452 -456 0
-453 -454 0
-453 -455 0
-453 -456 0
-454 -455 0
-454 -456 0
-455 -456 0
1 11 12 24 57 68 79 90 101 113 125 137 149 0
-1 -11 0
-1 -12 0
-1 -24 0
-1 -57 0
-1 -68 0
-1 -79 0
-1 -90 0
-1 -101 0
-1 -113 0
-1 -125 0
-1 -137 0
-1 -149 0
-11 -12 0
-11 -24 0
-11 -57 0
-11 -68 0
-11 -79 0
-11 -90 0
-11 -101 0
-11 -113 0
-11 -125 0
-11 -137 0
-11 -149 0
-12 -24 0
-12 -57 0
-12 -68 0
-12 -79 0
-12 -90 0
-12 -101 0
-12 -113 0
-12 -125 0
-12 -137 0
-12 -149 0
-24 -57 0
-24 -68 0
-24 -79 0
-24 -90 0
-24 -101 0
-24 -113 0
-24 -125 0
-24 -137 0
-24 -149 0
-57 -68 0
-57 -79 0
-57 -90 0
-57 -101 0
-57 -113 0
-57 -125 0
-57 -137 0
-57 -149 0
-68 -79 0
-68 -90 0
-68 -101 0
-68 -113 0
-68 -125 0
-68 -137 0
-68 -149 0
-79 -90 0
-79 -101 0
-79 -113 0
-79 -125 0
-79 -137 0
-79 -149 0
-90 -101 0
-90 -113 0
-90 -125 0
-90 -137 0
-90 -149 0
-101 -113 0
-101 -125 0
-101 -137 0
-101 -149 0
-113 -125 0
-113 -137 0
-113 -149 0
-125 -137 0
-125 -149 0
-137 -149 0
1 23 151 161 170 172 184 195 206 230 253 265 276 0
-1 -23 0
-1 -151 0
-1 -161 0
-1 -170 0
-1 -172 0
-1 -184 0
-1 -195 0
-1 -206 0
-1 -230 0
-1 -253 0
-1 -265 0
-1 -276 0
-23 -151 0
-23 -161 0
-23 -170 0
-23 -172 0
-23 -184 0
-23 -195 0
-23 -206 0
-23 -230 0
-23 -253 0
-23 -265 0
-23 -276 0
-151 -161 0
-151 -170 0
-151 -172 0
-151 -184 0
-151 -195 0
-151 -206 0
-151 -230 0
-151 -253 0
-151 -265 0
-151 -276 0
-161 -170 0
-161 -172 0
-161 -184 0
-161 -195 0
-161 -206 0
-161 -230 0
-161 -253 0
-161 -265 0
-161 -276 0
-170 -172 0
-170 -184 0
-170 -195 0
-170 -206 0
-170 -230 0
-170 -253 0
-170 -265 0
-170 -276 0
-172 -184 0
-172 -195 0
-172 -206 0
-172 -230 0
-172 -253 0
-172 -265 0
-172 -276 0
-184 -195 0
-184 -206 0
-184 -230 0
-184 -253 0
-184 -265 0
-184 -276 0
-195 -206 0
-195 -230 0
-195 -253 0
-195 -265 0
-195 -276 0
-206 -230 0
-206 -253 0
-206 -265 0
-206 -276 0
-230 -253 0
-230 -265 0
-230 -276 0
-253 -265 0
-253 -276 0
-265 -276 0
12 34 140 151 182 279 295 309 320 331 342 354 365 0
-12 -34 0
-12 -140 0
-12 -151 0
-12 -182 0
-12 -279 0
-12 -295 0
-12 -309 0
-12 -320 0
-12 -331 0
-12 -342 0
-12 -354 0
-12 -365 0
-34 -140 0
-34 -151 0
-34 -182 0
-34 -279 0
-34 -295 0
-34 -309 0
-34 -320 0
-34 -331 0
-34 -342 0
-34 -354 0
-34 -365 0
-140 -151 0
-140 -182 0
-140 -279 0
-140 -295 0
-140 -309 0
-140 -320 0
-140 -331 0
-140 -342 0
-140 -354 0
-140 -365 0
-151 -182 0
-151 -279 0
-151 -295 0
-151 -309 0
-151 -320 0
-151 -331 0
-151 -342 0
-151 -354 0
-151 -365 0
-182 -279 0
-182 -295 0
-182 -309 0
-182 -320 0
-182 -331 0
-182 -342 0
-182 -354 0
-182 -365 0
-279 -295 0
-279 -309 0
-279 -320 0
-279 -331 0
-279 -342 0
-279 -354 0
-279 -365 0
-295 -309 0
-295 -320 0
-295 -331 0
-295 -342 0
-295 -354 0
-295 -365 0
-309 -320 0
-309 -331 0
-309 -342 0
-309 -354 0
-309 -365 0
-320 -331 0
-320 -342 0
-320 -354 0
-320 -365 0
-331 -342 0
-331 -354 0
-331 -365 0
-342 -354 0
-342 -365 0
-354 -365 0
24 45 129 140 161 194 269 367 376 385 387 410 422 0
-24 -45 0
-24 -129 0
-24 -140 0
-24 -161 0
-24 -194 0
-24 -269 0
-24 -367 0
-24 -376 0
-24 -385 0
-24 -387 0
-24 -410 0
-24 -422 0
-45 -129 0
-45 -140 0
-45 -161 0
-45 -194 0
-45 -269 0
-45 -367 0
-45 -376 0
-45 -385 0
-45 -387 0
-45 -410 0
-45 -422 0
-129 -140 0
-129 -161 0
-129 -194 0
-129 -269 0
-129 -367 0
-129 -376 0
-129 -385 0
-129 -387 0
-129 -410 0
-129 -422 0
-140 -161 0
-140 -194 0
-140 -269 0
-140 -367 0
-140 -376 0
-140 -385 0
-140 -387 0
-140 -410 0
-140 -422 0
-161 -194 0
-161 -269 0
-161 -367 0
-161 -376 0
-161 -385 0
-161 -387 0
-161 -410 0
-161 -422 0
-194 -269 0
-194 -367 0
-194 -376 0
-194 -385 0
-194 -387 0
-194 -410 0
-194 -422 0
-269 -367 0
-269 -376 0
-269 -385 0
-269 -387 0
-269 -410 0
-269 -422 0
-367 -376 0
-367 -385 0
-367 -387 0
-367 -410 0
-367 -422 0
-376 -385 0
-376 -387 0
-376 -410 0
-376 -422 0
-385 -387 0
-385 -410 0
-385 -422 0
-387 -410 0
-387 -422 0
-410 -422 0
56 118 129 172 205 257 279 318 358 425 434 441 445 0
-56 -118 0
-56 -129 0
-56 -172 0
-56 -205 0
-56 -257 0
-56 -279 0
-56 -318 0
-56 -358 0
-56 -425 0
-56 -434 0
-56 -441 0
-56 -445 0
-118 -129 0
-118 -172 0
-118 -205 0
-118 -257 0
-118 -279 0
-118 -318 0
-118 -358 0
-118 -425 0
-118 -434 0
-118 -441 0
-118 -445 0
-129 -172 0
-129 -205 0
-129 -257 0
-129 -279 0
-129 -318 0
-129 -358 0
-129 -425 0
-129 -434 0
-129 -441 0
-129 -445 0
-172 -205 0
-172 -257 0
-172 -279 0
-172 -318 0
-172 -358 0
-172 -425 0
-172 -434 0
-172 -441 0
-172 -445 0
-205 -257 0
-205 -279 0
-205 -318 0
-205 -358 0
-205 -425 0
-205 -434 0
-205 -441 0
-205 -445 0
-257 -279 0
-257 -318 0
-257 -358 0
-257 -425 0
-257 -434 0
-257 -441 0
-257 -445 0
-279 -318 0
-279 -358 0
-279 -425 0
-279 -434 0
-279 -441 0
-279 -445 0
-318 -358 0
-318 -425 0
-318 -434 0
-318 -441 0
-318 -445 0
-358 -425 0
-358 -434 0
-358 -441 0
-358 -445 0
-425 -434 0
-425 -441 0
-425 -445 0
-434 -441 0
-434 -445 0
-441 -445 0
67 106 118 184 215 247 269 328 346 406 414 449 453 0
-67 -106 0
-67 -118 0
-67 -184 0
-67 -215 0
-67 -247 0
-67 -269 0
-67 -328 0
-67 -346 0
-67 -406 0
-67 -414 0
-67 -449 0
-67 -453 0
-106 -118 0
-106 -184 0
-106 -215 0
-106 -247 0
-106 -269 0
-106 -328 0
-106 -346 0
-106 -406 0
-106 -414 0
-106 -449 0
-106 -453 0
-118 -184 0
-118 -215 0
-118 -247 0
-118 -269 0
-118 -328 0
-118 -346 0
-118 -406 0
-118 -414 0
-118 -449 0
-118 -453 0
-184 -215 0
-184 -247 0
-184 -269 0
-184 -328 0
-184 -346 0
-184 -406 0
-184 -414 0
-184 -449 0
-184 -453 0
-215 -247 0
-215 -269 0
-215 -328 0
-215 -346 0
-215 -406 0
-215 -414 0
-215 -449 0
-215 -453 0
-247 -269 0
-247 -328 0
-247 -346 0
-247 -406 0
-247 -414 0
-247 -449 0
-247 -453 0
-269 -328 0
-269 -346 0
-269 -406 0
-269 -414 0
-269 -449 0
-269 -453 0
-328 -346 0
-328 -406 0
-328 -414 0
-328 -449 0
-328 -453 0
-346 -406 0
-346 -414 0
-346 -449 0
-346 -453 0
-406 -414 0
-406 -449 0
-406 -453 0
-414 -449 0
-414 -453 0
-449 -453 0
57 78 95 106 195 228 235 257 336 340 367 401 420 0
-57 -78 0
-57 -95 0
-57 -106 0
-57 -195 0
-57 -228 0
-57 -235 0
-57 -257 0
-57 -336 0
-57 -340 0
-57 -367 0
-57 -401 0
-57 -420 0
-78 -95 0
-78 -106 0
-78 -195 0
-78 -228 0
-78 -235 0
-78 -257 0
-78 -336 0
-78 -340 0
-78 -367 0
-78 -401 0
-78 -420 0
-95 -106 0
-95 -195 0
-95 -228 0
-95 -235 0
-95 -257 0
-95 -336 0
-95 -340 0
-95 -367 0
-95 -401 0
-95 -420 0
-106 -195 0
-106 -228 0
-106 -235 0
-106 -257 0
-106 -336 0
-106 -340 0
-106 -367 0
-106 -401 0
-106 -420 0
-195 -228 0
-195 -235 0
-195 -257 0
-195 -336 0
-195 -340 0
-195 -367 0
-195 -401 0
-195 -420 0
-228 -235 0
-228 -257 0
-228 -336 0
-228 -340 0
-228 -367 0
-228 -401 0
-228 -420 0
-235 -257 0
-235 -336 0
-235 -340 0
-235 -367 0
-235 -401 0
-235 -420 0
-257 -336 0
-257 -340 0
-257 -367 0
-257 -401 0
-257 -420 0
-336 -340 0
-336 -367 0
-336 -401 0
-336 -420 0
-340 -367 0
-340 -401 0
-340 -420 0
-367 -401 0
-367 -420 0
-401 -420 0
68 89 95 206 223 240 247 309 352 358 376 392 430 0
-68 -89 0
-68 -95 0
-68 -206 0
-68 -223 0
-68 -240 0
-68 -247 0
-68 -309 0
-68 -352 0
-68 -358 0
-68 -376 0
-68 -392 0
-68 -430 0
-89 -95 0
-89 -206 0
-89 -223 0
-89 -240 0
-89 -247 0
-89 -309 0
-89 -352 0
-89 -358 0
-89 -376 0
-89 -392 0
-89 -430 0
-95 -206 0
-95 -223 0
-95 -240 0
-95 -247 0
-95 -309 0
-95 -352 0
-95 -358 0
-95 -376 0
-95 -392 0
-95 -430 0
-206 -223 0
-206 -240 0
-206 -247 0
-206 -309 0
-206 -352 0
-206 -358 0
-206 -376 0
-206 -392 0
-206 -430 0
-223 -240 0
-223 -247 0
-223 -309 0
-223 -352 0
-223 -358 0
-223 -376 0
-223 -392 0
-223 -430 0
-240 -247 0
-240 -309 0
-240 -352 0
-240 -358 0
-240 -376 0
-240 -392 0
-240 -430 0
-247 -309 0
-247 -352 0
-247 -358 0
-247 -376 0
-247 -392 0
-247 -430 0
-309 -352 0
-309 -358 0
-309 -376 0
-309 -392 0
-309 -430 0
-352 -358 0
-352 -376 0
-352 -392 0
-352 -430 0
-358 -376 0
-358 -392 0
-358 -430 0
-376 -392 0
-376 -430 0
-392 -430 0
74 79 100 212 235 252 314 320 346 363 382 387 425 0
-74 -79 0
-74 -100 0
-74 -212 0
-74 -235 0
-74 -252 0
-74 -314 0
-74 -320 0
-74 -346 0
-74 -363 0
-74 -382 0
-74 -387 0
-74 -425 0
-79 -100 0
-79 -212 0
-79 -235 0
-79 -252 0
-79 -314 0
-79 -320 0
-79 -346 0
-79 -363 0
-79 -382 0
-79 -387 0
-79 -425 0
-100 -212 0
-100 -235 0
-100 -252 0
-100 -314 0
-100 -320 0
-100 -346 0
-100 -363 0
-100 -382 0
-100 -387 0
-100 -425 0
-212 -235 0
-212 -252 0
-212 -314 0
-212 -320 0
-212 -346 0
-212 -363 0
-212 -382 0
-212 -387 0
-212 -425 0
-235 -252 0
-235 -314 0
-235 -320 0
-235 -346 0
-235 -363 0
-235 -382 0
-235 -387 0
-235 -425 0
-252 -314 0
-252 -320 0
-252 -346 0
-252 -363 0
-252 -382 0
-252 -387 0
-252 -425 0
-314 -320 0
-314 -346 0
-314 -363 0
-314 -382 0
-314 -387 0
-314 -425 0
-320 -346 0
-320 -363 0
-320 -382 0
-320 -387 0
-320 -425 0
-346 -363 0
-346 -382 0
-346 -387 0
-346 -425 0
-363 -382 0
-363 -387 0
-363 -425 0
-382 -387 0
-382 -425 0
-387 -425 0
63 74 90 203 223 230 263 304 331 336 373 414 434 0
-63 -74 0
-63 -90 0
-63 -203 0
-63 -223 0
-63 -230 0
-63 -263 0
-63 -304 0
-63 -331 0
-63 -336 0
-63 -373 0
-63 -414 0
-63 -434 0
-74 -90 0
-74 -203 0
-74 -223 0
-74 -230 0
-74 -263 0
-74 -304 0
-74 -331 0
-74 -336 0
-74 -373 0
-74 -414 0
-74 -434 0
-90 -203 0
-90 -223 0
-90 -230 0
-90 -263 0
-90 -304 0
-90 -331 0
-90 -336 0
-90 -373 0
-90 -414 0
-90 -434 0
-203 -223 0
-203 -230 0
-203 -263 0
-203 -304 0
-203 -331 0
-203 -336 0
-203 -373 0
-203 -414 0
-203 -434 0
-223 -230 0
-223 -263 0
-223 -304 0
-223 -331 0
-223 -336 0
-223 -373 0
-223 -414 0
-223 -434 0
-230 -263 0
-230 -304 0
-230 -331 0
-230 -336 0
-230 -373 0
-230 -414 0
-230 -434 0
-263 -304 0
-263 -331 0
-263 -336 0
-263 -373 0
-263 -414 0
-263 -434 0
-304 -331 0
-304 -336 0
-304 -373 0
-304 -414 0
-304 -434 0
-331 -336 0
-331 -373 0
-331 -414 0
-331 -434 0
-336 -373 0
-336 -414 0
-336 -434 0
-373 -414 0
-373 -434 0
-414 -434 0
52 63 101 124 192 212 274 292 342 401 410 445 449 0
-52 -63 0
-52 -101 0
-52 -124 0
-52 -192 0
-52 -212 0
-52 -274 0
-52 -292 0
-52 -342 0
-52 -401 0
-52 -410 0
-52 -445 0
-52 -449 0
-63 -101 0
-63 -124 0
-63 -192 0
-63 -212 0
-63 -274 0
-63 -292 0
-63 -342 0
-63 -401 0
-63 -410 0
-63 -445 0
-63 -449 0
-101 -124 0
-101 -192 0
-101 -212 0
-101 -274 0
-101 -292 0
-101 -342 0
-101 -401 0
-101 -410 0
-101 -445 0
-101 -449 0
-124 -192 0
-124 -212 0
-124 -274 0
-124 -292 0
-124 -342 0
-124 -401 0
-124 -410 0
-124 -445 0
-124 -449 0
-192 -212 0
-192 -274 0
-192 -292 0
-192 -342 0
-192 -401 0
-192 -410 0
-192 -445 0
-192 -449 0
-212 -274 0
-212 -292 0
-212 -342 0
-212 -401 0
-212 -410 0
-212 -445 0
-212 -449 0
-274 -292 0
-274 -342 0
-274 -401 0
-274 -410 0
-274 -445 0
-274 -449 0
-292 -342 0
-292 -401 0
-292 -410 0
-292 -445 0
-292 -449 0
-342 -401 0
-342 -410 0
-342 -445 0
-342 -449 0
-401 -410 0
-401 -445 0
-401 -449 0
-410 -445 0
-410 -449 0
-445 -449 0
42 52 113 136 203 253 285 314 354 392 422 441 453 0
-42 -52 0
-42 -113 0
-42 -136 0
-42 -203 0
-42 -253 0
-42 -285 0
-42 -314 0
-42 -354 0
-42 -392 0
-42 -422 0
-42 -441 0
-42 -453 0
-52 -113 0
-52 -136 0
-52 -203 0
-52 -253 0
-52 -285 0
-52 -314 0
-52 -354 0
-52 -392 0
-52 -422 0
-52 -441 0
-52 -453 0
-113 -136 0
-113 -203 0
-113 -253 0
-113 -285 0
-113 -314 0
-113 -354 0
-113 -392 0
-113 -422 0
-113 -441 0
-113 -453 0
-136 -203 0
-136 -253 0
-136 -285 0
-136 -314 0
-136 -354 0
-136 -392 0
-136 -422 0
-136 -441 0
-136 -453 0
-203 -253 0
-203 -285 0
-203 -314 0
-203 -354 0
-203 -392 0
-203 -422 0
-203 -441 0
-203 -453 0
-253 -285 0
-253 -314 0
-253 -354 0
-253 -392 0
-253 -422 0
-253 -441 0
-253 -453 0
-285 -314 0
-285 -354 0
-285 -392 0
-285 -422 0
-285 -441 0
-285 -453 0
-314 -354 0
-314 -392 0
-314 -422 0
-314 -441 0
-314 -453 0
-354 -392 0
-354 -422 0
-354 -441 0
-354 -453 0
-392 -422 0
-392 -441 0
-392 -453 0
-422 -441 0
-422 -453 0
-441 -453 0
32 42 125 148 192 265 304 365 382 385 406 420 430 0
-32 -42 0
-32 -125 0
-32 -148 0
-32 -192 0
-32 -265 0
-32 -304 0
-32 -365 0
-32 -382 0
-32 -385 0
-32 -406 0
-32 -420 0
-32 -430 0
-42 -125 0
-42 -148 0
-42 -192 0
-42 -265 0
-42 -304 0
-42 -365 0
-42 -382 0
-42 -385 0
-42 -406 0
-42 -420 0
-42 -430 0
-125 -148 0
-125 -192 0
-125 -265 0
-125 -304 0
-125 -365 0
-125 -382 0
-125 -385 0
-125 -406 0
-125 -420 0
-125 -430 0
-148 -192 0
-148 -265 0
-148 -304 0
-148 -365 0
-148 -382 0
-148 -385 0
-148 -406 0
-148 -420 0
-148 -430 0
-192 -265 0
-192 -304 0
-192 -365 0
-192 -382 0
-192 -385 0
-192 -406 0
-192 -420 0
-192 -430 0
-265 -304 0
-265 -365 0
-265 -382 0
-265 -385 0
-265 -406 0
-265 -420 0
-265 -430 0
-304 -365 0
-304 -382 0
-304 -385 0
-304 -406 0
-304 -420 0
-304 -430 0
-365 -382 0
-365 -385 0
-365 -406 0
-365 -420 0
-365 -430 0
-382 -385 0
-382 -406 0
-382 -420 0
-382 -430 0
-385 -406 0
-385 -420 0
-385 -430 0
-406 -420 0
-406 -430 0
-420 -430 0
22 32 137 160 276 292 295 318 328 340 352 363 373 0
-22 -32 0
-22 -137 0
-22 -160 0
-22 -276 0
-22 -292 0
-22 -295 0
-22 -318 0
-22 -328 0
-22 -340 0
-22 -352 0
-22 -363 0
-22 -373 0
-32 -137 0
-32 -160 0
-32 -276 0
-32 -292 0
-32 -295 0
-32 -318 0
-32 -328 0
-32 -340 0
-32 -352 0
-32 -363 0
-32 -373 0
-137 -160 0
-137 -276 0
-137 -292 0
-137 -295 0
-137 -318 0
-137 -328 0
-137 -340 0
-137 -352 0
-137 -363 0
-137 -373 0
-160 -276 0
-160 -292 0
-160 -295 0
-160 -318 0
-160 -328 0
-160 -340 0
-160 -352 0
-160 -363 0
-160 -373 0
-276 -292 0
-276 -295 0
-276 -318 0
-276 -328 0
-276 -340 0
-276 -352 0
-276 -363 0
-276 -373 0
-292 -295 0
-292 -318 0
-292 -328 0
-292 -340 0
-292 -352 0
-292 -363 0
-292 -373 0
-295 -318 0
-295 -328 0
-295 -340 0
-295 -352 0
-295 -363 0
-295 -373 0
-318 -328 0
-318 -340 0
-318 -352 0
-318 -363 0
-318 -373 0
-328 -340 0
-328 -352 0
-328 -363 0
-328 -373 0
-340 -352 0
-340 -363 0
-340 -373 0
-352 -363 0
-352 -373 0
-363 -373 0
22 149 170 182 194 205 215 228 240 252 263 274 285 0
-22 -149 0
-22 -170 0
-22 -182 0
-22 -194 0
-22 -205 0
-22 -215 0
-22 -228 0
-22 -240 0
-22 -252 0
-22 -263 0
-22 -274 0
-22 -285 0
-149 -170 0
-149 -182 0
-149 -194 0
-149 -205 0
-149 -215 0
-149 -228 0
-149 -240 0
-149 -252 0
-149 -263 0
-149 -274 0
-149 -285 0
-170 -182 0
-170 -194 0
-170 -205 0
-170 -215 0
-170 -228 0
-170 -240 0
-170 -252 0
-170 -263 0
-170 -274 0
-170 -285 0
-182 -194 0
-182 -205 0
-182 -215 0
-182 -228 0
-182 -240 0
-182 -252 0
-182 -263 0
-182 -274 0
-182 -285 0
-194 -205 0
-194 -215 0
-194 -228 0
-194 -240 0
-194 -252 0
-194 -263 0
-194 -274 0
-194 -285 0
-205 -215 0
-205 -228 0
-205 -240 0
-205 -252 0
-205 -263 0
-205 -274 0
-205 -285 0
-215 -228 0
-215 -240 0
-215 -252 0
-215 -263 0
-215 -274 0
-215 -285 0
-228 -240 0
-228 -252 0
-228 -263 0
-228 -274 0
-228 -285 0
-240 -252 0
-240 -263 0
-240 -274 0
-240 -285 0
-252 -263 0
-252 -274 0
-252 -285 0
-263 -274 0
-263 -285 0
-274 -285 0
11 23 34 45 56 67 78 89 100 124 136 148 160 0
-11 -23 0
-11 -34 0
-11 -45 0
-11 -56 0
-11 -67 0
-11 -78 0
-11 -89 0
-11 -100 0
-11 -124 0
-11 -136 0
-11 -148 0
-11 -160 0
-23 -34 0
-23 -45 0
-23 -56 0
-23 -67 0
-23 -78 0
-23 -89 0
-23 -100 0
-23 -124 0
-23 -136 0
-23 -148 0
-23 -160 0
-34 -45 0
-34 -56 0
-34 -67 0
-34 -78 0
-34 -89 0
-34 -100 0
-34 -124 0
-34 -136 0
-34 -148 0
-34 -160 0
-45 -56 0
-45 -67 0
-45 -78 0
-45 -89 0
-45 -100 0
-45 -124 0
-45 -136 0
-45 -148 0
-45 -160 0
-56 -67 0
-56 -78 0
-56 -89 0
-56 -100 0
-56 -124 0
-56 -136 0
-56 -148 0
-56 -160 0
-67 -78 0
-67 -89 0
-67 -100 0
-67 -124 0
-67 -136 0
-67 -148 0
-67 -160 0
-78 -89 0
-78 -100 0
-78 -124 0
-78 -136 0
-78 -148 0
-78 -160 0
-89 -100 0
-89 -124 0
-89 -136 0
-89 -148 0
-89 -160 0
-100 -124 0
-100 -136 0
-100 -148 0
-100 -160 0
-124 -136 0
-124 -148 0
-124 -160 0
-136 -148 0
-136 -160 0
-148 -160 0
1 2 13 46 58 80 102 114 126 138 150 0
-1 -2 0
-1 -13 0
-1 -46 0
-1 -58 0
-1 -80 0
-1 -102 0
-1 -114 0
-1 -126 0
-1 -138 0
-1 -150 0
-2 -13 0
-2 -46 0
-2 -58 0
-2 -80 0
-2 -102 0
-2 -114 0
-2 -126 0
-2 -138 0
-2 -150 0
-13 -46 0
-13 -58 0
-13 -80 0
-13 -102 0
-13 -114 0
-13 -126 0
-13 -138 0
-13 -150 0
-46 -58 0
-46 -80 0
-46 -102 0
-46 -114 0
-46 -126 0
-46 -138 0
-46 -150 0
-58 -80 0
-58 -102 0
-58 -114 0
-58 -126 0
-58 -138 0
-58 -150 0
-80 -102 0
-80 -114 0
-80 -126 0
-80 -138 0
-80 -150 0
-102 -114 0
-102 -126 0
-102 -138 0
-102 -150 0
-114 -126 0
-114 -138 0
-114 -150 0
-126 -138 0
-126 -150 0
-138 -150 0
2 12 152 171 196 207 217 231 242 254 266 277 0
-2 -12 0
-2 -152 0
-2 -171 0
-2 -196 0
-2 -207 0
-2 -217 0
-2 -231 0
-2 -242 0
-2 -254 0
-2 -266 0
-2 -277 0
-12 -152 0
-12 -171 0
-12 -196 0
-12 -207 0
-12 -217 0
-12 -231 0
-12 -242 0
-12 -254 0
-12 -266 0
-12 -277 0
-152 -171 0
-152 -196 0
-152 -207 0
-152 -217 0
-152 -231 0
-152 -242 0
-152 -254 0
-152 -266 0
-152 -277 0
-171 -196 0
-171 -207 0
-171 -217 0
-171 -231 0
-171 -242 0
-171 -254 0
-171 -266 0
-171 -277 0
-196 -207 0
-196 -217 0
-196 -231 0
-196 -242 0
-196 -254 0
-196 -266 0
-196 -277 0
-207 -217 0
-207 -231 0
-207 -242 0
-207 -254 0
-207 -266 0
-207 -277 0
-217 -231 0
-217 -242 0
-217 -254 0
-217 -266 0
-217 -277 0
-231 -242 0
-231 -254 0
-231 -266 0
-231 -277 0
-242 -254 0
-242 -266 0
-242 -277 0
-254 -266 0
-254 -277 0
-266 -277 0
13 24 152 183 287 296 298 310 332 343 355 0
-13 -24 0
-13 -152 0
-13 -183 0
-13 -287 0
-13 -296 0
-13 -298 0
-13 -310 0
-13 -332 0
-13 -343 0
-13 -355 0
-24 -152 0
-24 -183 0
-24 -287 0
-24 -296 0
-24 -298 0
-24 -310 0
-24 -332 0
-24 -343 0
-24 -355 0
-152 -183 0
-152 -287 0
-152 -296 0
-152 -298 0
-152 -310 0
-152 -332 0
-152 -343 0
-152 -355 0
-183 -287 0
-183 -296 0
-183 -298 0
-183 -310 0
-183 -332 0
-183 -343 0
-183 -355 0
-287 -296 0
-287 -298 0
-287 -310 0
-287 -332 0
-287 -343 0
-287 -355 0
-296 -298 0
-296 -310 0
-296 -332 0
-296 -343 0
-296 -355 0
-298 -310 0
-298 -332 0
-298 -343 0
-298 -355 0
-310 -332 0
-310 -343 0
-310 -355 0
-332 -343 0
-332 -355 0
-343 -355 0
46 57 107 216 248 287 329 347 407 415 454 0
-46 -57 0
-46 -107 0
-46 -216 0
-46 -248 0
-46 -287 0
-46 -329 0
-46 -347 0
-46 -407 0
-46 -415 0
-46 -454 0
-57 -107 0
-57 -216 0
-57 -248 0
-57 -287 0
-57 -329 0
-57 -347 0
-57 -407 0
-57 -415 0
-57 -454 0
-107 -216 0
-107 -248 0
-107 -287 0
-107 -329 0
-107 -347 0
-107 -407 0
-107 -415 0
-107 -454 0
-216 -248 0
-216 -287 0
-216 -329 0
-216 -347 0
-216 -407 0
-216 -415 0
-216 -454 0
-248 -287 0
-248 -329 0
-248 -347 0
-248 -407 0
-248 -415 0
-248 -454 0
-287 -329 0
-287 -347 0
-287 -407 0
-287 -415 0
-287 -454 0
-329 -347 0
-329 -407 0
-329 -415 0
-329 -454 0
-347 -407 0
-347 -415 0
-347 -454 0
-407 -415 0
-407 -454 0
-415 -454 0
58 68 107 196 229 236 298 341 402 421 438 0
-58 -68 0
-58 -107 0
-58 -196 0
-58 -229 0
-58 -236 0
-58 -298 0
-58 -341 0
-58 -402 0
-58 -421 0
-58 -438 0
-68 -107 0
-68 -196 0
-68 -229 0
-68 -236 0
-68 -298 0
-68 -341 0
-68 -402 0
-68 -421 0
-68 -438 0
-107 -196 0
-107 -229 0
-107 -236 0
-107 -298 0
-107 -341 0
-107 -402 0
-107 -421 0
-107 -438 0
-196 -229 0
-196 -236 0
-196 -298 0
-196 -341 0
-196 -402 0
-196 -421 0
-196 -438 0
-229 -236 0
-229 -298 0
-229 -341 0
-229 -402 0
-229 -421 0
-229 -438 0
-236 -298 0
-236 -341 0
-236 -402 0
-236 -421 0
-236 -438 0
-298 -341 0
-298 -402 0
-298 -421 0
-298 -438 0
-341 -402 0
-341 -421 0
-341 -438 0
-402 -421 0
-402 -438 0
-421 -438 0
79 85 207 224 241 248 310 324 353 393 431 0
-79 -85 0
-79 -207 0
-79 -224 0
-79 -241 0
-79 -248 0
-79 -310 0
-79 -324 0
-79 -353 0
-79 -393 0
-79 -431 0
-85 -207 0
-85 -224 0
-85 -241 0
-85 -248 0
-85 -310 0
-85 -324 0
-85 -353 0
-85 -393 0
-85 -431 0
-207 -224 0
-207 -241 0
-207 -248 0
-207 -310 0
-207 -324 0
-207 -353 0
-207 -393 0
-207 -431 0
-224 -241 0
-224 -248 0
-224 -310 0
-224 -324 0
-224 -353 0
-224 -393 0
-224 -431 0
-241 -248 0
-241 -310 0
-241 -324 0
-241 -353 0
-241 -393 0
-241 -431 0
-248 -310 0
-248 -324 0
-248 -353 0
-248 -393 0
-248 -431 0
-310 -324 0
-310 -353 0
-310 -393 0
-310 -431 0
-324 -353 0
-324 -393 0
-324 -431 0
-353 -393 0
-353 -431 0
-393 -431 0
75 80 85 90 213 217 236 315 347 364 383 0
-75 -80 0
-75 -85 0
-75 -90 0
-75 -213 0
-75 -217 0
-75 -236 0
-75 -315 0
-75 -347 0
-75 -364 0
-75 -383 0
-80 -85 0
-80 -90 0
-80 -213 0
-80 -217 0
-80 -236 0
-80 -315 0
-80 -347 0
-80 -364 0
-80 -383 0
-85 -90 0
-85 -213 0
-85 -217 0
-85 -236 0
-85 -315 0
-85 -347 0
-85 -364 0
-85 -383 0
-90 -213 0
-90 -217 0
-90 -236 0
-90 -315 0
-90 -347 0
-90 -364 0
-90 -383 0
-213 -217 0
-213 -236 0
-213 -315 0
-213 -347 0
-213 -364 0
-213 -383 0
-217 -236 0
-217 -315 0
-217 -347 0
-217 -364 0
-217 -383 0
-236 -315 0
-236 -347 0
-236 -364 0
-236 -383 0
-315 -347 0
-315 -364 0
-315 -383 0
-347 -364 0
-347 -383 0
-364 -383 0
64 75 101 204 224 231 264 305 332 374 415 0
-64 -75 0
-64 -101 0
-64 -204 0
-64 -224 0
-64 -231 0
-64 -264 0
-64 -305 0
-64 -332 0
-64 -374 0
-64 -415 0
-75 -101 0
-75 -204 0
-75 -224 0
-75 -231 0
-75 -264 0
-75 -305 0
-75 -332 0
-75 -374 0
-75 -415 0
-101 -204 0
-101 -224 0
-101 -231 0
-101 -264 0
-101 -305 0
-101 -332 0
-101 -374 0
-101 -415 0
-204 -224 0
-204 -231 0
-204 -264 0
-204 -305 0
-204 -332 0
-204 -374 0
-204 -415 0
-224 -231 0
-224 -264 0
-224 -305 0
-224 -332 0
-224 -374 0
-224 -415 0
-231 -264 0
-231 -305 0
-231 -332 0
-231 -374 0
-231 -415 0
-264 -305 0
-264 -332 0
-264 -374 0
-264 -415 0
-305 -332 0
-305 -374 0
-305 -415 0
-332 -374 0
-332 -415 0
-374 -415 0
53 64 102 113 213 242 275 293 324 343 402 0
-53 -64 0
-53 -102 0
-53 -113 0
-53 -213 0
-53 -242 0
-53 -275 0
-53 -293 0
-53 -324 0
-53 -343 0
-53 -402 0
-64 -102 0
-64 -113 0
-64 -213 0
-64 -242 0
-64 -275 0
-64 -293 0
-64 -324 0
-64 -343 0
-64 -402 0
-102 -113 0
-102 -213 0
-102 -242 0
-102 -275 0
-102 -293 0
-102 -324 0
-102 -343 0
-102 -402 0
-113 -213 0
-113 -242 0
-113 -275 0
-113 -293 0
-113 -324 0
-113 -343 0
-113 -402 0
-213 -242 0
-213 -275 0
-213 -293 0
-213 -324 0
-213 -343 0
-213 -402 0
-242 -275 0
-242 -293 0
-242 -324 0
-242 -343 0
-242 -402 0
-275 -293 0
-275 -324 0
-275 -343 0
-275 -402 0
-293 -324 0
-293 -343 0
-293 -402 0
-324 -343 0
-324 -402 0
-343 -402 0
43 53 114 125 204 254 286 315 355 393 438 454 0
-43 -53 0
-43 -114 0
-43 -125 0
-43 -204 0
-43 -254 0
-43 -286 0
-43 -315 0
-43 -355 0
-43 -393 0
-43 -438 0
-43 -454 0
-53 -114 0
-53 -125 0
-53 -204 0
-53 -254 0
-53 -286 0
-53 -315 0
-53 -355 0
-53 -393 0
-53 -438 0
-53 -454 0
-114 -125 0
-114 -204 0
-114 -254 0
-114 -286 0
-114 -315 0
-114 -355 0
-114 -393 0
-114 -438 0
-114 -454 0
-125 -204 0
-125 -254 0
-125 -286 0
-125 -315 0
-125 -355 0
-125 -393 0
-125 -438 0
-125 -454 0
-204 -254 0
-204 -286 0
-204 -315 0
-204 -355 0
-204 -393 0
-204 -438 0
-204 -454 0
-254 -286 0
-254 -315 0
-254 -355 0
-254 -393 0
-254 -438 0
-254 -454 0
-286 -315 0
-286 -355 0
-286 -393 0
-286 -438 0
-286 -454 0
-315 -355 0
-315 -393 0
-315 -438 0
-315 -454 0
-355 -393 0
-355 -438 0
-355 -454 0
-393 -438 0
-393 -454 0
-438 -454 0
33 43 126 137 169 266 305 383 407 421 431 0
-33 -43 0
-33 -126 0
-33 -137 0
-33 -169 0
-33 -266 0
-33 -305 0
-33 -383 0
-33 -407 0
-33 -421 0
-33 -431 0
-43 -126 0
-43 -137 0
-43 -169 0
-43 -266 0
-43 -305 0
-43 -383 0
-43 -407 0
-43 -421 0
-43 -431 0
-126 -137 0
-126 -169 0
-126 -266 0
-126 -305 0
-126 -383 0
-126 -407 0
-126 -421 0
-126 -431 0
-137 -169 0
-137 -266 0
-137 -305 0
-137 -383 0
-137 -407 0
-137 -421 0
-137 -431 0
-169 -266 0
-169 -305 0
-169 -383 0
-169 -407 0
-169 -421 0
-169 -431 0
-266 -305 0
-266 -383 0
-266 -407 0
-266 -421 0
-266 -431 0
-305 -383 0
-305 -407 0
-305 -421 0
-305 -431 0
-383 -407 0
-383 -421 0
-383 -431 0
-407 -421 0
-407 -431 0
-421 -431 0
33 138 149 277 293 296 329 341 353 364 374 0
-33 -138 0
-33 -149 0
-33 -277 0
-33 -293 0
-33 -296 0
-33 -329 0
-33 -341 0
-33 -353 0
-33 -364 0
-33 -374 0
-138 -149 0
-138 -277 0
-138 -293 0
-138 -296 0
-138 -329 0
-138 -341 0
-138 -353 0
-138 -364 0
-138 -374 0
-149 -277 0
-149 -293 0
-149 -296 0
-149 -329 0
-149 -341 0
-149 -353 0
-149 -364 0
-149 -374 0
-277 -293 0
-277 -296 0
-277 -329 0
-277 -341 0
-277 -353 0
-277 -364 0
-277 -374 0
-293 -296 0
-293 -329 0
-293 -341 0
-293 -353 0
-293 -364 0
-293 -374 0
-296 -329 0
-296 -341 0
-296 -353 0
-296 -364 0
-296 -374 0
-329 -341 0
-329 -353 0
-329 -364 0
-329 -374 0
-341 -353 0
-341 -364 0
-341 -374 0
-353 -364 0
-353 -374 0
-364 -374 0
11 150 169 171 183 216 229 241 264 275 286 0
-11 -150 0
-11 -169 0
-11 -171 0
-11 -183 0
-11 -216 0
-11 -229 0
-11 -241 0
-11 -264 0
-11 -275 0
-11 -286 0
-150 -169 0
-150 -171 0
-150 -183 0
-150 -216 0
-150 -229 0
-150 -241 0
-150 -264 0
-150 -275 0
-150 -286 0
-169 -171 0
-169 -183 0
-169 -216 0
-169 -229 0
-169 -241 0
-169 -264 0
-169 -275 0
-169 -286 0
-171 -183 0
-171 -216 0
-171 -229 0
-171 -241 0
-171 -264 0
-171 -275 0
-171 -286 0
-183 -216 0
-183 -229 0
-183 -241 0
-183 -264 0
-183 -275 0
-183 -286 0
-216 -229 0
-216 -241 0
-216 -264 0
-216 -275 0
-216 -286 0
-229 -241 0
-229 -264 0
-229 -275 0
-229 -286 0
-241 -264 0
-241 -275 0
-241 -286 0
-264 -275 0
-264 -286 0
-275 -286 0
2 3 14 47 69 91 103 115 127 139 151 0
-2 -3 0
-2 -14 0
-2 -47 0
-2 -69 0
-2 -91 0
-2 -103 0
-2 -115 0
-2 -127 0
-2 -139 0
-2 -151 0
-3 -14 0
-3 -47 0
-3 -69 0
-3 -91 0
-3 -103 0
-3 -115 0
-3 -127 0
-3 -139 0
-3 -151 0
-14 -47 0
-14 -69 0
-14 -91 0
-14 -103 0
-14 -115 0
-14 -127 0
-14 -139 0
-14 -151 0
-47 -69 0
-47 -91 0
-47 -103 0
-47 -115 0
-47 -127 0
-47 -139 0
-47 -151 0
-69 -91 0
-69 -103 0
-69 -115 0
-69 -127 0
-69 -139 0
-69 -151 0
-91 -103 0
-91 -115 0
-91 -127 0
-91 -139 0
-91 -151 0
-103 -115 0
-103 -127 0
-103 -139 0
-103 -151 0
-115 -127 0
-115 -139 0
-115 -151 0
-127 -139 0
-127 -151 0
-139 -151 0
3 13 153 161 162 173 185 232 243 267 278 0
-3 -13 0
-3 -153 0
-3 -161 0
-3 -162 0
-3 -173 0
-3 -185 0
-3 -232 0
-3 -243 0
-3 -267 0
-3 -278 0
-13 -153 0
-13 -161 0
-13 -162 0
-13 -173 0
-13 -185 0
-13 -232 0
-13 -243 0
-13 -267 0
-13 -278 0
-153 -161 0
-153 -162 0
-153 -173 0
-153 -185 0
-153 -232 0
-153 -243 0
-153 -267 0
-153 -278 0
-161 -162 0
-161 -173 0
-161 -185 0
-161 -232 0
-161 -243 0
-161 -267 0
-161 -278 0
-162 -173 0
-162 -185 0
-162 -232 0
-162 -243 0
-162 -267 0
-162 -278 0
-173 -185 0
-173 -232 0
-173 -243 0
-173 -267 0
-173 -278 0
-185 -232 0
-185 -243 0
-185 -267 0
-185 -278 0
-232 -243 0
-232 -267 0
-232 -278 0
-243 -267 0
-243 -278 0
-267 -278 0
14 141 153 172 280 288 297 311 333 356 366 0
-14 -141 0
-14 -153 0
-14 -172 0
-14 -280 0
-14 -288 0
-14 -297 0
-14 -311 0
-14 -333 0
-14 -356 0
-14 -366 0
-141 -153 0
-141 -172 0
-141 -280 0
-141 -288 0
-141 -297 0
-141 -311 0
-141 -333 0
-141 -356 0
-141 -366 0
-153 -172 0
-153 -280 0
-153 -288 0
-153 -297 0
-153 -311 0
-153 -333 0
-153 -356 0
-153 -366 0
-172 -280 0
-172 -288 0
-172 -297 0
-172 -311 0
-172 -333 0
-172 -356 0
-172 -366 0
-280 -288 0
-280 -297 0
-280 -311 0
-280 -333 0
-280 -356 0
-280 -366 0
-288 -297 0
-288 -311 0
-288 -333 0
-288 -356 0
-288 -366 0
-297 -311 0
-297 -333 0
-297 -356 0
-297 -366 0
-311 -333 0
-311 -356 0
-311 -366 0
-333 -356 0
-333 -366 0
-356 -366 0
130 141 162 184 270 308 377 386 399 411 423 0
-130 -141 0
-130 -162 0
-130 -184 0
-130 -270 0
-130 -308 0
-130 -377 0
-130 -386 0
-130 -399 0
-130 -411 0
-130 -423 0
-141 -162 0
-141 -184 0
-141 -270 0
-141 -308 0
-141 -377 0
-141 -386 0
-141 -399 0
-141 -411 0
-141 -423 0
-162 -184 0
-162 -270 0
-162 -308 0
-162 -377 0
-162 -386 0
-162 -399 0
-162 -411 0
-162 -423 0
-184 -270 0
-184 -308 0
-184 -377 0
-184 -386 0
-184 -399 0
-184 -411 0
-184 -423 0
-270 -308 0
-270 -377 0
-270 -386 0
-270 -399 0
-270 -411 0
-270 -423 0
-308 -377 0
-308 -386 0
-308 -399 0
-308 -411 0
-308 -423 0
-377 -386 0
-377 -399 0
-377 -411 0
-377 -423 0
-386 -399 0
-386 -411 0
-386 -423 0
-399 -411 0
-399 -423 0
-411 -423 0
46 119 130 173 195 280 319 359 397 442 446 0
-46 -119 0
-46 -130 0
-46 -173 0
-46 -195 0
-46 -280 0
-46 -319 0
-46 -359 0
-46 -397 0
-46 -442 0
-46 -446 0
-119 -130 0
-119 -173 0
-119 -195 0
-119 -280 0
-119 -319 0
-119 -359 0
-119 -397 0
-119 -442 0
-119 -446 0
-130 -173 0
-130 -195 0
-130 -280 0
-130 -319 0
-130 -359 0
-130 -397 0
-130 -442 0
-130 -446 0
-173 -195 0
-173 -280 0
-173 -319 0
-173 -359 0
-173 -397 0
-173 -442 0
-173 -446 0
-195 -280 0
-195 -319 0
-195 -359 0
-195 -397 0
-195 -442 0
-195 -446 0
-280 -319 0
-280 -359 0
-280 -397 0
-280 -442 0
-280 -446 0
-319 -359 0
-319 -397 0
-319 -442 0
-319 -446 0
-359 -397 0
-359 -442 0
-359 -446 0
-397 -442 0
-397 -446 0
-442 -446 0
47 58 119 185 206 249 270 288 330 408 416 450 455 0
-47 -58 0
-47 -119 0
-47 -185 0
-47 -206 0
-47 -249 0
-47 -270 0
-47 -288 0
-47 -330 0
-47 -408 0
-47 -416 0
-47 -450 0
-47 -455 0
-58 -119 0
-58 -185 0
-58 -206 0
-58 -249 0
-58 -270 0
-58 -288 0
-58 -330 0
-58 -408 0
-58 -416 0
-58 -450 0
-58 -455 0
-119 -185 0
-119 -206 0
-119 -249 0
-119 -270 0
-119 -288 0
-119 -330 0
-119 -408 0
-119 -416 0
-119 -450 0
-119 -455 0
-185 -206 0
-185 -249 0
-185 -270 0
-185 -288 0
-185 -330 0
-185 -408 0
-185 -416 0
-185 -450 0
-185 -455 0
-206 -249 0
-206 -270 0
-206 -288 0
-206 -330 0
-206 -408 0
-206 -416 0
-206 -450 0
-206 -455 0
-249 -270 0
-249 -288 0
-249 -330 0
-249 -408 0
-249 -416 0
-249 -450 0
-249 -455 0
-270 -288 0
-270 -330 0
-270 -408 0
-270 -416 0
-270 -450 0
-270 -455 0
-288 -330 0
-288 -408 0
-288 -416 0
-288 -450 0
-288 -455 0
-330 -408 0
-330 -416 0
-330 -450 0
-330 -455 0
-408 -416 0
-408 -450 0
-408 -455 0
-416 -450 0
-416 -455 0
-450 -455 0
69 80 225 230 249 311 325 359 377 394 432 0
-69 -80 0
-69 -225 0
-69 -230 0
-69 -249 0
-69 -311 0
-69 -325 0
-69 -359 0
-69 -377 0
-69 -394 0
-69 -432 0
-80 -225 0
-80 -230 0
-80 -249 0
-80 -311 0
-80 -325 0
-80 -359 0
-80 -377 0
-80 -394 0
-80 -432 0
-225 -230 0
-225 -249 0
-225 -311 0
-225 -325 0
-225 -359 0
-225 -377 0
-225 -394 0
-225 -432 0
-230 -249 0
-230 -311 0
-230 -325 0
-230 -359 0
-230 -377 0
-230 -394 0
-230 -432 0
-249 -311 0
-249 -325 0
-249 -359 0
-249 -377 0
-249 -394 0
-249 -432 0
-311 -325 0
-311 -359 0
-311 -377 0
-311 -394 0
-311 -432 0
-325 -359 0
-325 -377 0
-325 -394 0
-325 -432 0
-359 -377 0
-359 -394 0
-359 -432 0
-377 -394 0
-377 -432 0
-394 -432 0
65 91 102 225 232 253 306 333 375 399 416 0
-65 -91 0
-65 -102 0
-65 -225 0
-65 -232 0
-65 -253 0
-65 -306 0
-65 -333 0
-65 -375 0
-65 -399 0
-65 -416 0
-91 -102 0
-91 -225 0
-91 -232 0
-91 -253 0
-91 -306 0
-91 -333 0
-91 -375 0
-91 -399 0
-91 -416 0
-102 -225 0
-102 -232 0
-102 -253 0
-102 -306 0
-102 -333 0
-102 -375 0
-102 -399 0
-102 -416 0
-225 -232 0
-225 -253 0
-225 -306 0
-225 -333 0
-225 -375 0
-225 -399 0
-225 -416 0
-232 -253 0
-232 -306 0
-232 -333 0
-232 -375 0
-232 -399 0
-232 -416 0
-253 -306 0
-253 -333 0
-253 -375 0
-253 -399 0
-253 -416 0
-306 -333 0
-306 -375 0
-306 -399 0
-306 -416 0
-333 -375 0
-333 -399 0
-333 -416 0
-375 -399 0
-375 -416 0
-399 -416 0
54 65 103 114 243 265 294 325 411 446 450 0
-54 -65 0
-54 -103 0
-54 -114 0
-54 -243 0
-54 -265 0
-54 -294 0
-54 -325 0
-54 -411 0
-54 -446 0
-54 -450 0
-65 -103 0
-65 -114 0
-65 -243 0
-65 -265 0
-65 -294 0
-65 -325 0
-65 -411 0
-65 -446 0
-65 -450 0
-103 -114 0
-103 -243 0
-103 -265 0
-103 -294 0
-103 -325 0
-103 -411 0
-103 -446 0
-103 -450 0
-114 -243 0
-114 -265 0
-114 -294 0
-114 -325 0
-114 -411 0
-114 -446 0
-114 -450 0
-243 -265 0
-243 -294 0
-243 -325 0
-243 -411 0
-243 -446 0
-243 -450 0
-265 -294 0
-265 -325 0
-265 -411 0
-265 -446 0
-265 -450 0
-294 -325 0
-294 -411 0
-294 -446 0
-294 -450 0
-325 -411 0
-325 -446 0
-325 -450 0
-411 -446 0
-411 -450 0
-446 -450 0
44 54 115 126 181 276 356 394 423 442 455 0
-44 -54 0
-44 -115 0
-44 -126 0
-44 -181 0
-44 -276 0
-44 -356 0
-44 -394 0
-44 -423 0
-44 -442 0
-44 -455 0
-54 -115 0
-54 -126 0
-54 -181 0
-54 -276 0
-54 -356 0
-54 -394 0
-54 -423 0
-54 -442 0
-54 -455 0
-115 -126 0
-115 -181 0
-115 -276 0
-115 -356 0
-115 -394 0
-115 -423 0
-115 -442 0
-115 -455 0
-126 -181 0
-126 -276 0
-126 -356 0
-126 -394 0
-126 -423 0
-126 -442 0
-126 -455 0
-181 -276 0
-181 -356 0
-181 -394 0
-181 -423 0
-181 -442 0
-181 -455 0
-276 -356 0
-276 -394 0
-276 -423 0
-276 -442 0
-276 -455 0
-356 -394 0
-356 -423 0
-356 -442 0
-356 -455 0
-394 -423 0
-394 -442 0
-394 -455 0
-423 -442 0
-423 -455 0
-442 -455 0
44 127 138 170 267 306 366 386 397 408 432 0
-44 -127 0
-44 -138 0
-44 -170 0
-44 -267 0
-44 -306 0
-44 -366 0
-44 -386 0
-44 -397 0
-44 -408 0
-44 -432 0
-127 -138 0
-127 -170 0
-127 -267 0
-127 -306 0
-127 -366 0
-127 -386 0
-127 -397 0
-127 -408 0
-127 -432 0
-138 -170 0
-138 -267 0
-138 -306 0
-138 -366 0
-138 -386 0
-138 -397 0
-138 -408 0
-138 -432 0
-170 -267 0
-170 -306 0
-170 -366 0
-170 -386 0
-170 -397 0
-170 -408 0
-170 -432 0
-267 -306 0
-267 -366 0
-267 -386 0
-267 -397 0
-267 -408 0
-267 -432 0
-306 -366 0
-306 -386 0
-306 -397 0
-306 -408 0
-306 -432 0
-366 -386 0
-366 -397 0
-366 -408 0
-366 -432 0
-386 -397 0
-386 -408 0
-386 -432 0
-397 -408 0
-397 -432 0
-408 -432 0
23 139 150 181 278 294 297 308 319 330 375 0
-23 -139 0
-23 -150 0
-23 -181 0
-23 -278 0
-23 -294 0
-23 -297 0
-23 -308 0
-23 -319 0
-23 -330 0
-23 -375 0
-139 -150 0
-139 -181 0
-139 -278 0
-139 -294 0
-139 -297 0
-139 -308 0
-139 -319 0
-139 -330 0
-139 -375 0
-150 -181 0
-150 -278 0
-150 -294 0
-150 -297 0
-150 -308 0
-150 -319 0
-150 -330 0
-150 -375 0
-181 -278 0
-181 -294 0
-181 -297 0
-181 -308 0
-181 -319 0
-181 -330 0
-181 -375 0
-278 -294 0
-278 -297 0
-278 -308 0
-278 -319 0
-278 -330 0
-278 -375 0
-294 -297 0
-294 -308 0
-294 -319 0
-294 -330 0
-294 -375 0
-297 -308 0
-297 -319 0
-297 -330 0
-297 -375 0
-308 -319 0
-308 -330 0
-308 -375 0
-319 -330 0
-319 -375 0
-330 -375 0
3 4 35 48 70 81 92 116 128 140 152 0
-3 -4 0
-3 -35 0
-3 -48 0
-3 -70 0
-3 -81 0
-3 -92 0
-3 -116 0
-3 -128 0
-3 -140 0
-3 -152 0
-4 -35 0
-4 -48 0
-4 -70 0
-4 -81 0
-4 -92 0
-4 -116 0
-4 -128 0
-4 -140 0
-4 -152 0
-35 -48 0
-35 -70 0
-35 -81 0
-35 -92 0
-35 -116 0
-35 -128 0
-35 -140 0
-35 -152 0
-48 -70 0
-48 -81 0
-48 -92 0
-48 -116 0
-48 -128 0
-48 -140 0
-48 -152 0
-70 -81 0
-70 -92 0
-70 -116 0
-70 -128 0
-70 -140 0
-70 -152 0
-81 -92 0
-81 -116 0
-81 -128 0
-81 -140 0
-81 -152 0
-92 -116 0
-92 -128 0
-92 -140 0
-92 -152 0
-116 -128 0
-116 -140 0
-116 -152 0
-128 -140 0
-128 -152 0
-140 -152 0
4 14 174 186 197 208 218 244 255 268 279 0
-4 -14 0
-4 -174 0
-4 -186 0
-4 -197 0
-4 -208 0
-4 -218 0
-4 -244 0
-4 -255 0
-4 -268 0
-4 -279 0
-14 -174 0
-14 -186 0
-14 -197 0
-14 -208 0
-14 -218 0
-14 -244 0
-14 -255 0
-14 -268 0
-14 -279 0
-174 -186 0
-174 -197 0
-174 -208 0
-174 -218 0
-174 -244 0
-174 -255 0
-174 -268 0
-174 -279 0
-186 -197 0
-186 -208 0
-186 -218 0
-186 -244 0
-186 -255 0
-186 -268 0
-186 -279 0
-197 -208 0
-197 -218 0
-197 -244 0
-197 -255 0
-197 -268 0
-197 -279 0
-208 -218 0
-208 -244 0
-208 -255 0
-208 -268 0
-208 -279 0
-218 -244 0
-218 -255 0
-218 -268 0
-218 -279 0
-244 -255 0
-244 -268 0
-244 -279 0
-255 -268 0
-255 -279 0
-268 -279 0
35 47 174 196 258 309 398 426 435 443 447 0
-35 -47 0
-35 -174 0
-35 -196 0
-35 -258 0
-35 -309 0
-35 -398 0
-35 -426 0
-35 -435 0
-35 -443 0
-35 -447 0
-47 -174 0
-47 -196 0
-47 -258 0
-47 -309 0
-47 -398 0
-47 -426 0
-47 -435 0
-47 -443 0
-47 -447 0
-174 -196 0
-174 -258 0
-174 -309 0
-174 -398 0
-174 -426 0
-174 -435 0
-174 -443 0
-174 -447 0
-196 -258 0
-196 -309 0
-196 -398 0
-196 -426 0
-196 -435 0
-196 -443 0
-196 -447 0
-258 -309 0
-258 -398 0
-258 -426 0
-258 -435 0
-258 -443 0
-258 -447 0
-309 -398 0
-309 -426 0
-309 -435 0
-309 -443 0
-309 -447 0
-398 -426 0
-398 -435 0
-398 -443 0
-398 -447 0
-426 -435 0
-426 -443 0
-426 -447 0
-435 -443 0
-435 -447 0
-443 -447 0
48 108 186 207 250 320 348 409 417 451 456 0
-48 -108 0
-48 -186 0
-48 -207 0
-48 -250 0
-48 -320 0
-48 -348 0
-48 -409 0
-48 -417 0
-48 -451 0
-48 -456 0
-108 -186 0
-108 -207 0
-108 -250 0
-108 -320 0
-108 -348 0
-108 -409 0
-108 -417 0
-108 -451 0
-108 -456 0
-186 -207 0
-186 -250 0
-186 -320 0
-186 -348 0
-186 -409 0
-186 -417 0
-186 -451 0
-186 -456 0
-207 -250 0
-207 -320 0
-207 -348 0
-207 -409 0
-207 -417 0
-207 -451 0
-207 -456 0
-250 -320 0
-250 -348 0
-250 -409 0
-250 -417 0
-250 -451 0
-250 -456 0
-320 -348 0
-320 -409 0
-320 -417 0
-320 -451 0
-320 -456 0
-348 -409 0
-348 -417 0
-348 -451 0
-348 -456 0
-409 -417 0
-409 -451 0
-409 -456 0
-417 -451 0
-417 -456 0
-451 -456 0
69 96 108 197 217 237 258 331 337 403 439 0
-69 -96 0
-69 -108 0
-69 -197 0
-69 -217 0
-69 -237 0
-69 -258 0
-69 -331 0
-69 -337 0
-69 -403 0
-69 -439 0
-96 -108 0
-96 -197 0
-96 -217 0
-96 -237 0
-96 -258 0
-96 -331 0
-96 -337 0
-96 -403 0
-96 -439 0
-108 -197 0
-108 -217 0
-108 -237 0
-108 -258 0
-108 -331 0
-108 -337 0
-108 -403 0
-108 -439 0
-197 -217 0
-197 -237 0
-197 -258 0
-197 -331 0
-197 -337 0
-197 -403 0
-197 -439 0
-217 -237 0
-217 -258 0
-217 -331 0
-217 -337 0
-217 -403 0
-217 -439 0
-237 -258 0
-237 -331 0
-237 -337 0
-237 -403 0
-237 -439 0
-258 -331 0
-258 -337 0
-258 -403 0
-258 -439 0
-331 -337 0
-331 -403 0
-331 -439 0
-337 -403 0
-337 -439 0
-403 -439 0
70 86 96 208 226 231 250 326 342 395 433 0
-70 -86 0
-70 -96 0
-70 -208 0
-70 -226 0
-70 -231 0
-70 -250 0
-70 -326 0
-70 -342 0
-70 -395 0
-70 -433 0
-86 -96 0
-86 -208 0
-86 -226 0
-86 -231 0
-86 -250 0
-86 -326 0
-86 -342 0
-86 -395 0
-86 -433 0
-96 -208 0
-96 -226 0
-96 -231 0
-96 -250 0
-96 -326 0
-96 -342 0
-96 -395 0
-96 -433 0
-208 -226 0
-208 -231 0
-208 -250 0
-208 -326 0
-208 -342 0
-208 -395 0
-208 -433 0
-226 -231 0
-226 -250 0
-226 -326 0
-226 -342 0
-226 -395 0
-226 -433 0
-231 -250 0
-231 -326 0
-231 -342 0
-231 -395 0
-231 -433 0
-250 -326 0
-250 -342 0
-250 -395 0
-250 -433 0
-326 -342 0
-326 -395 0
-326 -433 0
-342 -395 0
-342 -433 0
-395 -433 0
76 81 86 91 218 237 242 316 348 354 384 426 0
-76 -81 0
-76 -86 0
-76 -91 0
-76 -218 0
-76 -237 0
-76 -242 0
-76 -316 0
-76 -348 0
-76 -354 0
-76 -384 0
-76 -426 0
-81 -86 0
-81 -91 0
-81 -218 0
-81 -237 0
-81 -242 0
-81 -316 0
-81 -348 0
-81 -354 0
-81 -384 0
-81 -426 0
-86 -91 0
-86 -218 0
-86 -237 0
-86 -242 0
-86 -316 0
-86 -348 0
-86 -354 0
-86 -384 0
-86 -426 0
-91 -218 0
-91 -237 0
-91 -242 0
-91 -316 0
-91 -348 0
-91 -354 0
-91 -384 0
-91 -426 0
-218 -237 0
-218 -242 0
-218 -316 0
-218 -348 0
-218 -354 0
-218 -384 0
-218 -426 0
-237 -242 0
-237 -316 0
-237 -348 0
-237 -354 0
-237 -384 0
-237 -426 0
-242 -316 0
-242 -348 0
-242 -354 0
-242 -384 0
-242 -426 0
-316 -348 0
-316 -354 0
-316 -384 0
-316 -426 0
-348 -354 0
-348 -384 0
-348 -426 0
-354 -384 0
-354 -426 0
-384 -426 0
66 76 92 103 226 254 307 337 365 417 435 0
-66 -76 0
-66 -92 0
-66 -103 0
-66 -226 0
-66 -254 0
-66 -307 0
-66 -337 0
-66 -365 0
-66 -417 0
-66 -435 0
-76 -92 0
-76 -103 0
-76 -226 0
-76 -254 0
-76 -307 0
-76 -337 0
-76 -365 0
-76 -417 0
-76 -435 0
-92 -103 0
-92 -226 0
-92 -254 0
-92 -307 0
-92 -337 0
-92 -365 0
-92 -417 0
-92 -435 0
-103 -226 0
-103 -254 0
-103 -307 0
-103 -337 0
-103 -365 0
-103 -417 0
-103 -435 0
-226 -254 0
-226 -307 0
-226 -337 0
-226 -365 0
-226 -417 0
-226 -435 0
-254 -307 0
-254 -337 0
-254 -365 0
-254 -417 0
-254 -435 0
-307 -337 0
-307 -365 0
-307 -417 0
-307 -435 0
-337 -365 0
-337 -417 0
-337 -435 0
-365 -417 0
-365 -435 0
-417 -435 0
55 66 115 193 244 266 295 326 403 447 451 0
-55 -66 0
-55 -115 0
-55 -193 0
-55 -244 0
-55 -266 0
-55 -295 0
-55 -326 0
-55 -403 0
-55 -447 0
-55 -451 0
-66 -115 0
-66 -193 0
-66 -244 0
-66 -266 0
-66 -295 0
-66 -326 0
-66 -403 0
-66 -447 0
-66 -451 0
-115 -193 0
-115 -244 0
-115 -266 0
-115 -295 0
-115 -326 0
-115 -403 0
-115 -447 0
-115 -451 0
-193 -244 0
-193 -266 0
-193 -295 0
-193 -326 0
-193 -403 0
-193 -447 0
-193 -451 0
-244 -266 0
-244 -295 0
-244 -326 0
-244 -403 0
-244 -447 0
-244 -451 0
-266 -295 0
-266 -326 0
-266 -403 0
-266 -447 0
-266 -451 0
-295 -326 0
-295 -403 0
-295 -447 0
-295 -451 0
-326 -403 0
-326 -447 0
-326 -451 0
-403 -447 0
-403 -451 0
-447 -451 0
55 116 127 182 255 277 316 395 439 443 456 0
-55 -116 0
-55 -127 0
-55 -182 0
-55 -255 0
-55 -277 0
-55 -316 0
-55 -395 0
-55 -439 0
-55 -443 0
-55 -456 0
-116 -127 0
-116 -182 0
-116 -255 0
-116 -277 0
-116 -316 0
-116 -395 0
-116 -439 0
-116 -443 0
-116 -456 0
-127 -182 0
-127 -255 0
-127 -277 0
-127 -316 0
-127 -395 0
-127 -439 0
-127 -443 0
-127 -456 0
-182 -255 0
-182 -277 0
-182 -316 0
-182 -395 0
-182 -439 0
-182 -443 0
-182 -456 0
-255 -277 0
-255 -316 0
-255 -395 0
-255 -439 0
-255 -443 0
-255 -456 0
-277 -316 0
-277 -395 0
-277 -439 0
-277 -443 0
-277 -456 0
-316 -395 0
-316 -439 0
-316 -443 0
-316 -456 0
-395 -439 0
-395 -443 0
-395 -456 0
-439 -443 0
-439 -456 0
-443 -456 0
34 128 139 171 193 268 307 384 398 409 433 0
-34 -128 0
-34 -139 0
-34 -171 0
-34 -193 0
-34 -268 0
-34 -307 0
-34 -384 0
-34 -398 0
-34 -409 0
-34 -433 0
-128 -139 0
-128 -171 0
-128 -193 0
-128 -268 0
-128 -307 0
-128 -384 0
-128 -398 0
-128 -409 0
-128 -433 0
-139 -171 0
-139 -193 0
-139 -268 0
-139 -307 0
-139 -384 0
-139 -398 0
-139 -409 0
-139 -433 0
-171 -193 0
-171 -268 0
-171 -307 0
-171 -384 0
-171 -398 0
-171 -409 0
-171 -433 0
-193 -268 0
-193 -307 0
-193 -384 0
-193 -398 0
-193 -409 0
-193 -433 0
-268 -307 0
-268 -384 0
-268 -398 0
-268 -409 0
-268 -433 0
-307 -384 0
-307 -398 0
-307 -409 0
-307 -433 0
-384 -398 0
-384 -409 0
-384 -433 0
-398 -409 0
-398 -433 0
-409 -433 0
4 5 15 25 36 59 71 104 117 129 153 0
-4 -5 0
-4 -15 0
-4 -25 0
-4 -36 0
-4 -59 0
-4 -71 0
-4 -104 0
-4 -117 0
-4 -129 0
-4 -153 0
-5 -15 0
-5 -25 0
-5 -36 0
-5 -59 0
-5 -71 0
-5 -104 0
-5 -117 0
-5 -129 0
-5 -153 0
-15 -25 0
-15 -36 0
-15 -59 0
-15 -71 0
-15 -104 0
-15 -117 0
-15 -129 0
-15 -153 0
-25 -36 0
-25 -59 0
-25 -71 0
-25 -104 0
-25 -117 0
-25 -129 0
-25 -153 0
-36 -59 0
-36 -71 0
-36 -104 0
-36 -117 0
-36 -129 0
-36 -153 0
-59 -71 0
-59 -104 0
-59 -117 0
-59 -129 0
-59 -153 0
-71 -104 0
-71 -117 0
-71 -129 0
-71 -153 0
-104 -117 0
-104 -129 0
-104 -153 0
-117 -129 0
-117 -153 0
-129 -153 0
5 154 162 163 175 198 209 219 245 256 269 0
-5 -154 0
-5 -162 0
-5 -163 0
-5 -175 0
-5 -198 0
-5 -209 0
-5 -219 0
-5 -245 0
-5 -256 0
-5 -269 0
-154 -162 0
-154 -163 0
-154 -175 0
-154 -198 0
-154 -209 0
-154 -219 0
-154 -245 0
-154 -256 0
-154 -269 0
-162 -163 0
-162 -175 0
-162 -198 0
-162 -209 0
-162 -219 0
-162 -245 0
-162 -256 0
-162 -269 0
-163 -175 0
-163 -198 0
-163 -209 0
-163 -219 0
-163 -245 0
-163 -256 0
-163 -269 0
-175 -198 0
-175 -209 0
-175 -219 0
-175 -245 0
-175 -256 0
-175 -269 0
-198 -209 0
-198 -219 0
-198 -245 0
-198 -256 0
-198 -269 0
-209 -219 0
-209 -245 0
-209 -256 0
-209 -269 0
-219 -245 0
-219 -256 0
-219 -269 0
-245 -256 0
-245 -269 0
-256 -269 0
15 142 154 173 281 287 299 321 344 357 367 0
-15 -142 0
-15 -154 0
-15 -173 0
-15 -281 0
-15 -287 0
-15 -299 0
-15 -321 0
-15 -344 0
-15 -357 0
-15 -367 0
-142 -154 0
-142 -173 0
-142 -281 0
-142 -287 0
-142 -299 0
-142 -321 0
-142 -344 0
-142 -357 0
-142 -367 0
-154 -173 0
-154 -281 0
-154 -287 0
-154 -299 0
-154 -321 0
-154 -344 0
-154 -357 0
-154 -367 0
-173 -281 0
-173 -287 0
-173 -299 0
-173 -321 0
-173 -344 0
-173 -357 0
-173 -367 0
-281 -287 0
-281 -299 0
-281 -321 0
-281 -344 0
-281 -357 0
-281 -367 0
-287 -299 0
-287 -321 0
-287 -344 0
-287 -357 0
-287 -367 0
-299 -321 0
-299 -344 0
-299 -357 0
-299 -367 0
-321 -344 0
-321 -357 0
-321 -367 0
-344 -357 0
-344 -367 0
-357 -367 0
25 35 142 163 185 298 376 378 388 412 424 0
-25 -35 0
-25 -142 0
-25 -163 0
-25 -185 0
-25 -298 0
-25 -376 0
-25 -378 0
-25 -388 0
-25 -412 0
-25 -424 0
-35 -142 0
-35 -163 0
-35 -185 0
-35 -298 0
-35 -376 0
-35 -378 0
-35 -388 0
-35 -412 0
-35 -424 0
-142 -163 0
-142 -185 0
-142 -298 0
-142 -376 0
-142 -378 0
-142 -388 0
-142 -412 0
-142 -424 0
-163 -185 0
-163 -298 0
-163 -376 0
-163 -378 0
-163 -388 0
-163 -412 0
-163 -424 0
-185 -298 0
-185 -376 0
-185 -378 0
-185 -388 0
-185 -412 0
-185 -424 0
-298 -376 0
-298 -378 0
-298 -388 0
-298 -412 0
-298 -424 0
-376 -378 0
-376 -388 0
-376 -412 0
-376 -424 0
-378 -388 0
-378 -412 0
-378 -424 0
-388 -412 0
-388 -424 0
-412 -424 0
36 48 175 259 281 310 360 387 427 444 448 0
-36 -48 0
-36 -175 0
-36 -259 0
-36 -281 0
-36 -310 0
-36 -360 0
-36 -387 0
-36 -427 0
-36 -444 0
-36 -448 0
-48 -175 0
-48 -259 0
-48 -281 0
-48 -310 0
-48 -360 0
-48 -387 0
-48 -427 0
-48 -444 0
-48 -448 0
-175 -259 0
-175 -281 0
-175 -310 0
-175 -360 0
-175 -387 0
-175 -427 0
-175 -444 0
-175 -448 0
-259 -281 0
-259 -310 0
-259 -360 0
-259 -387 0
-259 -427 0
-259 -444 0
-259 -448 0
-281 -310 0
-281 -360 0
-281 -387 0
-281 -427 0
-281 -444 0
-281 -448 0
-310 -360 0
-310 -387 0
-310 -427 0
-310 -444 0
-310 -448 0
-360 -387 0
-360 -427 0
-360 -444 0
-360 -448 0
-387 -427 0
-387 -444 0
-387 -448 0
-427 -444 0
-427 -448 0
-444 -448 0
59 70 97 198 238 259 299 332 404 410 440 0
-59 -70 0
-59 -97 0
-59 -198 0
-59 -238 0
-59 -259 0
-59 -299 0
-59 -332 0
-59 -404 0
-59 -410 0
-59 -440 0
-70 -97 0
-70 -198 0
-70 -238 0
-70 -259 0
-70 -299 0
-70 -332 0
-70 -404 0
-70 -410 0
-70 -440 0
-97 -198 0
-97 -238 0
-97 -259 0
-97 -299 0
-97 -332 0
-97 -404 0
-97 -410 0
-97 -440 0
-198 -238 0
-198 -259 0
-198 -299 0
-198 -332 0
-198 -404 0
-198 -410 0
-198 -440 0
-238 -259 0
-238 -299 0
-238 -332 0
-238 -404 0
-238 -410 0
-238 -440 0
-259 -299 0
-259 -332 0
-259 -404 0
-259 -410 0
-259 -440 0
-299 -332 0
-299 -404 0
-299 -410 0
-299 -440 0
-332 -404 0
-332 -410 0
-332 -440 0
-404 -410 0
-404 -440 0
-410 -440 0
71 81 87 97 209 232 327 343 360 378 396 422 0
-71 -81 0
-71 -87 0
-71 -97 0
-71 -209 0
-71 -232 0
-71 -327 0
-71 -343 0
-71 -360 0
-71 -378 0
-71 -396 0
-71 -422 0
-81 -87 0
-81 -97 0
-81 -209 0
-81 -232 0
-81 -327 0
-81 -343 0
-81 -360 0
-81 -378 0
-81 -396 0
-81 -422 0
-87 -97 0
-87 -209 0
-87 -232 0
-87 -327 0
-87 -343 0
-87 -360 0
-87 -378 0
-87 -396 0
-87 -422 0
-97 -209 0
-97 -232 0
-97 -327 0
-97 -343 0
-97 -360 0
-97 -378 0
-97 -396 0
-97 -422 0
-209 -232 0
-209 -327 0
-209 -343 0
-209 -360 0
-209 -378 0
-209 -396 0
-209 -422 0
-232 -327 0
-232 -343 0
-232 -360 0
-232 -378 0
-232 -396 0
-232 -422 0
-327 -343 0
-327 -360 0
-327 -378 0
-327 -396 0
-327 -422 0
-343 -360 0
-343 -378 0
-343 -396 0
-343 -422 0
-360 -378 0
-360 -396 0
-360 -422 0
-378 -396 0
-378 -422 0
-396 -422 0
87 92 219 238 243 317 321 355 385 388 427 0
-87 -92 0
-87 -219 0
-87 -238 0
-87 -243 0
-87 -317 0
-87 -321 0
-87 -355 0
-87 -385 0
-87 -388 0
-87 -427 0
-92 -219 0
-92 -238 0
-92 -243 0
-92 -317 0
-92 -321 0
-92 -355 0
-92 -385 0
-92 -388 0
-92 -427 0
-219 -238 0
-219 -243 0
-219 -317 0
-219 -321 0
-219 -355 0
-219 -385 0
-219 -388 0
-219 -427 0
-238 -243 0
-238 -317 0
-238 -321 0
-238 -355 0
-238 -385 0
-238 -388 0
-238 -427 0
-243 -317 0
-243 -321 0
-243 -355 0
-243 -385 0
-243 -388 0
-243 -427 0
-317 -321 0
-317 -355 0
-317 -385 0
-317 -388 0
-317 -427 0
-321 -355 0
-321 -385 0
-321 -388 0
-321 -427 0
-355 -385 0
-355 -388 0
-355 -427 0
-385 -388 0
-385 -427 0
-388 -427 0
104 116 194 245 267 296 327 344 404 412 448 0
-104 -116 0
-104 -194 0
-104 -245 0
-104 -267 0
-104 -296 0
-104 -327 0
-104 -344 0
-104 -404 0
-104 -412 0
-104 -448 0
-116 -194 0
-116 -245 0
-116 -267 0
-116 -296 0
-116 -327 0
-116 -344 0
-116 -404 0
-116 -412 0
-116 -448 0
-194 -245 0
-194 -267 0
-194 -296 0
-194 -327 0
-194 -344 0
-194 -404 0
-194 -412 0
-194 -448 0
-245 -267 0
-245 -296 0
-245 -327 0
-245 -344 0
-245 -404 0
-245 -412 0
-245 -448 0
-267 -296 0
-267 -327 0
-267 -344 0
-267 -404 0
-267 -412 0
-267 -448 0
-296 -327 0
-296 -344 0
-296 -404 0
-296 -412 0
-296 -448 0
-327 -344 0
-327 -404 0
-327 -412 0
-327 -448 0
-344 -404 0
-344 -412 0
-344 -448 0
-404 -412 0
-404 -448 0
-412 -448 0
45 117 128 183 256 278 317 357 396 424 440 444 0
-45 -117 0
-45 -128 0
-45 -183 0
-45 -256 0
-45 -278 0
-45 -317 0
-45 -357 0
-45 -396 0
-45 -424 0
-45 -440 0
-45 -444 0
-117 -128 0
-117 -183 0
-117 -256 0
-117 -278 0
-117 -317 0
-117 -357 0
-117 -396 0
-117 -424 0
-117 -440 0
-117 -444 0
-128 -183 0
-128 -256 0
-128 -278 0
-128 -317 0
-128 -357 0
-128 -396 0
-128 -424 0
-128 -440 0
-128 -444 0
-183 -256 0
-183 -278 0
-183 -317 0
-183 -357 0
-183 -396 0
-183 -424 0
-183 -440 0
-183 -444 0
-256 -278 0
-256 -317 0
-256 -357 0
-256 -396 0
-256 -424 0
-256 -440 0
-256 -444 0
-278 -317 0
-278 -357 0
-278 -396 0
-278 -424 0
-278 -440 0
-278 -444 0
-317 -357 0
-317 -396 0
-317 -424 0
-317 -440 0
-317 -444 0
-357 -396 0
-357 -424 0
-357 -440 0
-357 -444 0
-396 -424 0
-396 -440 0
-396 -444 0
-424 -440 0
-424 -444 0
-440 -444 0
5 6 16 26 37 49 60 82 93 105 118 141 0
-5 -6 0
-5 -16 0
-5 -26 0
-5 -37 0
-5 -49 0
-5 -60 0
-5 -82 0
-5 -93 0
-5 -105 0
-5 -118 0
-5 -141 0
-6 -16 0
-6 -26 0
-6 -37 0
-6 -49 0
-6 -60 0
-6 -82 0
-6 -93 0
-6 -105 0
-6 -118 0
-6 -141 0
-16 -26 0
-16 -37 0
-16 -49 0
-16 -60 0
-16 -82 0
-16 -93 0
-16 -105 0
-16 -118 0
-16 -141 0
-26 -37 0
-26 -49 0
-26 -60 0
-26 -82 0
-26 -93 0
-26 -105 0
-26 -118 0
-26 -141 0
-37 -49 0
-37 -60 0
-37 -82 0
-37 -93 0
-37 -105 0
-37 -118 0
-37 -141 0
-49 -60 0
-49 -82 0
-49 -93 0
-49 -105 0
-49 -118 0
-49 -141 0
-60 -82 0
-60 -93 0
-60 -105 0
-60 -118 0
-60 -141 0
-82 -93 0
-82 -105 0
-82 -118 0
-82 -141 0
-93 -105 0
-93 -118 0
-93 -141 0
-105 -118 0
-105 -141 0
-118 -141 0
6 15 155 164 176 187 220 233 246 257 280 0
-6 -15 0
-6 -155 0
-6 -164 0
-6 -176 0
-6 -187 0
-6 -220 0
-6 -233 0
-6 -246 0
-6 -257 0
-6 -280 0
-15 -155 0
-15 -164 0
-15 -176 0
-15 -187 0
-15 -220 0
-15 -233 0
-15 -246 0
-15 -257 0
-15 -280 0
-155 -164 0
-155 -176 0
-155 -187 0
-155 -220 0
-155 -233 0
-155 -246 0
-155 -257 0
-155 -280 0
-164 -176 0
-164 -187 0
-164 -220 0
-164 -233 0
-164 -246 0
-164 -257 0
-164 -280 0
-176 -187 0
-176 -220 0
-176 -233 0
-176 -246 0
-176 -257 0
-176 -280 0
-187 -220 0
-187 -233 0
-187 -246 0
-187 -257 0
-187 -280 0
-220 -233 0
-220 -246 0
-220 -257 0
-220 -280 0
-233 -246 0
-233 -257 0
-233 -280 0
-246 -257 0
-246 -280 0
-257 -280 0
16 25 155 174 282 288 300 322 334 345 358 0
-16 -25 0
-16 -155 0
-16 -174 0
-16 -282 0
-16 -288 0
-16 -300 0
-16 -322 0
-16 -334 0
-16 -345 0
-16 -358 0
-25 -155 0
-25 -174 0
-25 -282 0
-25 -288 0
-25 -300 0
-25 -322 0
-25 -334 0
-25 -345 0
-25 -358 0
-155 -174 0
-155 -282 0
-155 -288 0
-155 -300 0
-155 -322 0
-155 -334 0
-155 -345 0
-155 -358 0
-174 -282 0
-174 -288 0
-174 -300 0
-174 -322 0
-174 -334 0
-174 -345 0
-174 -358 0
-282 -288 0
-282 -300 0
-282 -322 0
-282 -334 0
-282 -345 0
-282 -358 0
-288 -300 0
-288 -322 0
-288 -334 0
-288 -345 0
-288 -358 0
-300 -322 0
-300 -334 0
-300 -345 0
-300 -358 0
-322 -334 0
-322 -345 0
-322 -358 0
-334 -345 0
-334 -358 0
-345 -358 0
26 36 131 164 186 271 368 389 400 413 425 0
-26 -36 0
-26 -131 0
-26 -164 0
-26 -186 0
-26 -271 0
-26 -368 0
-26 -389 0
-26 -400 0
-26 -413 0
-26 -425 0
-36 -131 0
-36 -164 0
-36 -186 0
-36 -271 0
-36 -368 0
-36 -389 0
-36 -400 0
-36 -413 0
-36 -425 0
-131 -164 0
-131 -186 0
-131 -271 0
-131 -368 0
-131 -389 0
-131 -400 0
-131 -413 0
-131 -425 0
-164 -186 0
-164 -271 0
-164 -368 0
-164 -389 0
-164 -400 0
-164 -413 0
-164 -425 0
-186 -271 0
-186 -368 0
-186 -389 0
-186 -400 0
-186 -413 0
-186 -425 0
-271 -368 0
-271 -389 0
-271 -400 0
-271 -413 0
-271 -425 0
-368 -389 0
-368 -400 0
-368 -413 0
-368 -425 0
-389 -400 0
-389 -413 0
-389 -425 0
-400 -413 0
-400 -425 0
-413 -425 0
37 120 131 176 197 260 282 311 428 434 436 0
-37 -120 0
-37 -131 0
-37 -176 0
-37 -197 0
-37 -260 0
-37 -282 0
-37 -311 0
-37 -428 0
-37 -434 0
-37 -436 0
-120 -131 0
-120 -176 0
-120 -197 0
-120 -260 0
-120 -282 0
-120 -311 0
-120 -428 0
-120 -434 0
-120 -436 0
-131 -176 0
-131 -197 0
-131 -260 0
-131 -282 0
-131 -311 0
-131 -428 0
-131 -434 0
-131 -436 0
-176 -197 0
-176 -260 0
-176 -282 0
-176 -311 0
-176 -428 0
-176 -434 0
-176 -436 0
-197 -260 0
-197 -282 0
-197 -311 0
-197 -428 0
-197 -434 0
-197 -436 0
-260 -282 0
-260 -311 0
-260 -428 0
-260 -434 0
-260 -436 0
-282 -311 0
-282 -428 0
-282 -434 0
-282 -436 0
-311 -428 0
-311 -434 0
-311 -436 0
-428 -434 0
-428 -436 0
-434 -436 0
49 59 109 120 187 208 271 349 418 445 452 0
-49 -59 0
-49 -109 0
-49 -120 0
-49 -187 0
-49 -208 0
-49 -271 0
-49 -349 0
-49 -418 0
-49 -445 0
-49 -452 0
-59 -109 0
-59 -120 0
-59 -187 0
-59 -208 0
-59 -271 0
-59 -349 0
-59 -418 0
-59 -445 0
-59 -452 0
-109 -120 0
-109 -187 0
-109 -208 0
-109 -271 0
-109 -349 0
-109 -418 0
-109 -445 0
-109 -452 0
-120 -187 0
-120 -208 0
-120 -271 0
-120 -349 0
-120 -418 0
-120 -445 0
-120 -452 0
-187 -208 0
-187 -271 0
-187 -349 0
-187 -418 0
-187 -445 0
-187 -452 0
-208 -271 0
-208 -349 0
-208 -418 0
-208 -445 0
-208 -452 0
-271 -349 0
-271 -418 0
-271 -445 0
-271 -452 0
-349 -418 0
-349 -445 0
-349 -452 0
-418 -445 0
-418 -452 0
-445 -452 0
60 71 109 218 260 300 333 338 368 405 441 0
-60 -71 0
-60 -109 0
-60 -218 0
-60 -260 0
-60 -300 0
-60 -333 0
-60 -338 0
-60 -368 0
-60 -405 0
-60 -441 0
-71 -109 0
-71 -218 0
-71 -260 0
-71 -300 0
-71 -333 0
-71 -338 0
-71 -368 0
-71 -405 0
-71 -441 0
-109 -218 0
-109 -260 0
-109 -300 0
-109 -333 0
-109 -338 0
-109 -368 0
-109 -405 0
-109 -441 0
-218 -260 0
-218 -300 0
-218 -333 0
-218 -338 0
-218 -368 0
-218 -405 0
-218 -441 0
-260 -300 0
-260 -333 0
-260 -338 0
-260 -368 0
-260 -405 0
-260 -441 0
-300 -333 0
-300 -338 0
-300 -368 0
-300 -405 0
-300 -441 0
-333 -338 0
-333 -368 0
-333 -405 0
-333 -441 0
-338 -368 0
-338 -405 0
-338 -441 0
-368 -405 0
-368 -441 0
-405 -441 0
77 82 214 220 244 318 322 349 356 389 428 0
-77 -82 0
-77 -214 0
-77 -220 0
-77 -244 0
-77 -318 0
-77 -322 0
-77 -349 0
-77 -356 0
-77 -389 0
-77 -428 0
-82 -214 0
-82 -220 0
-82 -244 0
-82 -318 0
-82 -322 0
-82 -349 0
-82 -356 0
-82 -389 0
-82 -428 0
-214 -220 0
-214 -244 0
-214 -318 0
-214 -322 0
-214 -349 0
-214 -356 0
-214 -389 0
-214 -428 0
-220 -244 0
-220 -318 0
-220 -322 0
-220 -349 0
-220 -356 0
-220 -389 0
-220 -428 0
-244 -318 0
-244 -322 0
-244 -349 0
-244 -356 0
-244 -389 0
-244 -428 0
-318 -322 0
-318 -349 0
-318 -356 0
-318 -389 0
-318 -428 0
-322 -349 0
-322 -356 0
-322 -389 0
-322 -428 0
-349 -356 0
-349 -389 0
-349 -428 0
-356 -389 0
-356 -428 0
-389 -428 0
77 93 104 205 233 255 334 338 366 400 418 436 0
-77 -93 0
-77 -104 0
-77 -205 0
-77 -233 0
-77 -255 0
-77 -334 0
-77 -338 0
-77 -366 0
-77 -400 0
-77 -418 0
-77 -436 0
-93 -104 0
-93 -205 0
-93 -233 0
-93 -255 0
-93 -334 0
-93 -338 0
-93 -366 0
-93 -400 0
-93 -418 0
-93 -436 0
-104 -205 0
-104 -233 0
-104 -255 0
-104 -334 0
-104 -338 0
-104 -366 0
-104 -400 0
-104 -418 0
-104 -436 0
-205 -233 0
-205 -255 0
-205 -334 0
-205 -338 0
-205 -366 0
-205 -400 0
-205 -418 0
-205 -436 0
-233 -255 0
-233 -334 0
-233 -338 0
-233 -366 0
-233 -400 0
-233 -418 0
-233 -436 0
-255 -334 0
-255 -338 0
-255 -366 0
-255 -400 0
-255 -418 0
-255 -436 0
-334 -338 0
-334 -366 0
-334 -400 0
-334 -418 0
-334 -436 0
-338 -366 0
-338 -400 0
-338 -418 0
-338 -436 0
-366 -400 0
-366 -418 0
-366 -436 0
-400 -418 0
-400 -436 0
-418 -436 0
56 105 117 214 246 268 297 345 405 413 452 0
-56 -105 0
-56 -117 0
-56 -214 0
-56 -246 0
-56 -268 0
-56 -297 0
-56 -345 0
-56 -405 0
-56 -413 0
-56 -452 0
-105 -117 0
-105 -214 0
-105 -246 0
-105 -268 0
-105 -297 0
-105 -345 0
-105 -405 0
-105 -413 0
-105 -452 0
-117 -214 0
-117 -246 0
-117 -268 0
-117 -297 0
-117 -345 0
-117 -405 0
-117 -413 0
-117 -452 0
-214 -246 0
-214 -268 0
-214 -297 0
-214 -345 0
-214 -405 0
-214 -413 0
-214 -452 0
-246 -268 0
-246 -297 0
-246 -345 0
-246 -405 0
-246 -413 0
-246 -452 0
-268 -297 0
-268 -345 0
-268 -405 0
-268 -413 0
-268 -452 0
-297 -345 0
-297 -405 0
-297 -413 0
-297 -452 0
-345 -405 0
-345 -413 0
-345 -452 0
-405 -413 0
-405 -452 0
-413 -452 0
6 7 17 27 38 61 72 83 94 106 130 154 0
-6 -7 0
-6 -17 0
-6 -27 0
-6 -38 0
-6 -61 0
-6 -72 0
-6 -83 0
-6 -94 0
-6 -106 0
-6 -130 0
-6 -154 0
-7 -17 0
-7 -27 0
-7 -38 0
-7 -61 0
-7 -72 0
-7 -83 0
-7 -94 0
-7 -106 0
-7 -130 0
-7 -154 0
-17 -27 0
-17 -38 0
-17 -61 0
-17 -72 0
-17 -83 0
-17 -94 0
-17 -106 0
-17 -130 0
-17 -154 0
-27 -38 0
-27 -61 0
-27 -72 0
-27 -83 0
-27 -94 0
-27 -106 0
-27 -130 0
-27 -154 0
-38 -61 0
-38 -72 0
-38 -83 0
-38 -94 0
-38 -106 0
-38 -130 0
-38 -154 0
-61 -72 0
-61 -83 0
-61 -94 0
-61 -106 0
-61 -130 0
-61 -154 0
-72 -83 0
-72 -94 0
-72 -106 0
-72 -130 0
-72 -154 0
-83 -94 0
-83 -106 0
-83 -130 0
-83 -154 0
-94 -106 0
-94 -130 0
-94 -154 0
-106 -130 0
-106 -154 0
-130 -154 0
7 16 163 165 188 199 210 221 234 247 270 0
-7 -16 0
-7 -163 0
-7 -165 0
-7 -188 0
-7 -199 0
-7 -210 0
-7 -221 0
-7 -234 0
-7 -247 0
-7 -270 0
-16 -163 0
-16 -165 0
-16 -188 0
-16 -199 0
-16 -210 0
-16 -221 0
-16 -234 0
-16 -247 0
-16 -270 0
-163 -165 0
-163 -188 0
-163 -199 0
-163 -210 0
-163 -221 0
-163 -234 0
-163 -247 0
-163 -270 0
-165 -188 0
-165 -199 0
-165 -210 0
-165 -221 0
-165 -234 0
-165 -247 0
-165 -270 0
-188 -199 0
-188 -210 0
-188 -221 0
-188 -234 0
-188 -247 0
-188 -270 0
-199 -210 0
-199 -221 0
-199 -234 0
-199 -247 0
-199 -270 0
-210 -221 0
-210 -234 0
-210 -247 0
-210 -270 0
-221 -234 0
-221 -247 0
-221 -270 0
-234 -247 0
-234 -270 0
-247 -270 0
17 26 143 175 283 289 301 312 323 335 346 0
-17 -26 0
-17 -143 0
-17 -175 0
-17 -283 0
-17 -289 0
-17 -301 0
-17 -312 0
-17 -323 0
-17 -335 0
-17 -346 0
-26 -143 0
-26 -175 0
-26 -283 0
-26 -289 0
-26 -301 0
-26 -312 0
-26 -323 0
-26 -335 0
-26 -346 0
-143 -175 0
-143 -283 0
-143 -289 0
-143 -301 0
-143 -312 0
-143 -323 0
-143 -335 0
-143 -346 0
-175 -283 0
-175 -289 0
-175 -301 0
-175 -312 0
-175 -323 0
-175 -335 0
-175 -346 0
-283 -289 0
-283 -301 0
-283 -312 0
-283 -323 0
-283 -335 0
-283 -346 0
-289 -301 0
-289 -312 0
-289 -323 0
-289 -335 0
-289 -346 0
-301 -312 0
-301 -323 0
-301 -335 0
-301 -346 0
-312 -323 0
-312 -335 0
-312 -346 0
-323 -335 0
-323 -346 0
-335 -346 0
27 37 132 143 165 272 369 377 379 390 414 0
-27 -37 0
-27 -132 0
-27 -143 0
-27 -165 0
-27 -272 0
-27 -369 0
-27 -377 0
-27 -379 0
-27 -390 0
-27 -414 0
-37 -132 0
-37 -143 0
-37 -165 0
-37 -272 0
-37 -369 0
-37 -377 0
-37 -379 0
-37 -390 0
-37 -414 0
-132 -143 0
-132 -165 0
-132 -272 0
-132 -369 0
-132 -377 0
-132 -379 0
-132 -390 0
-132 -414 0
-143 -165 0
-143 -272 0
-143 -369 0
-143 -377 0
-143 -379 0
-143 -390 0
-143 -414 0
-165 -272 0
-165 -369 0
-165 -377 0
-165 -379 0
-165 -390 0
-165 -414 0
-272 -369 0
-272 -377 0
-272 -379 0
-272 -390 0
-272 -414 0
-369 -377 0
-369 -379 0
-369 -390 0
-369 -414 0
-377 -379 0
-377 -390 0
-377 -414 0
-379 -390 0
-379 -414 0
-390 -414 0
38 49 121 132 198 261 283 361 429 437 449 0
-38 -49 0
-38 -121 0
-38 -132 0
-38 -198 0
-38 -261 0
-38 -283 0
-38 -361 0
-38 -429 0
-38 -437 0
-38 -449 0
-49 -121 0
-49 -132 0
-49 -198 0
-49 -261 0
-49 -283 0
-49 -361 0
-49 -429 0
-49 -437 0
-49 -449 0
-121 -132 0
-121 -198 0
-121 -261 0
-121 -283 0
-121 -361 0
-121 -429 0
-121 -437 0
-121 -449 0
-132 -198 0
-132 -261 0
-132 -283 0
-132 -361 0
-132 -429 0
-132 -437 0
-132 -449 0
-198 -261 0
-198 -283 0
-198 -361 0
-198 -429 0
-198 -437 0
-198 -449 0
-261 -283 0
-261 -361 0
-261 -429 0
-261 -437 0
-261 -449 0
-283 -361 0
-283 -429 0
-283 -437 0
-283 -449 0
-361 -429 0
-361 -437 0
-361 -449 0
-429 -437 0
-429 -449 0
-437 -449 0
60 110 121 188 209 272 289 350 399 419 453 0
-60 -110 0
-60 -121 0
-60 -188 0
-60 -209 0
-60 -272 0
-60 -289 0
-60 -350 0
-60 -399 0
-60 -419 0
-60 -453 0
-110 -121 0
-110 -188 0
-110 -209 0
-110 -272 0
-110 -289 0
-110 -350 0
-110 -399 0
-110 -419 0
-110 -453 0
-121 -188 0
-121 -209 0
-121 -272 0
-121 -289 0
-121 -350 0
-121 -399 0
-121 -419 0
-121 -453 0
-188 -209 0
-188 -272 0
-188 -289 0
-188 -350 0
-188 -399 0
-188 -419 0
-188 -453 0
-209 -272 0
-209 -289 0
-209 -350 0
-209 -399 0
-209 -419 0
-209 -453 0
-272 -289 0
-272 -350 0
-272 -399 0
-272 -419 0
-272 -453 0
-289 -350 0
-289 -399 0
-289 -419 0
-289 -453 0
-350 -399 0
-350 -419 0
-350 -453 0
-399 -419 0
-399 -453 0
-419 -453 0
61 98 110 199 219 261 301 339 369 406 411 0
-61 -98 0
-61 -110 0
-61 -199 0
-61 -219 0
-61 -261 0
-61 -301 0
-61 -339 0
-61 -369 0
-61 -406 0
-61 -411 0
-98 -110 0
-98 -199 0
-98 -219 0
-98 -261 0
-98 -301 0
-98 -339 0
-98 -369 0
-98 -406 0
-98 -411 0
-110 -199 0
-110 -219 0
-110 -261 0
-110 -301 0
-110 -339 0
-110 -369 0
-110 -406 0
-110 -411 0
-199 -219 0
-199 -261 0
-199 -301 0
-199 -339 0
-199 -369 0
-199 -406 0
-199 -411 0
-219 -261 0
-219 -301 0
-219 -339 0
-219 -369 0
-219 -406 0
-219 -411 0
-261 -301 0
-261 -339 0
-261 -369 0
-261 -406 0
-261 -411 0
-301 -339 0
-301 -369 0
-301 -406 0
-301 -411 0
-339 -369 0
-339 -406 0
-339 -411 0
-369 -406 0
-369 -411 0
-406 -411 0
72 82 88 98 210 227 312 328 361 379 423 0
-72 -82 0
-72 -88 0
-72 -98 0
-72 -210 0
-72 -227 0
-72 -312 0
-72 -328 0
-72 -361 0
-72 -379 0
-72 -423 0
-82 -88 0
-82 -98 0
-82 -210 0
-82 -227 0
-82 -312 0
-82 -328 0
-82 -361 0
-82 -379 0
-82 -423 0
-88 -98 0
-88 -210 0
-88 -227 0
-88 -312 0
-88 -328 0
-88 -361 0
-88 -379 0
-88 -423 0
-98 -210 0
-98 -227 0
-98 -312 0
-98 -328 0
-98 -361 0
-98 -379 0
-98 -423 0
-210 -227 0
-210 -312 0
-210 -328 0
-210 -361 0
-210 -379 0
-210 -423 0
-227 -312 0
-227 -328 0
-227 -361 0
-227 -379 0
-227 -423 0
-312 -328 0
-312 -361 0
-312 -379 0
-312 -423 0
-328 -361 0
-328 -379 0
-328 -423 0
-361 -379 0
-361 -423 0
-379 -423 0
83 88 93 215 221 245 323 350 386 390 429 0
-83 -88 0
-83 -93 0
-83 -215 0
-83 -221 0
-83 -245 0
-83 -323 0
-83 -350 0
-83 -386 0
-83 -390 0
-83 -429 0
-88 -93 0
-88 -215 0
-88 -221 0
-88 -245 0
-88 -323 0
-88 -350 0
-88 -386 0
-88 -390 0
-88 -429 0
-93 -215 0
-93 -221 0
-93 -245 0
-93 -323 0
-93 -350 0
-93 -386 0
-93 -390 0
-93 -429 0
-215 -221 0
-215 -245 0
-215 -323 0
-215 -350 0
-215 -386 0
-215 -390 0
-215 -429 0
-221 -245 0
-221 -323 0
-221 -350 0
-221 -386 0
-221 -390 0
-221 -429 0
-245 -323 0
-245 -350 0
-245 -386 0
-245 -390 0
-245 -429 0
-323 -350 0
-323 -386 0
-323 -390 0
-323 -429 0
-350 -386 0
-350 -390 0
-350 -429 0
-386 -390 0
-386 -429 0
-390 -429 0
67 94 105 227 234 256 308 335 339 419 437 0
-67 -94 0
-67 -105 0
-67 -227 0
-67 -234 0
-67 -256 0
-67 -308 0
-67 -335 0
-67 -339 0
-67 -419 0
-67 -437 0
-94 -105 0
-94 -227 0
-94 -234 0
-94 -256 0
-94 -308 0
-94 -335 0
-94 -339 0
-94 -419 0
-94 -437 0
-105 -227 0
-105 -234 0
-105 -256 0
-105 -308 0
-105 -335 0
-105 -339 0
-105 -419 0
-105 -437 0
-227 -234 0
-227 -256 0
-227 -308 0
-227 -335 0
-227 -339 0
-227 -419 0
-227 -437 0
-234 -256 0
-234 -308 0
-234 -335 0
-234 -339 0
-234 -419 0
-234 -437 0
-256 -308 0
-256 -335 0
-256 -339 0
-256 -419 0
-256 -437 0
-308 -335 0
-308 -339 0
-308 -419 0
-308 -437 0
-335 -339 0
-335 -419 0
-335 -437 0
-339 -419 0
-339 -437 0
-419 -437 0
7 18 50 62 73 84 95 107 119 142 155 0
-7 -18 0
-7 -50 0
-7 -62 0
-7 -73 0
-7 -84 0
-7 -95 0
-7 -107 0
-7 -119 0
-7 -142 0
-7 -155 0
-18 -50 0
-18 -62 0
-18 -73 0
-18 -84 0
-18 -95 0
-18 -107 0
-18 -119 0
-18 -142 0
-18 -155 0
-50 -62 0
-50 -73 0
-50 -84 0
-50 -95 0
-50 -107 0
-50 -119 0
-50 -142 0
-50 -155 0
-62 -73 0
-62 -84 0
-62 -95 0
-62 -107 0
-62 -119 0
-62 -142 0
-62 -155 0
-73 -84 0
-73 -95 0
-73 -107 0
-73 -119 0
-73 -142 0
-73 -155 0
-84 -95 0
-84 -107 0
-84 -119 0
-84 -142 0
-84 -155 0
-95 -107 0
-95 -119 0
-95 -142 0
-95 -155 0
-107 -119 0
-107 -142 0
-107 -155 0
-119 -142 0
-119 -155 0
-142 -155 0
17 156 164 166 189 200 211 222 235 248 281 0
-17 -156 0
-17 -164 0
-17 -166 0
-17 -189 0
-17 -200 0
-17 -211 0
-17 -222 0
-17 -235 0
-17 -248 0
-17 -281 0
-156 -164 0
-156 -166 0
-156 -189 0
-156 -200 0
-156 -211 0
-156 -222 0
-156 -235 0
-156 -248 0
-156 -281 0
-164 -166 0
-164 -189 0
-164 -200 0
-164 -211 0
-164 -222 0
-164 -235 0
-164 -248 0
-164 -281 0
-166 -189 0
-166 -200 0
-166 -211 0
-166 -222 0
-166 -235 0
-166 -248 0
-166 -281 0
-189 -200 0
-189 -211 0
-189 -222 0
-189 -235 0
-189 -248 0
-189 -281 0
-200 -211 0
-200 -222 0
-200 -235 0
-200 -248 0
-200 -281 0
-211 -222 0
-211 -235 0
-211 -248 0
-211 -281 0
-222 -235 0
-222 -248 0
-222 -281 0
-235 -248 0
-235 -281 0
-248 -281 0
18 27 144 156 176 290 302 313 336 347 359 0
-18 -27 0
-18 -144 0
-18 -156 0
-18 -176 0
-18 -290 0
-18 -302 0
-18 -313 0
-18 -336 0
-18 -347 0
-18 -359 0
-27 -144 0
-27 -156 0
-27 -176 0
-27 -290 0
-27 -302 0
-27 -313 0
-27 -336 0
-27 -347 0
-27 -359 0
-144 -156 0
-144 -176 0
-144 -290 0
-144 -302 0
-144 -313 0
-144 -336 0
-144 -347 0
-144 -359 0
-156 -176 0
-156 -290 0
-156 -302 0
-156 -313 0
-156 -336 0
-156 -347 0
-156 -359 0
-176 -290 0
-176 -302 0
-176 -313 0
-176 -336 0
-176 -347 0
-176 -359 0
-290 -302 0
-290 -313 0
-290 -336 0
-290 -347 0
-290 -359 0
-302 -313 0
-302 -336 0
-302 -347 0
-302 -359 0
-313 -336 0
-313 -347 0
-313 -359 0
-336 -347 0
-336 -359 0
-347 -359 0
38 144 166 187 273 299 370 380 391 401 415 0
-38 -144 0
-38 -166 0
-38 -187 0
-38 -273 0
-38 -299 0
-38 -370 0
-38 -380 0
-38 -391 0
-38 -401 0
-38 -415 0
-144 -166 0
-144 -187 0
-144 -273 0
-144 -299 0
-144 -370 0
-144 -380 0
-144 -391 0
-144 -401 0
-144 -415 0
-166 -187 0
-166 -273 0
-166 -299 0
-166 -370 0
-166 -380 0
-166 -391 0
-166 -401 0
-166 -415 0
-187 -273 0
-187 -299 0
-187 -370 0
-187 -380 0
-187 -391 0
-187 -401 0
-187 -415 0
-273 -299 0
-273 -370 0
-273 -380 0
-273 -391 0
-273 -401 0
-273 -415 0
-299 -370 0
-299 -380 0
-299 -391 0
-299 -401 0
-299 -415 0
-370 -380 0
-370 -391 0
-370 -401 0
-370 -415 0
-380 -391 0
-380 -401 0
-380 -415 0
-391 -401 0
-391 -415 0
-401 -415 0
50 61 111 189 273 290 321 351 420 446 454 0
-50 -61 0
-50 -111 0
-50 -189 0
-50 -273 0
-50 -290 0
-50 -321 0
-50 -351 0
-50 -420 0
-50 -446 0
-50 -454 0
-61 -111 0
-61 -189 0
-61 -273 0
-61 -290 0
-61 -321 0
-61 -351 0
-61 -420 0
-61 -446 0
-61 -454 0
-111 -189 0
-111 -273 0
-111 -290 0
-111 -321 0
-111 -351 0
-111 -420 0
-111 -446 0
-111 -454 0
-189 -273 0
-189 -290 0
-189 -321 0
-189 -351 0
-189 -420 0
-189 -446 0
-189 -454 0
-273 -290 0
-273 -321 0
-273 -351 0
-273 -420 0
-273 -446 0
-273 -454 0
-290 -321 0
-290 -351 0
-290 -420 0
-290 -446 0
-290 -454 0
-321 -351 0
-321 -420 0
-321 -446 0
-321 -454 0
-351 -420 0
-351 -446 0
-351 -454 0
-420 -446 0
-420 -454 0
-446 -454 0
62 72 99 111 200 220 239 302 340 370 407 442 0
-62 -72 0
-62 -99 0
-62 -111 0
-62 -200 0
-62 -220 0
-62 -239 0
-62 -302 0
-62 -340 0
-62 -370 0
-62 -407 0
-62 -442 0
-72 -99 0
-72 -111 0
-72 -200 0
-72 -220 0
-72 -239 0
-72 -302 0
-72 -340 0
-72 -370 0
-72 -407 0
-72 -442 0
-99 -111 0
-99 -200 0
-99 -220 0
-99 -239 0
-99 -302 0
-99 -340 0
-99 -370 0
-99 -407 0
-99 -442 0
-111 -200 0
-111 -220 0
-111 -239 0
-111 -302 0
-111 -340 0
-111 -370 0
-111 -407 0
-111 -442 0
-200 -220 0
-200 -239 0
-200 -302 0
-200 -340 0
-200 -370 0
-200 -407 0
-200 -442 0
-220 -239 0
-220 -302 0
-220 -340 0
-220 -370 0
-220 -407 0
-220 -442 0
-239 -302 0
-239 -340 0
-239 -370 0
-239 -407 0
-239 -442 0
-302 -340 0
-302 -370 0
-302 -407 0
-302 -442 0
-340 -370 0
-340 -407 0
-340 -442 0
-370 -407 0
-370 -442 0
-407 -442 0
73 83 99 211 228 233 313 329 344 380 397 0
-73 -83 0
-73 -99 0
-73 -211 0
-73 -228 0
-73 -233 0
-73 -313 0
-73 -329 0
-73 -344 0
-73 -380 0
-73 -397 0
-83 -99 0
-83 -211 0
-83 -228 0
-83 -233 0
-83 -313 0
-83 -329 0
-83 -344 0
-83 -380 0
-83 -397 0
-99 -211 0
-99 -228 0
-99 -233 0
-99 -313 0
-99 -329 0
-99 -344 0
-99 -380 0
-99 -397 0
-211 -228 0
-211 -233 0
-211 -313 0
-211 -329 0
-211 -344 0
-211 -380 0
-211 -397 0
-228 -233 0
-228 -313 0
-228 -329 0
-228 -344 0
-228 -380 0
-228 -397 0
-233 -313 0
-233 -329 0
-233 -344 0
-233 -380 0
-233 -397 0
-313 -329 0
-313 -344 0
-313 -380 0
-313 -397 0
-329 -344 0
-329 -380 0
-329 -397 0
-344 -380 0
-344 -397 0
-380 -397 0
78 84 94 216 222 239 246 319 351 357 391 0
-78 -84 0
-78 -94 0
-78 -216 0
-78 -222 0
-78 -239 0
-78 -246 0
-78 -319 0
-78 -351 0
-78 -357 0
-78 -391 0
-84 -94 0
-84 -216 0
-84 -222 0
-84 -239 0
-84 -246 0
-84 -319 0
-84 -351 0
-84 -357 0
-84 -391 0
-94 -216 0
-94 -222 0
-94 -239 0
-94 -246 0
-94 -319 0
-94 -351 0
-94 -357 0
-94 -391 0
-216 -222 0
-216 -239 0
-216 -246 0
-216 -319 0
-216 -351 0
-216 -357 0
-216 -391 0
-222 -239 0
-222 -246 0
-222 -319 0
-222 -351 0
-222 -357 0
-222 -391 0
-239 -246 0
-239 -319 0
-239 -351 0
-239 -357 0
-239 -391 0
-246 -319 0
-246 -351 0
-246 -357 0
-246 -391 0
-319 -351 0
-319 -357 0
-319 -391 0
-351 -357 0
-351 -391 0
-357 -391 0
18 165 167 177 190 201 223 236 249 258 282 0
-18 -165 0
-18 -167 0
-18 -177 0
-18 -190 0
-18 -201 0
-18 -223 0
-18 -236 0
-18 -249 0
-18 -258 0
-18 -282 0
-165 -167 0
-165 -177 0
-165 -190 0
-165 -201 0
-165 -223 0
-165 -236 0
-165 -249 0
-165 -258 0
-165 -282 0
-167 -177 0
-167 -190 0
-167 -201 0
-167 -223 0
-167 -236 0
-167 -249 0
-167 -258 0
-167 -282 0
-177 -190 0
-177 -201 0
-177 -223 0
-177 -236 0
-177 -249 0
-177 -258 0
-177 -282 0
-190 -201 0
-190 -223 0
-190 -236 0
-190 -249 0
-190 -258 0
-190 -282 0
-201 -223 0
-201 -236 0
-201 -249 0
-201 -258 0
-201 -282 0
-223 -236 0
-223 -249 0
-223 -258 0
-223 -282 0
-236 -249 0
-236 -258 0
-236 -282 0
-249 -258 0
-249 -282 0
-258 -282 0
133 167 188 300 371 378 381 392 402 416 426 0
-133 -167 0
-133 -188 0
-133 -300 0
-133 -371 0
-133 -378 0
-133 -381 0
-133 -392 0
-133 -402 0
-133 -416 0
-133 -426 0
-167 -188 0
-167 -300 0
-167 -371 0
-167 -378 0
-167 -381 0
-167 -392 0
-167 -402 0
-167 -416 0
-167 -426 0
-188 -300 0
-188 -371 0
-188 -378 0
-188 -381 0
-188 -392 0
-188 -402 0
-188 -416 0
-188 -426 0
-300 -371 0
-300 -378 0
-300 -381 0
-300 -392 0
-300 -402 0
-300 -416 0
-300 -426 0
-371 -378 0
-371 -381 0
-371 -392 0
-371 -402 0
-371 -416 0
-371 -426 0
-378 -381 0
-378 -392 0
-378 -402 0
-378 -416 0
-378 -426 0
-381 -392 0
-381 -402 0
-381 -416 0
-381 -426 0
-392 -402 0
-392 -416 0
-392 -426 0
-402 -416 0
-402 -426 0
-416 -426 0
50 122 133 177 199 362 388 430 435 438 450 0
-50 -122 0
-50 -133 0
-50 -177 0
-50 -199 0
-50 -362 0
-50 -388 0
-50 -430 0
-50 -435 0
-50 -438 0
-50 -450 0
-122 -133 0
-122 -177 0
-122 -199 0
-122 -362 0
-122 -388 0
-122 -430 0
-122 -435 0
-122 -438 0
-122 -450 0
-133 -177 0
-133 -199 0
-133 -362 0
-133 -388 0
-133 -430 0
-133 -435 0
-133 -438 0
-133 -450 0
-177 -199 0
-177 -362 0
-177 -388 0
-177 -430 0
-177 -435 0
-177 -438 0
-177 -450 0
-199 -362 0
-199 -388 0
-199 -430 0
-199 -435 0
-199 -438 0
-199 -450 0
-362 -388 0
-362 -430 0
-362 -435 0
-362 -438 0
-362 -450 0
-388 -430 0
-388 -435 0
-388 -438 0
-388 -450 0
-430 -435 0
-430 -438 0
-430 -450 0
-435 -438 0
-435 -450 0
-438 -450 0
62 112 122 190 210 251 322 352 421 447 455 0
-62 -112 0
-62 -122 0
-62 -190 0
-62 -210 0
-62 -251 0
-62 -322 0
-62 -352 0
-62 -421 0
-62 -447 0
-62 -455 0
-112 -122 0
-112 -190 0
-112 -210 0
-112 -251 0
-112 -322 0
-112 -352 0
-112 -421 0
-112 -447 0
-112 -455 0
-122 -190 0
-122 -210 0
-122 -251 0
-122 -322 0
-122 -352 0
-122 -421 0
-122 -447 0
-122 -455 0
-190 -210 0
-190 -251 0
-190 -322 0
-190 -352 0
-190 -421 0
-190 -447 0
-190 -455 0
-210 -251 0
-210 -322 0
-210 -352 0
-210 -421 0
-210 -447 0
-210 -455 0
-251 -322 0
-251 -352 0
-251 -421 0
-251 -447 0
-251 -455 0
-322 -352 0
-322 -421 0
-322 -447 0
-322 -455 0
-352 -421 0
-352 -447 0
-352 -455 0
-421 -447 0
-421 -455 0
-447 -455 0
73 112 201 221 240 334 341 371 408 412 443 0
-73 -112 0
-73 -201 0
-73 -221 0
-73 -240 0
-73 -334 0
-73 -341 0
-73 -371 0
-73 -408 0
-73 -412 0
-73 -443 0
-112 -201 0
-112 -221 0
-112 -240 0
-112 -334 0
-112 -341 0
-112 -371 0
-112 -408 0
-112 -412 0
-112 -443 0
-201 -221 0
-201 -240 0
-201 -334 0
-201 -341 0
-201 -371 0
-201 -408 0
-201 -412 0
-201 -443 0
-221 -240 0
-221 -334 0
-221 -341 0
-221 -371 0
-221 -408 0
-221 -412 0
-221 -443 0
-240 -334 0
-240 -341 0
-240 -371 0
-240 -408 0
-240 -412 0
-240 -443 0
-334 -341 0
-334 -371 0
-334 -408 0
-334 -412 0
-334 -443 0
-341 -371 0
-341 -408 0
-341 -412 0
-341 -443 0
-371 -408 0
-371 -412 0
-371 -443 0
-408 -412 0
-408 -443 0
-412 -443 0
84 89 229 234 251 330 345 362 381 398 424 0
-84 -89 0
-84 -229 0
-84 -234 0
-84 -251 0
-84 -330 0
-84 -345 0
-84 -362 0
-84 -381 0
-84 -398 0
-84 -424 0
-89 -229 0
-89 -234 0
-89 -251 0
-89 -330 0
-89 -345 0
-89 -362 0
-89 -381 0
-89 -398 0
-89 -424 0
-229 -234 0
-229 -251 0
-229 -330 0
-229 -345 0
-229 -362 0
-229 -381 0
-229 -398 0
-229 -424 0
-234 -251 0
-234 -330 0
-234 -345 0
-234 -362 0
-234 -381 0
-234 -398 0
-234 -424 0
-251 -330 0
-251 -345 0
-251 -362 0
-251 -381 0
-251 -398 0
-251 -424 0
-330 -345 0
-330 -362 0
-330 -381 0
-330 -398 0
-330 -424 0
-345 -362 0
-345 -381 0
-345 -398 0
-345 -424 0
-362 -381 0
-362 -398 0
-362 -424 0
-381 -398 0
-381 -424 0
-398 -424 0
8 19 28 39 51 74 85 108 131 143 156 0
-8 -19 0
-8 -28 0
-8 -39 0
-8 -51 0
-8 -74 0
-8 -85 0
-8 -108 0
-8 -131 0
-8 -143 0
-8 -156 0
-19 -28 0
-19 -39 0
-19 -51 0
-19 -74 0
-19 -85 0
-19 -108 0
-19 -131 0
-19 -143 0
-19 -156 0
-28 -39 0
-28 -51 0
-28 -74 0
-28 -85 0
-28 -108 0
-28 -131 0
-28 -143 0
-28 -156 0
-39 -51 0
-39 -74 0
-39 -85 0
-39 -108 0
-39 -131 0
-39 -143 0
-39 -156 0
-51 -74 0
-51 -85 0
-51 -108 0
-51 -131 0
-51 -143 0
-51 -156 0
-74 -85 0
-74 -108 0
-74 -131 0
-74 -143 0
-74 -156 0
-85 -108 0
-85 -131 0
-85 -143 0
-85 -156 0
-108 -131 0
-108 -143 0
-108 -156 0
-131 -143 0
-131 -156 0
-143 -156 0
8 157 166 168 178 191 202 212 224 250 259 271 283 0
-8 -157 0
-8 -166 0
-8 -168 0
-8 -178 0
-8 -191 0
-8 -202 0
-8 -212 0
-8 -224 0
-8 -250 0
-8 -259 0
-8 -271 0
-8 -283 0
-157 -166 0
-157 -168 0
-157 -178 0
-157 -191 0
-157 -202 0
-157 -212 0
-157 -224 0
-157 -250 0
-157 -259 0
-157 -271 0
-157 -283 0
-166 -168 0
-166 -178 0
-166 -191 0
-166 -202 0
-166 -212 0
-166 -224 0
-166 -250 0
-166 -259 0
-166 -271 0
-166 -283 0
-168 -178 0
-168 -191 0
-168 -202 0
-168 -212 0
-168 -224 0
-168 -250 0
-168 -259 0
-168 -271 0
-168 -283 0
-178 -191 0
-178 -202 0
-178 -212 0
-178 -224 0
-178 -250 0
-178 -259 0
-178 -271 0
-178 -283 0
-191 -202 0
-191 -212 0
-191 -224 0
-191 -250 0
-191 -259 0
-191 -271 0
-191 -283 0
-202 -212 0
-202 -224 0
-202 -250 0
-202 -259 0
-202 -271 0
-202 -283 0
-212 -224 0
-212 -250 0
-212 -259 0
-212 -271 0
-212 -283 0
-224 -250 0
-224 -259 0
-224 -271 0
-224 -283 0
-250 -259 0
-250 -271 0
-250 -283 0
-259 -271 0
-259 -283 0
-271 -283 0
19 145 157 289 291 303 314 324 348 360 368 0
-19 -145 0
-19 -157 0
-19 -289 0
-19 -291 0
-19 -303 0
-19 -314 0
-19 -324 0
-19 -348 0
-19 -360 0
-19 -368 0
-145 -157 0
-145 -289 0
-145 -291 0
-145 -303 0
-145 -314 0
-145 -324 0
-145 -348 0
-145 -360 0
-145 -368 0
-157 -289 0
-157 -291 0
-157 -303 0
-157 -314 0
-157 -324 0
-157 -348 0
-157 -360 0
-157 -368 0
-289 -291 0
-289 -303 0
-289 -314 0
-289 -324 0
-289 -348 0
-289 -360 0
-289 -368 0
-291 -303 0
-291 -314 0
-291 -324 0
-291 -348 0
-291 -360 0
-291 -368 0
-303 -314 0
-303 -324 0
-303 -348 0
-303 -360 0
-303 -368 0
-314 -324 0
-314 -348 0
-314 -360 0
-314 -368 0
-324 -348 0
-324 -360 0
-324 -368 0
-348 -360 0
-348 -368 0
-360 -368 0
28 134 145 168 189 301 372 382 393 417 427 0
-28 -134 0
-28 -145 0
-28 -168 0
-28 -189 0
-28 -301 0
-28 -372 0
-28 -382 0
-28 -393 0
-28 -417 0
-28 -427 0
-134 -145 0
-134 -168 0
-134 -189 0
-134 -301 0
-134 -372 0
-134 -382 0
-134 -393 0
-134 -417 0
-134 -427 0
-145 -168 0
-145 -189 0
-145 -301 0
-145 -372 0
-145 -382 0
-145 -393 0
-145 -417 0
-145 -427 0
-168 -189 0
-168 -301 0
-168 -372 0
-168 -382 0
-168 -393 0
-168 -417 0
-168 -427 0
-189 -301 0
-189 -372 0
-189 -382 0
-189 -393 0
-189 -417 0
-189 -427 0
-301 -372 0
-301 -382 0
-301 -393 0
-301 -417 0
-301 -427 0
-372 -382 0
-372 -393 0
-372 -417 0
-372 -427 0
-382 -393 0
-382 -417 0
-382 -427 0
-393 -417 0
-393 -427 0
-417 -427 0
39 123 134 178 200 262 312 363 389 431 451 0
-39 -123 0
-39 -134 0
-39 -178 0
-39 -200 0
-39 -262 0
-39 -312 0
-39 -363 0
-39 -389 0
-39 -431 0
-39 -451 0
-123 -134 0
-123 -178 0
-123 -200 0
-123 -262 0
-123 -312 0
-123 -363 0
-123 -389 0
-123 -431 0
-123 -451 0
-134 -178 0
-134 -200 0
-134 -262 0
-134 -312 0
-134 -363 0
-134 -389 0
-134 -431 0
-134 -451 0
-178 -200 0
-178 -262 0
-178 -312 0
-178 -363 0
-178 -389 0
-178 -431 0
-178 -451 0
-200 -262 0
-200 -312 0
-200 -363 0
-200 -389 0
-200 -431 0
-200 -451 0
-262 -312 0
-262 -363 0
-262 -389 0
-262 -431 0
-262 -451 0
-312 -363 0
-312 -389 0
-312 -431 0
-312 -451 0
-363 -389 0
-363 -431 0
-363 -451 0
-389 -431 0
-389 -451 0
-431 -451 0
51 123 191 211 252 291 323 353 400 448 456 0
-51 -123 0
-51 -191 0
-51 -211 0
-51 -252 0
-51 -291 0
-51 -323 0
-51 -353 0
-51 -400 0
-51 -448 0
-51 -456 0
-123 -191 0
-123 -211 0
-123 -252 0
-123 -291 0
-123 -323 0
-123 -353 0
-123 -400 0
-123 -448 0
-123 -456 0
-191 -211 0
-191 -252 0
-191 -291 0
-191 -323 0
-191 -353 0
-191 -400 0
-191 -448 0
-191 -456 0
-211 -252 0
-211 -291 0
-211 -323 0
-211 -353 0
-211 -400 0
-211 -448 0
-211 -456 0
-252 -291 0
-252 -323 0
-252 -353 0
-252 -400 0
-252 -448 0
-252 -456 0
-291 -323 0
-291 -353 0
-291 -400 0
-291 -448 0
-291 -456 0
-323 -353 0
-323 -400 0
-323 -448 0
-323 -456 0
-353 -400 0
-353 -448 0
-353 -456 0
-400 -448 0
-400 -456 0
-448 -456 0
100 202 222 241 262 303 335 372 409 413 444 0
-100 -202 0
-100 -222 0
-100 -241 0
-100 -262 0
-100 -303 0
-100 -335 0
-100 -372 0
-100 -409 0
-100 -413 0
-100 -444 0
-202 -222 0
-202 -241 0
-202 -262 0
-202 -303 0
-202 -335 0
-202 -372 0
-202 -409 0
-202 -413 0
-202 -444 0
-222 -241 0
-222 -262 0
-222 -303 0
-222 -335 0
-222 -372 0
-222 -409 0
-222 -413 0
-222 -444 0
-241 -262 0
-241 -303 0
-241 -335 0
-241 -372 0
-241 -409 0
-241 -413 0
-241 -444 0
-262 -303 0
-262 -335 0
-262 -372 0
-262 -409 0
-262 -413 0
-262 -444 0
-303 -335 0
-303 -372 0
-303 -409 0
-303 -413 0
-303 -444 0
-335 -372 0
-335 -409 0
-335 -413 0
-335 -444 0
-372 -409 0
-372 -413 0
-372 -444 0
-409 -413 0
-409 -444 0
-413 -444 0
8 9 20 29 40 63 75 96 120 132 144 0
-8 -9 0
-8 -20 0
-8 -29 0
-8 -40 0
-8 -63 0
-8 -75 0
-8 -96 0
-8 -120 0
-8 -132 0
-8 -144 0
-9 -20 0
-9 -29 0
-9 -40 0
-9 -63 0
-9 -75 0
-9 -96 0
-9 -120 0
-9 -132 0
-9 -144 0
-20 -29 0
-20 -40 0
-20 -63 0
-20 -75 0
-20 -96 0
-20 -120 0
-20 -132 0
-20 -144 0
-29 -40 0
-29 -63 0
-29 -75 0
-29 -96 0
-29 -120 0
-29 -132 0
-29 -144 0
-40 -63 0
-40 -75 0
-40 -96 0
-40 -120 0
-40 -132 0
-40 -144 0
-63 -75 0
-63 -96 0
-63 -120 0
-63 -132 0
-63 -144 0
-75 -96 0
-75 -120 0
-75 -132 0
-75 -144 0
-96 -120 0
-96 -132 0
-96 -144 0
-120 -132 0
-120 -144 0
-132 -144 0
9 19 158 167 179 203 213 225 237 260 272 0
-9 -19 0
-9 -158 0
-9 -167 0
-9 -179 0
-9 -203 0
-9 -213 0
-9 -225 0
-9 -237 0
-9 -260 0
-9 -272 0
-19 -158 0
-19 -167 0
-19 -179 0
-19 -203 0
-19 -213 0
-19 -225 0
-19 -237 0
-19 -260 0
-19 -272 0
-158 -167 0
-158 -179 0
-158 -203 0
-158 -213 0
-158 -225 0
-158 -237 0
-158 -260 0
-158 -272 0
-167 -179 0
-167 -203 0
-167 -213 0
-167 -225 0
-167 -237 0
-167 -260 0
-167 -272 0
-179 -203 0
-179 -213 0
-179 -225 0
-179 -237 0
-179 -260 0
-179 -272 0
-203 -213 0
-203 -225 0
-203 -237 0
-203 -260 0
-203 -272 0
-213 -225 0
-213 -237 0
-213 -260 0
-213 -272 0
-225 -237 0
-225 -260 0
-225 -272 0
-237 -260 0
-237 -272 0
-260 -272 0
20 28 146 158 177 290 304 315 325 337 369 0
-20 -28 0
-20 -146 0
-20 -158 0
-20 -177 0
-20 -290 0
-20 -304 0
-20 -315 0
-20 -325 0
-20 -337 0
-20 -369 0
-28 -146 0
-28 -158 0
-28 -177 0
-28 -290 0
-28 -304 0
-28 -315 0
-28 -325 0
-28 -337 0
-28 -369 0
-146 -158 0
-146 -177 0
-146 -290 0
-146 -304 0
-146 -315 0
-146 -325 0
-146 -337 0
-146 -369 0
-158 -177 0
-158 -290 0
-158 -304 0
-158 -315 0
-158 -325 0
-158 -337 0
-158 -369 0
-177 -290 0
-177 -304 0
-177 -315 0
-177 -325 0
-177 -337 0
-177 -369 0
-290 -304 0
-290 -315 0
-290 -325 0
-290 -337 0
-290 -369 0
-304 -315 0
-304 -325 0
-304 -337 0
-304 -369 0
-315 -325 0
-315 -337 0
-315 -369 0
-325 -337 0
-325 -369 0
-337 -369 0
29 39 135 146 190 302 373 379 383 394 403 428 0
-29 -39 0
-29 -135 0
-29 -146 0
-29 -190 0
-29 -302 0
-29 -373 0
-29 -379 0
-29 -383 0
-29 -394 0
-29 -403 0
-29 -428 0
-39 -135 0
-39 -146 0
-39 -190 0
-39 -302 0
-39 -373 0
-39 -379 0
-39 -383 0
-39 -394 0
-39 -403 0
-39 -428 0
-135 -146 0
-135 -190 0
-135 -302 0
-135 -373 0
-135 -379 0
-135 -383 0
-135 -394 0
-135 -403 0
-135 -428 0
-146 -190 0
-146 -302 0
-146 -373 0
-146 -379 0
-146 -383 0
-146 -394 0
-146 -403 0
-146 -428 0
-190 -302 0
-190 -373 0
-190 -379 0
-190 -383 0
-190 -394 0
-190 -403 0
-190 -428 0
-302 -373 0
-302 -379 0
-302 -383 0
-302 -394 0
-302 -403 0
-302 -428 0
-373 -379 0
-373 -383 0
-373 -394 0
-373 -403 0
-373 -428 0
-379 -383 0
-379 -394 0
-379 -403 0
-379 -428 0
-383 -394 0
-383 -403 0
-383 -428 0
-394 -403 0
-394 -428 0
-403 -428 0
40 51 135 179 201 263 313 364 390 432 436 439 0
-40 -51 0
-40 -135 0
-40 -179 0
-40 -201 0
-40 -263 0
-40 -313 0
-40 -364 0
-40 -390 0
-40 -432 0
-40 -436 0
-40 -439 0
-51 -135 0
-51 -179 0
-51 -201 0
-51 -263 0
-51 -313 0
-51 -364 0
-51 -390 0
-51 -432 0
-51 -436 0
-51 -439 0
-135 -179 0
-135 -201 0
-135 -263 0
-135 -313 0
-135 -364 0
-135 -390 0
-135 -432 0
-135 -436 0
-135 -439 0
-179 -201 0
-179 -263 0
-179 -313 0
-179 -364 0
-179 -390 0
-179 -432 0
-179 -436 0
-179 -439 0
-201 -263 0
-201 -313 0
-201 -364 0
-201 -390 0
-201 -432 0
-201 -436 0
-201 -439 0
-263 -313 0
-263 -364 0
-263 -390 0
-263 -432 0
-263 -436 0
-263 -439 0
-313 -364 0
-313 -390 0
-313 -432 0
-313 -436 0
-313 -439 0
-364 -390 0
-364 -432 0
-364 -436 0
-364 -439 0
-390 -432 0
-390 -436 0
-390 -439 0
-432 -436 0
-432 -439 0
-436 -439 0
9 10 30 41 52 64 86 97 109 121 157 0
-9 -10 0
-9 -30 0
-9 -41 0
-9 -52 0
-9 -64 0
-9 -86 0
-9 -97 0
-9 -109 0
-9 -121 0
-9 -157 0
-10 -30 0
-10 -41 0
-10 -52 0
-10 -64 0
-10 -86 0
-10 -97 0
-10 -109 0
-10 -121 0
-10 -157 0
-30 -41 0
-30 -52 0
-30 -64 0
-30 -86 0
-30 -97 0
-30 -109 0
-30 -121 0
-30 -157 0
-41 -52 0
-41 -64 0
-41 -86 0
-41 -97 0
-41 -109 0
-41 -121 0
-41 -157 0
-52 -64 0
-52 -86 0
-52 -97 0
-52 -109 0
-52 -121 0
-52 -157 0
-64 -86 0
-64 -97 0
-64 -109 0
-64 -121 0
-64 -157 0
-86 -97 0
-86 -109 0
-86 -121 0
-86 -157 0
-97 -109 0
-97 -121 0
-97 -157 0
-109 -121 0
-109 -157 0
-121 -157 0
10 20 159 168 180 192 204 226 238 261 273 0
-10 -20 0
-10 -159 0
-10 -168 0
-10 -180 0
-10 -192 0
-10 -204 0
-10 -226 0
-10 -238 0
-10 -261 0
-10 -273 0
-20 -159 0
-20 -168 0
-20 -180 0
-20 -192 0
-20 -204 0
-20 -226 0
-20 -238 0
-20 -261 0
-20 -273 0
-159 -168 0
-159 -180 0
-159 -192 0
-159 -204 0
-159 -226 0
-159 -238 0
-159 -261 0
-159 -273 0
-168 -180 0
-168 -192 0
-168 -204 0
-168 -226 0
-168 -238 0
-168 -261 0
-168 -273 0
-180 -192 0
-180 -204 0
-180 -226 0
-180 -238 0
-180 -261 0
-180 -273 0
-192 -204 0
-192 -226 0
-192 -238 0
-192 -261 0
-192 -273 0
-204 -226 0
-204 -238 0
-204 -261 0
-204 -273 0
-226 -238 0
-226 -261 0
-226 -273 0
-238 -261 0
-238 -273 0
-261 -273 0
29 147 159 178 284 292 305 326 349 361 370 0
-29 -147 0
-29 -159 0
-29 -178 0
-29 -284 0
-29 -292 0
-29 -305 0
-29 -326 0
-29 -349 0
-29 -361 0
-29 -370 0
-147 -159 0
-147 -178 0
-147 -284 0
-147 -292 0
-147 -305 0
-147 -326 0
-147 -349 0
-147 -361 0
-147 -370 0
-159 -178 0
-159 -284 0
-159 -292 0
-159 -305 0
-159 -326 0
-159 -349 0
-159 -361 0
-159 -370 0
-178 -284 0
-178 -292 0
-178 -305 0
-178 -326 0
-178 -349 0
-178 -361 0
-178 -370 0
-284 -292 0
-284 -305 0
-284 -326 0
-284 -349 0
-284 -361 0
-284 -370 0
-292 -305 0
-292 -326 0
-292 -349 0
-292 -361 0
-292 -370 0
-305 -326 0
-305 -349 0
-305 -361 0
-305 -370 0
-326 -349 0
-326 -361 0
-326 -370 0
-349 -361 0
-349 -370 0
-361 -370 0
30 40 147 191 274 374 380 395 404 418 429 0
-30 -40 0
-30 -147 0
-30 -191 0
-30 -274 0
-30 -374 0
-30 -380 0
-30 -395 0
-30 -404 0
-30 -418 0
-30 -429 0
-40 -147 0
-40 -191 0
-40 -274 0
-40 -374 0
-40 -380 0
-40 -395 0
-40 -404 0
-40 -418 0
-40 -429 0
-147 -191 0
-147 -274 0
-147 -374 0
-147 -380 0
-147 -395 0
-147 -404 0
-147 -418 0
-147 -429 0
-191 -274 0
-191 -374 0
-191 -380 0
-191 -395 0
-191 -404 0
-191 -418 0
-191 -429 0
-274 -374 0
-274 -380 0
-274 -395 0
-274 -404 0
-274 -418 0
-274 -429 0
-374 -380 0
-374 -395 0
-374 -404 0
-374 -418 0
-374 -429 0
-380 -395 0
-380 -404 0
-380 -418 0
-380 -429 0
-395 -404 0
-395 -418 0
-395 -429 0
-404 -418 0
-404 -429 0
-418 -429 0
41 124 180 202 264 284 391 433 437 440 452 0
-41 -124 0
-41 -180 0
-41 -202 0
-41 -264 0
-41 -284 0
-41 -391 0
-41 -433 0
-41 -437 0
-41 -440 0
-41 -452 0
-124 -180 0
-124 -202 0
-124 -264 0
-124 -284 0
-124 -391 0
-124 -433 0
-124 -437 0
-124 -440 0
-124 -452 0
-180 -202 0
-180 -264 0
-180 -284 0
-180 -391 0
-180 -433 0
-180 -437 0
-180 -440 0
-180 -452 0
-202 -264 0
-202 -284 0
-202 -391 0
-202 -433 0
-202 -437 0
-202 -440 0
-202 -452 0
-264 -284 0
-264 -391 0
-264 -433 0
-264 -437 0
-264 -440 0
-264 -452 0
-284 -391 0
-284 -433 0
-284 -437 0
-284 -440 0
-284 -452 0
-391 -433 0
-391 -437 0
-391 -440 0
-391 -452 0
-433 -437 0
-433 -440 0
-433 -452 0
-437 -440 0
-437 -452 0
-440 -452 0
10 31 42 53 65 76 87 110 133 145 158 0
-10 -31 0
-10 -42 0
-10 -53 0
-10 -65 0
-10 -76 0
-10 -87 0
-10 -110 0
-10 -133 0
-10 -145 0
-10 -158 0
-31 -42 0
-31 -53 0
-31 -65 0
-31 -76 0
-31 -87 0
-31 -110 0
-31 -133 0
-31 -145 0
-31 -158 0
-42 -53 0
-42 -65 0
-42 -76 0
-42 -87 0
-42 -110 0
-42 -133 0
-42 -145 0
-42 -158 0
-53 -65 0
-53 -76 0
-53 -87 0
-53 -110 0
-53 -133 0
-53 -145 0
-53 -158 0
-65 -76 0
-65 -87 0
-65 -110 0
-65 -133 0
-65 -145 0
-65 -158 0
-76 -87 0
-76 -110 0
-76 -133 0
-76 -145 0
-76 -158 0
-87 -110 0
-87 -133 0
-87 -145 0
-87 -158 0
-110 -133 0
-110 -145 0
-110 -158 0
-133 -145 0
-133 -158 0
-145 -158 0
30 179 285 291 293 306 316 327 338 350 371 0
-30 -179 0
-30 -285 0
-30 -291 0
-30 -293 0
-30 -306 0
-30 -316 0
-30 -327 0
-30 -338 0
-30 -350 0
-30 -371 0
-179 -285 0
-179 -291 0
-179 -293 0
-179 -306 0
-179 -316 0
-179 -327 0
-179 -338 0
-179 -350 0
-179 -371 0
-285 -291 0
-285 -293 0
-285 -306 0
-285 -316 0
-285 -327 0
-285 -338 0
-285 -350 0
-285 -371 0
-291 -293 0
-291 -306 0
-291 -316 0
-291 -327 0
-291 -338 0
-291 -350 0
-291 -371 0
-293 -306 0
-293 -316 0
-293 -327 0
-293 -338 0
-293 -350 0
-293 -371 0
-306 -316 0
-306 -327 0
-306 -338 0
-306 -350 0
-306 -371 0
-316 -327 0
-316 -338 0
-316 -350 0
-316 -371 0
-327 -338 0
-327 -350 0
-327 -371 0
-338 -350 0
-338 -371 0
-350 -371 0
31 41 136 275 303 375 381 384 396 405 419 0
-31 -41 0
-31 -136 0
-31 -275 0
-31 -303 0
-31 -375 0
-31 -381 0
-31 -384 0
-31 -396 0
-31 -405 0
-31 -419 0
-41 -136 0
-41 -275 0
-41 -303 0
-41 -375 0
-41 -381 0
-41 -384 0
-41 -396 0
-41 -405 0
-41 -419 0
-136 -275 0
-136 -303 0
-136 -375 0
-136 -381 0
-136 -384 0
-136 -396 0
-136 -405 0
-136 -419 0
-275 -303 0
-275 -375 0
-275 -381 0
-275 -384 0
-275 -396 0
-275 -405 0
-275 -419 0
-303 -375 0
-303 -381 0
-303 -384 0
-303 -396 0
-303 -405 0
-303 -419 0
-375 -381 0
-375 -384 0
-375 -396 0
-375 -405 0
-375 -419 0
-381 -384 0
-381 -396 0
-381 -405 0
-381 -419 0
-384 -396 0
-384 -405 0
-384 -419 0
-396 -405 0
-396 -419 0
-405 -419 0
21 32 43 54 66 98 111 122 134 146 159 0
-21 -32 0
-21 -43 0
-21 -54 0
-21 -66 0
-21 -98 0
-21 -111 0
-21 -122 0
-21 -134 0
-21 -146 0
-21 -159 0
-32 -43 0
-32 -54 0
-32 -66 0
-32 -98 0
-32 -111 0
-32 -122 0
-32 -134 0
-32 -146 0
-32 -159 0
-43 -54 0
-43 -66 0
-43 -98 0
-43 -111 0
-43 -122 0
-43 -134 0
-43 -146 0
-43 -159 0
-54 -66 0
-54 -98 0
-54 -111 0
-54 -122 0
-54 -134 0
-54 -146 0
-54 -159 0
-66 -98 0
-66 -111 0
-66 -122 0
-66 -134 0
-66 -146 0
-66 -159 0
-98 -111 0
-98 -122 0
-98 -134 0
-98 -146 0
-98 -159 0
-111 -122 0
-111 -134 0
-111 -146 0
-111 -159 0
-122 -134 0
-122 -146 0
-122 -159 0
-134 -146 0
-134 -159 0
-146 -159 0
21 31 148 180 286 294 307 317 339 351 362 372 0
-21 -31 0
-21 -148 0
-21 -180 0
-21 -286 0
-21 -294 0
-21 -307 0
-21 -317 0
-21 -339 0
-21 -351 0
-21 -362 0
-21 -372 0
-31 -148 0
-31 -180 0
-31 -286 0
-31 -294 0
-31 -307 0
-31 -317 0
-31 -339 0
-31 -351 0
-31 -362 0
-31 -372 0
-148 -180 0
-148 -286 0
-148 -294 0
-148 -307 0
-148 -317 0
-148 -339 0
-148 -351 0
-148 -362 0
-148 -372 0
-180 -286 0
-180 -294 0
-180 -307 0
-180 -317 0
-180 -339 0
-180 -351 0
-180 -362 0
-180 -372 0
-286 -294 0
-286 -307 0
-286 -317 0
-286 -339 0
-286 -351 0
-286 -362 0
-286 -372 0
-294 -307 0
-294 -317 0
-294 -339 0
-294 -351 0
-294 -362 0
-294 -372 0
-307 -317 0
-307 -339 0
-307 -351 0
-307 -362 0
-307 -372 0
-317 -339 0
-317 -351 0
-317 -362 0
-317 -372 0
-339 -351 0
-339 -362 0
-339 -372 0
-351 -362 0
-351 -372 0
-362 -372 0
22 33 44 55 77 88 99 112 123 135 147 0
-22 -33 0
-22 -44 0
-22 -55 0
-22 -77 0
-22 -88 0
-22 -99 0
-22 -112 0
-22 -123 0
-22 -135 0
-22 -147 0
-33 -44 0
-33 -55 0
-33 -77 0
-33 -88 0
-33 -99 0
-33 -112 0
-33 -123 0
-33 -135 0
-33 -147 0
-44 -55 0
-44 -77 0
-44 -88 0
-44 -99 0
-44 -112 0
-44 -123 0
-44 -135 0
-44 -147 0
-55 -77 0
-55 -88 0
-55 -99 0
-55 -112 0
-55 -123 0
-55 -135 0
-55 -147 0
-77 -88 0
-77 -99 0
-77 -112 0
-77 -123 0
-77 -135 0
-77 -147 0
-88 -99 0
-88 -112 0
-88 -123 0
-88 -135 0
-88 -147 0
-99 -112 0
-99 -123 0
-99 -135 0
-99 -147 0
-112 -123 0
-112 -135 0
-112 -147 0
-123 -135 0
-123 -147 0
-135 -147 0
21 160 169 181 193 214 227 239 251 262 284 0
-21 -160 0
-21 -169 0
-21 -181 0
-21 -193 0
-21 -214 0
-21 -227 0
-21 -239 0
-21 -251 0
-21 -262 0
-21 -284 0
-160 -169 0
-160 -181 0
-160 -193 0
-160 -214 0
-160 -227 0
-160 -239 0
-160 -251 0
-160 -262 0
-160 -284 0
-169 -181 0
-169 -193 0
-169 -214 0
-169 -227 0
-169 -239 0
-169 -251 0
-169 -262 0
-169 -284 0
-181 -193 0
-181 -214 0
-181 -227 0
-181 -239 0
-181 -251 0
-181 -262 0
-181 -284 0
-193 -214 0
-193 -227 0
-193 -239 0
-193 -251 0
-193 -262 0
-193 -284 0
-214 -227 0
-214 -239 0
-214 -251 0
-214 -262 0
-214 -284 0
-227 -239 0
-227 -251 0
-227 -262 0
-227 -284 0
-239 -251 0
-239 -262 0
-239 -284 0
-251 -262 0
-251 -284 0
-262 -284 0
-1 -14 -33 -42 -56 -64 -71 -82 -94 -108 -120 -134 -140 -155 -162 -181 -190 -196 -212 -225 -241 -247 -263 -273 -281 -289 -307 -316 -326 -340 -347 -355 -369 -381 -397 -400 -412 -429 -440 -450 0
-1 -14 -25 -38 -55 -65 -75 -81 -95 -109 -118 -131 -148 -159 -171 -173 -191 -199 -214 -222 -233 -245 -258 -272 -285 -290 -308 -312 -324 -341 -342 -355 -373 -381 -387 -407 -417 -432 -440 -455 0
-1 -14 -25 -44 -48 -64 -74 -89 -96 -105 -119 -133 -146 -154 -168 -183 -187 -205 -210 -222 -236 -243 -260 -266 -284 -289 -307 -313 -327 -340 -353 -354 -375 -377 -389 -406 -410 -429 -443 -454 0
-1 -14 -31 -39 -54 -59 -77 -86 -92 -105 -124 -130 -144 -155 -168 -175 -194 -199 -211 -229 -239 -249 -260 -266 -278 -287 -306 -315 -324 -331 -352 -361 -374 -378 -390 -409 -420 -425 -443 -453 0
-1 -14 -28 -36 -54 -62 -75 -87 -93 -109 -124 -130 -147 -152 -166 -176 -188 -198 -214 -226 -237 -249 -263 -275 -278 -295 -306 -314 -329 -335 -351 -358 -367 -379 -398 -406 -412 -431 -438 -456 0
-1 -19 -26 -44 -47 -63 -70 -87 -98 -106 -121 -129 -142 -160 -162 -178 -189 -204 -207 -220 -234 -252 -255 -275 -282 -296 -307 -319 -325 -333 -347 -354 -371 -380 -390 -403 -421 -430 -444 -452 0
-1 -16 -30 -45 -47 -59 -75 -83 -92 -110 -122 -135 -142 -156 -167 -175 -192 -197 -214 -229 -240 -250 -257 -267 -277 -295 -308 -314 -325 -333 -343 -361 -372 -384 -391 -400 -414 -431 -442 -454 0
-1 -20 -31 -43 -49 -64 -69 -85 -100 -106 -117 -135 -142 -152 -165 -176 -189 -203 -216 -227 -232 -245 -259 -274 -279 -289 -300 -316 -330 -341 -352 -356 -370 -385 -397 -400 -411 -433 -435 -451 0
-1 -19 -31 -35 -52 -60 -69 -89 -98 -106 -117 -135 -144 -155 -165 -175 -194 -200 -216 -226 -232 -242 -255 -271 -284 -295 -308 -315 -321 -332 -353 -356 -371 -382 -397 -409 -421 -429 -434 -450 0
-1 -20 -32 -38 -50 -65 -69 -89 -92 -109 -118 -135 -143 -153 -169 -178 -188 -203 -211 -220 -231 -245 -255 -274 -282 -293 -298 -319 -320 -339 -347 -360 -367 -384 -393 -408 -413 -423 -440 -447 0
-1 -20 -32 -45 -50 -65 -69 -82 -92 -106 -121 -135 -143 -153 -163 -178 -193 -203 -208 -222 -233 -242 -264 -274 -282 -296 -299 -309 -330 -339 -347 -360 -371 -386 -393 -405 -421 -425 -442 -456 0
-1 -22 -31 -36 -54 -60 -69 -89 -92 -107 -120 -130 -143 -157 -171 -177 -185 -203 -210 -220 -235 -245 -262 -273 -279 -297 -306 -313 -326 -334 -343 -357 -374 -383 -393 -406 -410 -426 -437 -456 0
-1 -15 -32 -45 -51 -65 -69 -88 -94 -107 -116 -132 -141 -157 -167 -181 -185 -200 -209 -218 -238 -247 -254 -275 -285 -290 -301 -310 -320 -334 -349 -362 -374 -383 -397 -401 -413 -433 -434 -447 0
-1 -15 -31 -45 -50 -64 -70 -82 -91 -112 -120 -130 -143 -159 -166 -181 -185 -203 -216 -219 -236 -247 -254 -274 -279 -296 -300 -313 -325 -340 -350 -360 -366 -382 -398 -403 -413 -431 -437 -456 0
-1 -17 -32 -44 -51 -67 -70 -84 -91 -109 -117 -132 -141 -158 -168 -173 -193 -197 -210 -219 -233 -249 -264 -274 -277 -294 -303 -310 -320 -336 -350 -358 -370 -383 -389 -402 -412 -422 -435 -454 0
-1 -16 -32 -39 -56 -64 -77 -87 -91 -106 -116 -132 -142 -153 -171 -176 -191 -203 -208 -222 -240 -249 -256 -273 -284 -294 -301 -310 -320 -337 -350 -364 -368 -381 -397 -407 -410 -423 -438 -447 0
-1 -16 -31 -44 -48 -59 -74 -89 -96 -103 -122 -130 -142 -157 -171 -179 -189 -204 -214 -218 -236 -245 -257 -274 -278 -295 -302 -311 -329 -335 -343 -361 -369 -385 -391 -400 -416 -431 -443 -453 0
-1 -21 -25 -38 -52 -60 -75 -88 -100 -103 -119 -128 -143 -158 -168 -182 -186 -199 -216 -220 -232 -242 -258 -269 -281 -291 -308 -313 -326 -341 -352 -355 -366 -381 -394 -404 -420 -431 -434 -452 0
-1 -21 -29 -45 -51 -60 -77 -86 -94 -103 -116 -133 -142 -153 -171 -176 -186 -202 -213 -219 -235 -247 -258 -273 -285 -295 -304 -312 -329 -332 -345 -360 -375 -377 -393 -408 -421 -429 -442 -445 0
-1 -18 -33 -41 -49 -67 -75 -83 -92 -104 -115 -131 -145 -159 -166 -175 -185 -199 -207 -229 -237 -252 -262 -268 -280 -294 -304 -309 -322 -340 -343 -357 -371 -379 -395 -399 -410 -432 -441 -454 0
-1 -20 -31 -36 -50 -60 -78 -86 -98 -108 -115 -128 -147 -154 -166 -174 -194 -201 -213 -229 -233 -243 -262 -270 -277 -297 -306 -314 -323 -332 -352 -359 -365 -378 -393 -407 -414 -428 -437 -445 0
-1 -15 -27 -41 -51 -62 -78 -88 -96 -110 -115 -128 -141 -159 -163 -177 -189 -196 -214 -225 -240 -243 -255 -271 -286 -293 -300 -310 -330 -335 -348 -363 -365 -383 -397 -404 -415 -422 -434 -449 0
-1 -17 -30 -36 -51 -63 -70 -84 -99 -110 -115 -136 -141 -159 -165 -183 -187 -205 -213 -224 -232 -245 -262 -268 -277 -294 -300 -309 -328 -337 -348 -359 -367 -382 -388 -408 -421 -428 -437 -454 0
-1 -19 -34 -35 -52 -60 -76 -83 -95 -111 -115 -132 -147 -153 -169 -177 -194 -202 -208 -217 -238 -246 -256 -270 -281 -294 -306 -312 -322 -341 -343 -359 -373 -381 -393 -406 -415 -425 -436 -456 0
-1 -20 -27 -36 -52 -60 -77 -85 -95 -111 -115 -133 -140 -160 -166 -174 -190 -198 -215 -229 -237 -243 -254 -270 -280 -291 -305 -312 -329 -339 -343 -357 -375 -382 -395 -409 -412 -432 -434 -452 0
-1 -16 -33 -39 -56 -64 -70 -87 -94 -111 -119 -127 -144 -153 -164 -181 -192 -202 -207 -228 -236 -244 -260 -269 -286 -287 -301 -314 -325 -331 -352 -361 -371 -384 -390 -399 -418 -424 -435 -448 0
-1 -22 -28 -42 -54 -63 -73 -81 -100 -106 -117 -127 -141 -157 -164 -173 -188 -198 -207 -229 -239 -249 -260 -273 -279 -293 -305 -312 -322 -339 -347 -355 -375 -376 -390 -403 -418 -433 -435 -448 0
-1 -16 -28 -36 -53 -67 -77 -86 -92 -107 -122 -127 -144 -154 -167 -183 -185 -197 -211 -224 -240 -246 -261 -266 -284 -294 -303 -312 -320 -333 -350 -364 -373 -377 -398 -404 -420 -422 -442 -445 0
-1 -15 -33 -42 -51 -62 -78 -83 -92 -105 -121 -127 -144 -159 -163 -181 -194 -196 -212 -223 -232 -248 -260 -275 -279 -288 -301 -315 -328 -332 -348 -362 -371 -377 -389 -403 -418 -433 -444 -446 0
-1 -20 -25 -42 -51 -64 -78 -81 -93 -111 -119 -127 -147 -154 -166 -176 -194 -199 -208 -225 -236 -243 -262 -266 -286 -289 -308 -310 -329 -331 -352 -356 -371 -379 -398 -405 -417 -425 -440 -449 0
-1 -16 -33 -35 -50 -66 -75 -83 -97 -110 -117 -127 -143 -160 -168 -179 -190 -197 -207 -222 -240 -243 -257 -269 -286 -287 -304 -314 -330 -333 -342 -359 -370 -384 -389 -402 -418 -423 -437 -448 0
-1 -19 -32 -35 -52 -65 -75 -89 -94 -107 -118 -135 -139 -153 -169 -180 -194 -199 -209 -220 -235 -242 -255 -271 -282 -290 -299 -312 -326 -331 -353 -355 -371 -377 -397 -405 -417 -429 -444 -455 0
-1 -16 -33 -45 -48 -65 -75 -84 -97 -106 -122 -131 -139 -153 -167 -180 -187 -200 -214 -219 -241 -242 -255 -274 -283 -291 -298 -309 -326 -337 -344 -359 -373 -382 -390 -408 -419 -423 -441 -454 0
-1 -18 -26 -42 -54 -67 -74 -88 -96 -109 -116 -130 -139 -153 -166 -180 -188 -198 -216 -225 -233 -242 -262 -274 -279 -291 -305 -310 -321 -340 -345 -364 -369 -376 -396 -408 -417 -428 -438 -447 0
-1 -20 -32 -45 -52 -60 -76 -85 -94 -107 -116 -135 -139 -153 -165 -175 -189 -197 -215 -225 -233 -250 -262 -266 -286 -291 -299 -309 -322 -336 -343 -361 -374 -381 -388 -408 -411 -425 -442 -452 0
-1 -18 -25 -38 -52 -65 -75 -82 -99 -108 -116 -134 -139 -160 -162 -183 -191 -199 -215 -218 -238 -248 -254 -272 -280 -293 -304 -309 -326 -335 -351 -360 -367 -381 -394 -408 -421 -425 -436 -452 0
-1 -19 -29 -43 -52 -60 -76 -83 -95 -112 -116 -129 -139 -160 -165 -173 -189 -196 -208 -220 -238 -252 -256 -275 -283 -288 -306 -310 -325 -331 -347 -362 -374 -378 -391 -406 -413 -423 -436 -451 0
-1 -18 -26 -41 -48 -65 -74 -88 -94 -104 -122 -132 -139 -160 -168 -173 -187 -200 -209 -228 -241 -242 -260 -270 -279 -291 -298 -317 -326 -337 -345 -356 -374 -383 -392 -406 -410 -432 -443 -454 0
-1 -20 -32 -41 -56 -65 -71 -85 -93 -112 -116 -130 -139 -155 -167 -183 -185 -197 -211 -219 -234 -242 -262 -271 -285 -289 -299 -309 -326 -336 -351 -356 -374 -379 -387 -407 -417 -432 -438 -449 0
-1 -15 -29 -37 -54 -62 -78 -85 -92 -109 -123 -130 -139 -158 -166 -174 -192 -198 -214 -221 -232 -249 -264 -266 -285 -296 -301 -313 -328 -331 -348 -362 -366 -376 -395 -402 -419 -425 -444 -454 0
-1 -19 -29 -37 -52 -66 -70 -89 -94 -110 -123 -129 -139 -155 -163 -182 -186 -201 -214 -217 -235 -243 -264 -273 -283 -293 -304 -310 -328 -333 -344 -359 -372 -386 -396 -407 -418 -426 -438 -455 0
-1 -21 -30 -36 -53 -67 -75 -84 -93 -108 -123 -130 -139 -152 -166 -182 -192 -198 -210 -218 -241 -243 -257 -272 -282 -290 -301 -314 -326 -341 -344 -356 -373 -376 -396 -407 -416 -432 -435 -452 0
-1 -20 -31 -37 -54 -61 -77 -85 -95 -109 -124 -129 -139 -152 -169 -178 -186 -198 -211 -221 -237 -249 -263 -267 -280 -293 -302 -314 -328 -335 -345 -357 -365 -378 -395 -399 -415 -427 -438 -447 0
-1 -22 -25 -39 -52 -66 -75 -89 -93 -106 -119 -133 -139 -152 -165 -180 -191 -198 -208 -227 -241 -246 -260 -267 -281 -293 -301 -313 -325 -331 -348 -356 -370 -385 -396 -399 -421 -425 -443 -454 0
-2 -23 -24 -36 -55 -64 -74 -87 -98 -107 -118 -128 -144 -154 -169 -180 -185 -200 -208 -228 -234 -246 -258 -272 -283 -292 -303 -315 -322 -333 -353 -354 -371 -386 -394 -404 -417 -430 -436 -446 0
-2 -20 -24 -36 -54 -60 -76 -88 -94 -107 -116 -136 -143 -157 -169 -173 -187 -200 -213 -219 -230 -252 -258 -270 -279 -297 -306 -313 -326 -334 -352 -362 -374 -378 -393 -409 -420 -428 -440 -449 0
-2 -15 -24 -39 -55 -64 -72 -81 -93 -107 -122 -136 -144 -158 -169 -175 -188 -202 -211 -226 -240 -243 -258 -268 -276 -288 -306 -319 -320 -339 -349 -364 -368 -377 -393 -404 -420 -424 -434 -449 0
-2 -22 -28 -36 -56 -65 -73 -82 -97 -101 -122 -132 -140 -154 -169 -174 -188 -202 -206 -226 -236 -248 -260 -267 -280 -293 -308 -314 -323 -336 -351 -355 -370 -384 -394 -406 -418 -424 -439 -451 0
-2 -23 -25 -38 -55 -63 -70 -84 -98 -105 -113 -133 -143 -157 -169 -180 -186 -205 -211 -221 -236 -243 -260 -269 -280 -287 -302 -309 -327 -337 -349 -363 -374 -384 -393 -399 -420 -432 -444 -455 0
-2 -18 -34 -41 -53 -59 -75 -83 -92 -112 -118 -131 -146 -149 -169 -174 -191 -203 -209 -220 -234 -248 -261 -267 -276 -297 -298 -312 -326 -338 -348 -357 -372 -377 -387 -401 -416 -430 -439 -446 0
-2 -16 -30 -44 -51 -62 -78 -83 -90 -110 -116 -132 -146 -153 -169 -176 -186 -205 -212 -226 -237 -249 -253 -269 -281 -295 -308 -312 -324 -341 -349 -355 -372 -378 -398 -405 -415 -430 -440 -446 0
-2 -16 -34 -35 -54 -63 -77 -79 -97 -110 -119 -129 -143 -154 -169 -179 -190 -204 -211 -218 -240 -246 -253 -271 -278 -296 -303 -311 -328 -337 -347 -362 -370 -386 -395 -402 -420 -427 -437 -451 0
-2 -17 -29 -36 -55 -65 -68 -82 -97 -108 -122 -136 -140 -155 -168 -183 -185 -201 -208 -219 -234 -252 -262 -272 -276 -297 -307 -315 -324 -338 -344 -359 -374 -386 -391 -407 -420 -426 -434 -449 0
-2 -22 -27 -35 -51 -57 -73 -82 -96 -109 -124 -133 -146 -153 -164 -183 -193 -204 -209 -225 -236 -247 -255 -265 -283 -293 -303 -319 -321 -339 -345 -354 -370 -386 -387 -404 -417 -431 -434 -455 0
-2 -21 -26 -38 -51 -65 -71 -84 -96 -101 -116 -136 -147 -157 -170 -183 -185 -199 -213 -223 -238 -244 -257 -269 -281 -290 -308 -311 -329 -334 -350 -363 -365 -379 -393 -409 -421 -426 -442 -452 0
-2 -17 -28 -44 -56 -63 -71 -79 -92 -111 -121 -133 -141 -155 -165 -183 -185 -204 -208 -225 -240 -245 -259 -265 -284 -293 -303 -319 -328 -339 -347 -354 -367 -380 -398 -400 -421 -428 -439 -451 0
-2 -18 -25 -41 -54 -60 -78 -85 -96 -101 -116 -135 -145 -154 -164 -183 -184 -203 -214 -221 -232 -252 -259 -273 -279 -293 -307 -311 -330 -335 -352 -361 -369 -385 -397 -407 -418 -426 -438 -451 0
-2 -20 -24 -38 -54 -64 -71 -88 -95 -110 -118 -128 -148 -156 -167 -175 -185 -197 -216 -220 -234 -252 -253 -271 -284 -297 -303 -316 -321 -334 -342 -364 -373 -377 -397 -404 -417 -431 -438 -447 0
-2 -18 -29 -37 -55 -65 -70 -85 -98 -109 -124 -129 -137 -154 -164 -179 -185 -204 -216 -221 -230 -252 -262 -268 -283 -296 -308 -309 -322 -337 -348 -362 -366 -380 -396 -402 -420 -427 -442 -453 0
-2 -22 -34 -41 -50 -66 -70 -87 -93 -101 -120 -129 -143 -154 -168 -181 -185 -203 -216 -218 -235 -247 -258 -265 -280 -296 -302 -315 -324 -339 -345 -361 -371 -380 -389 -399 -421 -432 -444 -456 0
-2 -19 -32 -35 -55 -61 -68 -82 -100 -104 -121 -133 -144 -155 -161 -178 -186 -201 -216 -228 -238 -251 -256 -270 -281 -294 -306 -311 -323 -337 -343 -354 -374 -383 -393 -405 -414 -433 -442 -445 0
-2 -23 -30 -44 -51 -65 -70 -82 -95 -101 -122 -130 -144 -153 -163 -178 -193 -197 -215 -229 -233 -249 -261 -272 -281 -296 -300 -315 -324 -335 -351 -354 -373 -385 -396 -407 -417 -425 -443 -452 0
-2 -19 -30 -44 -53 -63 -71 -83 -95 -111 -118 -136 -140 -149 -164 -173 -193 -199 -208 -229 -238 -249 -256 -265 -283 -297 -305 -310 -322 -337 -347 -363 -372 -379 -391 -399 -412 -426 -436 -456 0
-2 -15 -27 -40 -55 -65 -74 -81 -95 -109 -118 -136 -146 -149 -166 -180 -185 -199 -213 -229 -239 -245 -258 -268 -276 -289 -308 -311 -322 -332 -342 -361 -371 -385 -397 -400 -417 -431 -444 -454 0
-2 -20 -30 -43 -49 -61 -76 -88 -95 -104 -124 -131 -140 -149 -165 -175 -184 -203 -211 -229 -232 -250 -262 -268 -280 -294 -300 -318 -324 -332 -347 -357 -370 -382 -388 -403 -419 -432 -443 -455 0
-2 -23 -33 -42 -48 -59 -72 -85 -93 -101 -119 -134 -144 -157 -163 -179 -190 -197 -211 -229 -240 -246 -261 -267 -284 -295 -300 -317 -325 -335 -343 -356 -367 -384 -395 -399 -414 -425 -435 -454 0
-2 -15 -29 -38 -55 -57 -73 -81 -98 -109 -118 -136 -145 -156 -163 -177 -192 -197 -213 -229 -239 -250 -263 -267 -276 -297 -307 -309 -322 -335 -350 -355 -374 -377 -387 -400 -416 -431 -440 -446 0
-2 -16 -24 -44 -56 -59 -75 -81 -95 -108 -121 -130 -145 -159 -164 -175 -191 -203 -215 -227 -241 -249 -255 -265 -278 -293 -307 -313 -321 -333 -342 -363 -369 -381 -391 -407 -412 -428 -438 -447 0
-2 -16 -33 -36 -50 -57 -70 -83 -98 -109 -124 -132 -145 -156 -162 -182 -191 -204 -213 -223 -241 -251 -253 -268 -280 -294 -298 -318 -327 -337 -346 -357 -370 -385 -394 -408 -419 -426 -436 -451 0
-2 -16 -33 -39 -54 -62 -78 -87 -96 -109 -117 -125 -140 -154 -164 -179 -185 -205 -212 -223 -241 -244 -253 -273 -284 -289 -308 -311 -328 -332 -347 -362 -369 -384 -397 -402 -417 -429 -443 -448 0
-2 -19 -25 -43 -52 -65 -75 -82 -94 -107 -116 -135 -148 -149 -162 -177 -188 -197 -211 -226 -241 -251 -257 -271 -276 -297 -301 -309 -321 -338 -343 -359 -370 -384 -387 -408 -414 -429 -440 -451 0
-2 -15 -24 -37 -54 -63 -77 -84 -97 -108 -116 -130 -145 -160 -170 -175 -191 -201 -208 -225 -235 -247 -264 -273 -278 -288 -302 -315 -329 -339 -350 -361 -365 -384 -388 -402 -413 -431 -441 -447 0
-2 -15 -33 -40 -54 -62 -78 -81 -93 -110 -113 -130 -143 -157 -167 -182 -186 -198 -211 -227 -230 -247 -264 -273 -278 -288 -306 -310 -326 -337 -347 -363 -372 -385 -398 -405 -412 -428 -438 -445 0
-2 -18 -30 -44 -51 -59 -72 -87 -100 -105 -116 -132 -137 -159 -166 -174 -185 -205 -213 -221 -230 -251 -264 -269 -280 -294 -301 -310 -329 -337 -342 -357 -368 -384 -392 -399 -420 -428 -438 -451 0
-2 -16 -29 -45 -54 -59 -72 -81 -95 -110 -123 -131 -137 -157 -170 -175 -185 -204 -214 -225 -236 -248 -255 -275 -280 -296 -308 -313 -321 -337 -342 -362 -371 -382 -391 -409 -414 -429 -441 -447 0
-2 -20 -34 -38 -48 -62 -76 -88 -97 -101 -118 -134 -143 -153 -164 -174 -194 -202 -214 -219 -234 -249 -260 -275 -276 -294 -298 -314 -326 -336 -353 -357 -371 -383 -397 -399 -418 -430 -439 -454 0
-2 -21 -25 -44 -52 -60 -72 -85 -100 -107 -120 -128 -137 -158 -161 -178 -190 -198 -215 -226 -234 -244 -257 -275 -281 -297 -301 -313 -327 -331 -348 -355 -374 -377 -391 -400 -416 -430 -443 -446 0
-2 -22 -28 -37 -50 -64 -68 -83 -92 -110 -117 -136 -144 -159 -163 -173 -191 -201 -208 -225 -239 -248 -257 -265 -286 -296 -300 -316 -330 -331 -346 -360 -366 -383 -389 -409 -410 -423 -437 -447 0
-2 -23 -30 -36 -55 -60 -68 -83 -92 -108 -122 -132 -142 -158 -168 -174 -187 -201 -214 -222 -232 -252 -256 -270 -286 -296 -305 -312 -324 -340 -347 -354 -366 -381 -394 -406 -410 -433 -434 -446 0
-2 -17 -28 -36 -54 -64 -76 -79 -93 -112 -119 -128 -144 -160 -167 -174 -184 -202 -209 -228 -234 -246 -261 -267 -286 -291 -298 -311 -321 -331 -349 -364 -375 -379 -395 -407 -410 -430 -441 -451 0
-2 -16 -28 -41 -55 -67 -73 -81 -96 -110 -122 -129 -137 -154 -167 -181 -186 -200 -206 -224 -238 -246 -263 -267 -286 -293 -298 -314 -323 -333 -347 -361 -365 -377 -398 -401 -418 -428 -444 -446 0
-2 -20 -33 -35 -49 -64 -78 -83 -90 -107 -122 -131 -145 -153 -166 -181 -188 -201 -206 -220 -237 -252 -255 -269 -286 -292 -306 -310 -321 -335 -345 -359 -365 -379 -396 -404 -411 -433 -441 -451 0
-2 -22 -34 -35 -51 -60 -72 -86 -90 -107 -122 -132 -145 -153 -167 -176 -192 -195 -214 -222 -234 -245 -255 -271 -286 -293 -305 -310 -321 -337 -346 -358 -375 -380 -394 -408 -411 -422 -440 -451 0
-3 -18 -29 -43 -46 -60 -74 -86 -99 -106 -124 -129 -145 -149 -171 -174 -187 -199 -213 -224 -238 -251 -256 -265 -281 -295 -298 -312 -327 -337 -351 -356 -375 -377 -392 -408 -413 -429 -436 -456 0
-3 -22 -29 -38 -46 -64 -71 -82 -90 -111 -124 -131 -142 -158 -168 -172 -193 -199 -208 -229 -235 -246 -258 -269 -277 -294 -306 -313 -323 -334 -348 -355 -365 -377 -392 -404 -419 -431 -444 -455 0
-3 -16 -32 -44 -46 -61 -68 -84 -100 -109 -117 -131 -144 -158 -168 -172 -190 -200 -209 -227 -233 -244 -254 -275 -285 -294 -305 -310 -323 -331 -348 -364 -367 -377 -388 -404 -416 -433 -443 -449 0
-3 -17 -24 -36 -46 -60 -73 -89 -97 -108 -120 -134 -147 -158 -165 -174 -193 -205 -212 -220 -231 -245 -253 -273 -286 -297 -303 -316 -328 -336 -353 -357 -365 -383 -388 -402 -411 -432 -437 -455 0
-3 -19 -31 -43 -46 -64 -78 -83 -90 -105 -120 -129 -147 -155 -165 -182 -193 -196 -209 -218 -241 -250 -253 -273 -281 -296 -302 -312 -330 -337 -352 -356 -371 -382 -388 -400 -411 -432 -440 -449 0
-3 -16 -34 -44 -50 -58 -76 -85 -94 -101 -121 -129 -144 -159 -164 -175 -191 -195 -208 -225 -240 -251 -258 -275 -277 -297 -304 -314 -328 -338 -344 -355 -372 -378 -390 -407 -411 -428 -440 -451 0
-3 -15 -28 -42 -56 -58 -72 -86 -95 -101 -123 -132 -141 -159 -167 -181 -194 -197 -209 -221 -230 -248 -259 -275 -277 -295 -306 -313 -322 -339 -346 -355 -368 -383 -391 -409 -418 -424 -435 -446 0
-3 -17 -30 -39 -54 -58 -78 -82 -99 -104 -113 -132 -145 -155 -169 -172 -186 -201 -209 -224 -234 -252 -260 -273 -277 -287 -307 -315 -326 -331 -352 -359 -375 -386 -388 -406 -410 -426 -444 -452 0
-3 -23 -25 -39 -53 -58 -72 -86 -95 -112 -118 -132 -137 -159 -167 -182 -193 -197 -207 -219 -234 -246 -264 -271 -281 -296 -304 -314 -323 -338 -347 -356 -372 -380 -396 -399 -410 -432 -435 -446 0
-3 -12 -28 -43 -49 -65 -71 -80 -96 -107 -124 -130 -147 -157 -170 -175 -188 -203 -211 -227 -241 -246 -255 -273 -282 -293 -302 -317 -330 -332 -352 -356 -367 -384 -390 -406 -412 -425 -435 -451 0
-3 -16 -28 -40 -54 -64 -68 -80 -99 -110 -119 -129 -148 -154 -167 -183 -187 -197 -215 -222 -238 -251 -253 -266 -283 -292 -308 -316 -320 -336 -353 -360 -366 -379 -389 -405 -412 -433 -435 -454 0
-3 -15 -29 -43 -55 -62 -78 -80 -93 -108 -121 -130 -145 -149 -171 -175 -191 -203 -206 -218 -234 -248 -262 -273 -282 -294 -306 -313 -328 -332 -342 -356 -369 -385 -396 -402 -412 -425 -435 -452 0
-3 -15 -24 -44 -50 -64 -78 -80 -93 -110 -120 -130 -146 -156 -165 -179 -186 -202 -214 -229 -238 -252 -256 -265 -277 -288 -307 -312 -326 -331 -352 -360 -375 -380 -393 -407 -412 -426 -441 -449 0
-3 -15 -30 -44 -49 -61 -74 -89 -96 -102 -119 -133 -137 -159 -166 -174 -184 -201 -210 -228 -239 -245 -264 -272 -277 -297 -298 -317 -325 -335 -347 -360 -365 -384 -393 -400 -410 -428 -441 -451 0
-3 -15 -31 -44 -50 -57 -72 -89 -96 -102 -121 -134 -141 -156 -163 -183 -193 -203 -215 -224 -238 -249 -254 -265 -279 -292 -300 -319 -327 -335 -348 -364 -369 -380 -387 -400 -421 -428 -443 -452 0
-3 -17 -24 -44 -52 -59 -76 -85 -93 -102 -119 -132 -146 -160 -171 -179 -184 -202 -210 -219 -240 -246 -258 -273 -279 -294 -300 -311 -326 -336 -344 -360 -374 -382 -389 -407 -419 -424 -438 -456 0
-3 -12 -25 -38 -54 -60 -74 -87 -95 -102 -120 -135 -148 -157 -169 -172 -189 -204 -210 -220 -237 -249 -255 -269 -285 -292 -308 -310 -323 -341 -347 -357 -369 -381 -397 -404 -413 -433 -435 -451 0
-3 -23 -26 -39 -55 -59 -75 -86 -98 -102 -119 -125 -145 -154 -165 -174 -191 -205 -207 -229 -235 -246 -260 -273 -284 -296 -307 -313 -325 -331 -352 -356 -371 -386 -388 -407 -419 -422 -444 -449 0
-3 -17 -28 -41 -49 -66 -75 -88 -100 -110 -114 -129 -142 -149 -165 -181 -184 -196 -216 -225 -238 -250 -256 -268 -280 -292 -302 -316 -322 -331 -343 -362 -368 -380 -392 -408 -420 -431 -436 -448 0
-3 -12 -28 -44 -49 -64 -73 -87 -98 -104 -114 -136 -144 -154 -165 -183 -192 -195 -215 -220 -237 -248 -259 -268 -284 -291 -300 -311 -330 -335 -351 -364 -373 -376 -395 -399 -421 -425 -435 -451 0
-3 -21 -27 -39 -50 -57 -77 -89 -96 -109 -114 -129 -141 -158 -164 -183 -192 -196 -210 -219 -230 -252 -259 -268 -282 -295 -305 -316 -324 -335 -344 -364 -375 -378 -391 -408 -417 -429 -442 -453 0
-3 -15 -28 -37 -50 -57 -77 -86 -94 -110 -114 -136 -144 -159 -167 -174 -193 -200 -207 -221 -230 -252 -264 -269 -283 -293 -298 -317 -330 -333 -352 -360 -365 -383 -397 -404 -413 -423 -439 -445 0
-3 -16 -31 -36 -51 -67 -75 -86 -95 -112 -114 -130 -137 -159 -170 -183 -187 -202 -209 -225 -239 -248 -258 -268 -277 -290 -301 -314 -330 -338 -344 -356 -365 -379 -388 -402 -410 -429 -434 -451 0
-3 -22 -25 -45 -51 -62 -76 -82 -97 -101 -114 -130 -144 -159 -171 -181 -188 -203 -206 -222 -233 -245 -258 -271 -279 -287 -306 -311 -324 -341 -346 -362 -369 -383 -395 -405 -420 -427 -437 -451 0
-3 -23 -27 -41 -51 -63 -71 -79 -93 -112 -114 -134 -142 -158 -171 -175 -194 -197 -214 -222 -234 -249 -261 -271 -280 -295 -306 -317 -329 -332 -348 -358 -370 -383 -395 -402 -420 -423 -435 -453 0
-3 -23 -27 -40 -55 -64 -74 -87 -93 -107 -114 -129 -146 -149 -169 -178 -186 -198 -211 -217 -234 -249 -260 -273 -280 -289 -306 -310 -322 -340 -342 -357 -372 -384 -392 -406 -412 -423 -435 -452 0
-3 -19 -30 -37 -55 -59 -72 -87 -96 -101 -114 -136 -146 -155 -166 -175 -188 -201 -215 -229 -230 -242 -261 -268 -284 -296 -308 -318 -320 -333 -347 -357 -372 -376 -397 -400 -420 -431 -435 -455 0
-3 -15 -34 -40 -49 -61 -77 -86 -90 -107 -122 -126 -143 -158 -163 -183 -194 -197 -211 -224 -238 -249 -254 -265 -284 -293 -302 -319 -328 -333 -345 -360 -372 -386 -392 -401 -419 -425 -443 -451 0
-3 -12 -25 -45 -50 -66 -75 -87 -93 -109 -123 -126 -143 -154 -170 -179 -192 -197 -216 -223 -235 -251 -259 -270 -280 -296 -302 -318 -325 -339 -348 -361 -375 -380 -393 -402 -413 -433 -443 -453 0
-3 -17 -28 -45 -50 -64 -68 -87 -96 -104 -123 -126 -141 -159 -163 -176 -190 -202 -216 -227 -230 -244 -254 -272 -285 -294 -299 -310 -320 -340 -345 -364 -368 -384 -397 -406 -416 -429 -443 -445 0
-3 -23 -30 -38 -53 -62 -71 -88 -90 -105 -120 -126 -146 -156 -165 -180 -193 -196 -216 -228 -237 -250 -255 -269 -280 -292 -301 -314 -321 -332 -353 -358 -365 -381 -389 -399 -412 -432 -444 -450 0
-3 -12 -28 -36 -53 -60 -77 -86 -94 -111 -120 -126 -142 -160 -170 -178 -192 -198 -210 -225 -236 -248 -264 -268 -280 -296 -303 -317 -330 -336 -346 -358 -371 -380 -390 -403 -411 -422 -435 -456 0
-3 -18 -29 -42 -55 -61 -68 -85 -97 -104 -122 -126 -141 -160 -168 -174 -188 -195 -216 -220 -231 -252 -260 -269 -281 -293 -307 -312 -325 -331 -348 -355 -375 -380 -390 -408 -413 -424 -437 -445 0
-3 -18 -26 -42 -55 -67 -72 -85 -96 -101 -117 -126 -146 -157 -170 -179 -189 -199 -209 -218 -238 -251 -254 -275 -280 -294 -298 -309 -329 -334 -349 -363 -367 -377 -391 -409 -416 -429 -434 -448 0
-3 -20 -25 -45 -53 -57 -73 -85 -93 -109 -122 -135 -138 -154 -166 -176 -188 -203 -206 -229 -239 -252 -258 -266 -279 -292 -307 -312 -327 -332 -348 -356 -375 -377 -395 -406 -413 -427 -437 -446 0
-3 -15 -31 -37 -50 -57 -75 -83 -98 -109 -124 -135 -138 -156 -169 -182 -184 -203 -209 -226 -234 -242 -258 -268 -283 -291 -298 -319 -325 -334 -352 -356 -370 -385 -393 -404 -416 -425 -444 -451 0
-3 -15 -32 -45 -52 -57 -76 -84 -99 -105 -120 -130 -138 -156 -171 -179 -188 -198 -215 -224 -230 -244 -258 -273 -284 -294 -303 -312 -320 -333 -343 -358 -369 -383 -395 -400 -412 -427 -438 -455 0
-3 -20 -25 -45 -55 -65 -73 -86 -94 -101 -118 -134 -138 -156 -171 -181 -186 -202 -213 -219 -230 -252 -258 -270 -280 -289 -299 -310 -327 -340 -349 -362 -365 -379 -392 -405 -421 -429 -436 -454 0
-3 -22 -24 -40 -52 -60 -78 -83 -98 -107 -117 -133 -138 -156 -171 -180 -187 -198 -213 -223 -234 -250 -262 -265 -279 -288 -305 -316 -321 -337 -346 -360 -375 -377 -393 -400 -412 -428 -442 -447 0
-3 -18 -25 -38 -56 -66 -68 -82 -99 -108 -120 -133 -138 -157 -164 -179 -192 -195 -216 -221 -231 -252 -255 -269 -284 -294 -301 -315 -321 -333 -343 -354 -373 -377 -398 -404 -419 -431 -444 -455 0
-3 -22 -28 -38 -53 -62 -75 -79 -93 -109 -117 -136 -138 -159 -167 -181 -191 -197 -216 -219 -230 -247 -257 -266 -281 -288 -298 -313 -327 -335 -348 -362 -365 -379 -389 -399 -410 -433 -443 -446 0
-3 -21 -30 -37 -51 -57 -71 -89 -94 -112 -119 -133 -144 -150 -163 -174 -189 -203 -215 -220 -236 -250 -261 -265 -277 -295 -305 -312 -324 -337 -344 -355 -366 -384 -394 -399 -410 -425 -444 -452 0
-3 -21 -29 -45 -55 -59 -74 -86 -93 -107 -113 -130 -145 -150 -164 -175 -191 -204 -210 -217 -240 -249 -260 -265 -279 -296 -306 -313 -321 -340 -345 -356 -369 -378 -391 -409 -419 -431 -435 -449 0
-3 -16 -24 -36 -54 -64 -76 -85 -100 -106 -119 -135 -144 -150 -167 -182 -189 -197 -209 -220 -238 -250 -253 -266 -284 -291 -304 -312 -329 -339 -352 -357 -366 -377 -398 -405 -412 -429 -438 -445 0
-3 -16 -32 -36 -56 -57 -75 -87 -94 -108 -121 -135 -142 -150 -167 -176 -193 -200 -212 -226 -230 -242 -255 -269 -285 -296 -303 -309 -323 -333 -349 -362 -369 -380 -393 -408 -421 -423 -440 -446 0
-3 -22 -25 -40 -52 -67 -72 -84 -93 -110 -122 -125 -143 -150 -168 -172 -187 -198 -211 -223 -231 -244 -260 -270 -284 -296 -306 -317 -320 -337 -347 -360 -367 -384 -394 -402 -413 -431 -443 -446 0
-3 -19 -29 -38 -54 -67 -76 -82 -99 -109 -113 -129 -142 -150 -168 -175 -186 -199 -206 -217 -235 -246 -262 -274 -282 -295 -304 -317 -327 -332 -353 -359 -366 -381 -390 -399 -421 -433 -443 -454 0
-4 -13 -30 -44 -47 -61 -76 -79 -93 -108 -124 -132 -146 -155 -168 -182 -193 -201 -213 -222 -231 -247 -256 -265 -286 -297 -299 -312 -329 -340 -349 -359 -368 -381 -388 -399 -421 -422 -434 -448 0
-4 -17 -34 -43 -47 -64 -74 -80 -93 -107 -123 -133 -144 -149 -163 -183 -192 -201 -207 -220 -232 -251 -260 -271 -276 -297 -303 -316 -326 -337 -351 -358 -367 -379 -397 -404 -411 -427 -437 -453 0
-4 -13 -34 -38 -47 -57 -76 -82 -97 -111 -120 -135 -142 -156 -165 -180 -194 -203 -212 -217 -233 -251 -256 -275 -276 -289 -305 -319 -325 -333 -353 -358 -371 -386 -395 -406 -413 -427 -438 -451 0
-4 -18 -30 -43 -47 -61 -68 -85 -96 -105 -124 -135 -138 -158 -168 -175 -187 -205 -216 -221 -235 -242 -262 -265 -278 -295 -307 -311 -322 -332 -344 -361 -368 -381 -388 -399 -414 -422 -442 -456 0
-4 -22 -34 -41 -47 -61 -76 -84 -90 -105 -114 -131 -144 -159 -169 -177 -184 -198 -212 -221 -231 -248 -257 -272 -278 -293 -298 -312 -322 -333 -344 -360 -372 -385 -392 -403 -418 -432 -442 -456 0
-4 -13 -26 -40 -47 -62 -74 -88 -94 -109 -124 -125 -145 -159 -166 -177 -194 -198 -214 -229 -231 -247 -257 -272 -276 -293 -307 -311 -321 -334 -347 -354 -375 -378 -397 -403 -411 -431 -444 -456 0
-4 -20 -33 -45 -49 -57 -69 -86 -94 -111 -114 -133 -143 -155 -166 -173 -190 -196 -213 -219 -241 -247 -253 -274 -284 -295 -307 -313 -330 -332 -350 -360 -366 -382 -389 -405 -412 -423 -434 -456 0
-4 -20 -26 -39 -50 -66 -69 -88 -94 -102 -121 -125 -145 -160 -165 -173 -184 -203 -211 -219 -241 -250 -257 -274 -277 -294 -300 -309 -327 -332 -347 -356 -370 -384 -387 -408 -421 -424 -436 -452 0
-4 -21 -29 -42 -49 -64 -69 -79 -94 -112 -124 -126 -142 -156 -171 -179 -194 -195 -209 -220 -236 -247 -259 -273 -278 -295 -303 -312 -329 -333 -345 -355 -369 -386 -395 -400 -417 -426 -434 -450 0
-4 -13 -34 -38 -51 -65 -69 -86 -99 -105 -120 -125 -146 -155 -165 -180 -189 -203 -206 -219 -241 -251 -259 -274 -277 -289 -305 -319 -328 -338 -347 -356 -367 -386 -396 -402 -412 -425 -435 -451 0
-4 -16 -32 -40 -55 -67 -69 -83 -90 -109 -119 -126 -143 -158 -168 -176 -190 -205 -209 -229 -239 -242 -253 -267 -281 -297 -303 -317 -320 -332 -353 -361 -371 -376 -389 -401 -411 -433 -435 -454 0
-4 -17 -29 -44 -56 -57 -69 -86 -93 -111 -119 -131 -145 -150 -161 -180 -187 -198 -212 -227 -236 -247 -254 -272 -285 -295 -304 -313 -322 -333 -343 -357 -374 -381 -388 -409 -411 -431 -443 -448 0
-4 -16 -24 -39 -52 -65 -69 -84 -98 -106 -120 -126 -147 -160 -162 -177 -189 -204 -206 -220 -241 -250 -263 -272 -277 -297 -299 -317 -323 -338 -347 -360 -365 -384 -397 -402 -412 -425 -437 -447 0
-4 -18 -26 -44 -53 -57 -75 -89 -91 -108 -121 -130 -146 -150 -163 -178 -193 -205 -211 -220 -230 -243 -260 -273 -277 -288 -303 -310 -328 -339 -342 -357 -371 -382 -390 -404 -421 -422 -435 -452 0
-4 -17 -24 -41 -56 -66 -75 -82 -91 -112 -114 -131 -142 -158 -169 -178 -187 -199 -207 -223 -238 -252 -256 -267 -276 -288 -302 -319 -329 -338 -342 -360 -372 -377 -398 -402 -420 -429 -439 -453 0
-4 -18 -24 -39 -52 -60 -77 -80 -91 -111 -120 -133 -148 -154 -166 -179 -193 -196 -210 -226 -240 -243 -257 -275 -276 -288 -305 -319 -329 -331 -346 -360 -369 -386 -393 -404 -413 -424 -437 -456 0
-4 -20 -30 -37 -51 -67 -77 -83 -91 -110 -114 -134 -137 -155 -163 -182 -190 -203 -206 -217 -239 -248 -264 -267 -283 -297 -299 -317 -326 -341 -343 -359 -368 -381 -387 -409 -420 -423 -435 -445 0
-4 -17 -34 -39 -53 -66 -77 -79 -91 -109 -118 -126 -144 -155 -170 -177 -192 -203 -209 -217 -239 -250 -264 -270 -278 -291 -298 -311 -329 -339 -352 -361 -367 -381 -390 -404 -413 -427 -443 -446 0
-4 -17 -24 -41 -55 -63 -78 -80 -91 -105 -122 -131 -142 -158 -168 -181 -188 -198 -206 -229 -231 -252 -258 -267 -280 -293 -302 -317 -328 -334 -349 -360 -365 -380 -390 -409 -411 -431 -441 -454 0
-4 -13 -33 -40 -53 -61 -68 -85 -97 -103 -118 -134 -142 -160 -171 -177 -192 -195 -210 -222 -233 -245 -260 -271 -285 -289 -302 -317 -326 -331 -345 -356 -375 -377 -387 -408 -415 -426 -437 -456 0
-4 -23 -26 -39 -46 -62 -76 -83 -98 -109 -115 -132 -147 -149 -169 -180 -189 -196 -213 -224 -232 -246 -256 -270 -282 -291 -299 -318 -325 -336 -342 -355 -366 -381 -387 -409 -412 -430 -439 -453 0
-4 -20 -24 -43 -51 -60 -77 -86 -94 -107 -115 -136 -145 -150 -170 -175 -187 -200 -213 -224 -232 -251 -258 -270 -277 -292 -307 -311 -320 -336 -344 -358 -371 -379 -388 -406 -413 -429 -440 -446 0
-4 -21 -34 -38 -52 -58 -74 -84 -96 -105 -115 -125 -147 -158 -170 -175 -190 -199 -211 -220 -238 -242 -264 -271 -278 -296 -303 -311 -328 -338 -347 -358 -367 -378 -390 -399 -417 -431 -443 -446 0
-4 -12 -30 -37 -53 -67 -75 -83 -98 -108 -115 -135 -138 -155 -167 -173 -189 -205 -209 -226 -241 -251 -253 -270 -283 -297 -298 -317 -325 -336 -349 -363 -368 -384 -391 -407 -410 -430 -443 -448 0
-4 -13 -29 -38 -56 -64 -77 -84 -90 -108 -115 -134 -141 -158 -170 -176 -192 -199 -209 -227 -241 -249 -254 -271 -281 -291 -300 -317 -329 -340 -346 -354 -375 -376 -390 -404 -421 -433 -443 -446 0
-4 -19 -26 -42 -56 -57 -73 -86 -94 -102 -115 -135 -144 -159 -170 -173 -189 -198 -212 -220 -236 -251 -264 -270 -277 -294 -300 -311 -328 -331 -350 -355 -369 -376 -396 -409 -418 -431 -435 -448 0
-4 -22 -27 -42 -56 -58 -74 -84 -97 -101 -120 -127 -141 -159 -169 -177 -189 -195 -210 -220 -237 -243 -254 -269 -283 -287 -300 -309 -324 -339 -350 -364 -375 -380 -394 -400 -412 -433 -444 -451 0
-4 -20 -34 -43 -49 -61 -76 -88 -97 -102 -119 -127 -143 -149 -164 -172 -188 -203 -212 -229 -231 -243 -258 -269 -284 -291 -308 -310 -322 -340 -347 -357 -372 -380 -394 -405 -412 -430 -436 -451 0
-4 -23 -29 -43 -52 -60 -72 -84 -90 -102 -123 -127 -145 -156 -163 -177 -194 -196 -214 -226 -237 -243 -264 -271 -280 -295 -299 -310 -329 -339 -346 -358 -371 -377 -396 -409 -420 -429 -436 -455 0
-4 -19 -31 -45 -54 -60 -72 -79 -97 -102 -123 -127 -144 -155 -162 -172 -192 -196 -214 -228 -234 -249 -264 -271 -281 -296 -301 -319 -326 -337 -352 -354 -371 -383 -388 -409 -414 -429 -436 -454 0
-4 -22 -30 -42 -54 -67 -72 -85 -96 -101 -119 -127 -141 -150 -161 -180 -190 -199 -209 -225 -235 -246 -262 -266 -283 -290 -299 -309 -329 -334 -349 -355 -368 -384 -390 -402 -417 -424 -434 -448 0
-4 -12 -31 -45 -54 -62 -77 -86 -94 -108 -120 -127 -141 -150 -165 -179 -193 -202 -206 -219 -232 -252 -257 -273 -281 -292 -304 -312 -329 -332 -345 -359 -368 -383 -393 -402 -412 -429 -435 -453 0
-4 -13 -33 -39 -52 -57 -73 -87 -94 -111 -118 -132 -139 -160 -164 -180 -191 -199 -213 -229 -231 -245 -263 -265 -282 -289 -299 -316 -320 -337 -349 -359 -366 -376 -393 -405 -416 -423 -444 -447 0
-4 -13 -26 -41 -56 -66 -73 -79 -94 -110 -123 -132 -139 -156 -169 -182 -192 -196 -210 -223 -237 -250 -253 -269 -280 -293 -300 -315 -321 -340 -349 -360 -372 -386 -394 -404 -415 -424 -436 -450 0
-4 -20 -31 -37 -46 -61 -77 -84 -97 -108 -124 -134 -139 -149 -169 -172 -187 -203 -210 -224 -236 -242 -256 -267 -281 -291 -300 -313 -326 -340 -346 -355 -365 -376 -394 -399 -413 -429 -443 -450 0
-4 -18 -26 -44 -56 -58 -76 -85 -96 -109 -113 -134 -139 -154 -166 -183 -184 -204 -210 -225 -239 -243 -263 -266 -280 -292 -303 -309 -329 -334 -350 -362 -369 -378 -387 -404 -420 -428 -437 -456 0
-4 -16 -32 -44 -56 -64 -76 -80 -95 -108 -120 -130 -139 -149 -161 -179 -190 -202 -209 -227 -233 -248 -261 -266 -286 -290 -298 -314 -323 -333 -342 -357 -370 -381 -389 -404 -414 -427 -443 -450 0
-4 -20 -27 -43 -55 -57 -76 -80 -100 -105 -121 -131 -139 -155 -162 -179 -190 -196 -211 -221 -239 -250 -264 -274 -276 -296 -299 -312 -324 -331 -349 -362 -366 -376 -396 -406 -416 -427 -441 -446 0
-4 -16 -27 -40 -55 -57 -76 -85 -97 -102 -119 -134 -139 -160 -161 -175 -190 -196 -211 -220 -240 -250 -260 -273 -286 -296 -305 -314 -325 -331 -350 -357 -366 -381 -388 -406 -413 -423 -437 -445 0
-4 -20 -31 -38 -55 -62 -68 -86 -93 -102 -124 -134 -139 -156 -169 -173 -191 -203 -207 -228 -234 -246 -258 -269 -276 -289 -300 -311 -327 -332 -349 -364 -365 -379 -388 -408 -411 -425 -444 -454 0
-4 -12 -30 -39 -55 -61 -75 -87 -93 -102 -119 -136 -139 -159 -165 -176 -184 -198 -211 -227 -237 -250 -263 -267 -286 -289 -300 -310 -325 -341 -352 -356 -367 -382 -391 -407 -413 -424 -435 -445 0
-4 -18 -33 -40 -49 -57 -76 -83 -98 -108 -114 -136 -139 -157 -170 -173 -188 -200 -213 -229 -231 -246 -256 -273 -284 -295 -304 -310 -327 -333 -346 -358 -372 -377 -388 -400 -410 -428 -443 -455 0
-4 -21 -29 -37 -55 -67 -76 -84 -90 -108 -121 -126 -139 -154 -166 -177 -185 -196 -210 -225 -238 -252 -264 -265 -280 -296 -301 -313 -324 -340 -342 -358 -371 -386 -389 -405 -418 -422 -444 -454 0
-4 -19 -32 -40 -52 -67 -76 -82 -90 -107 -123 -126 -139 -154 -161 -182 -187 -204 -207 -221 -235 -251 -258 -275 -283 -296 -302 -311 -326 -338 -351 -358 -369 -378 -397 -399 -413 -427 -440 -450 0
-4 -12 -27 -39 -55 -64 -78 -87 -96 -111 -118 -126 -139 -155 -163 -173 -192 -201 -214 -229 -230 -248 -260 -271 -285 -296 -303 -315 -323 -339 -352 -361 -366 -380 -387 -399 -417 -426 -440 -450 0
-4 -22 -24 -42 -46 -62 -74 -82 -97 -106 -124 -134 -144 -151 -165 -175 -193 -196 -211 -226 -241 -246 -260 -271 -278 -293 -305 -315 -321 -339 -348 -358 -366 -381 -394 -399 -412 -429 -439 -450 0
-4 -18 -24 -44 -46 -63 -76 -82 -94 -109 -122 -131 -148 -151 -169 -178 -189 -196 -209 -225 -233 -243 -261 -270 -285 -297 -299 -315 -324 -340 -346 -358 -374 -381 -390 -403 -412 -433 -444 -456 0
-4 -22 -27 -40 -50 -64 -76 -89 -90 -105 -114 -131 -146 -151 -171 -180 -187 -198 -212 -225 -239 -248 -258 -270 -278 -296 -303 -312 -326 -334 -350 -356 -367 -378 -397 -406 -421 -427 -441 -456 0
-4 -20 -26 -44 -56 -66 -73 -79 -97 -108 -114 -130 -145 -151 -166 -176 -188 -203 -215 -219 -231 -249 -262 -275 -278 -292 -298 -316 -322 -333 -351 -364 -367 -379 -398 -407 -418 -430 -437 -448 0
-4 -21 -26 -38 -50 -65 -68 -85 -96 -109 -124 -135 -138 -151 -167 -178 -185 -204 -216 -221 -233 -252 -256 -266 -281 -297 -303 -316 -322 -340 -343 -359 -369 -385 -398 -404 -417 -423 -434 -453 0
-4 -16 -32 -40 -46 -65 -68 -85 -94 -112 -121 -136 -142 -151 -169 -177 -189 -204 -215 -219 -233 -250 -260 -267 -277 -291 -307 -312 -330 -336 -343 -356 -370 -377 -387 -403 -413 -426 -440 -445 0
-4 -19 -26 -38 -50 -65 -68 -80 -97 -112 -120 -134 -148 -151 -165 -183 -185 -204 -212 -219 -233 -248 -263 -266 -284 -293 -302 -319 -328 -337 -345 -356 -367 -386 -395 -409 -419 -426 -441 -448 0
-4 -16 -30 -45 -46 -66 -74 -84 -99 -106 -113 -132 -145 -151 -164 -178 -192 -205 -209 -227 -231 -249 -260 -267 -286 -290 -299 -310 -323 -341 -352 -356 -375 -383 -388 -409 -411 -426 -439 -452 0
-4 -16 -32 -45 -53 -61 -68 -84 -97 -108 -120 -135 -138 -151 -167 -173 -191 -200 -214 -226 -233 -245 -264 -266 -285 -289 -308 -310 -325 -333 -347 -361 -372 -384 -388 -401 -414 -425 -443 -455 0
-4 -21 -26 -45 -51 -63 -77 -80 -94 -109 -119 -133 -137 -151 -163 -176 -190 -202 -215 -229 -231 -243 -261 -272 -281 -297 -306 -314 -329 -337 -343 -358 -370 -384 -393 -404 -420 -423 -443 -451 0
-5 -13 -34 -43 -47 -57 -76 -83 -97 -112 -116 -132 -142 -156 -170 -177 -191 -197 -207 -225 -239 -247 -264 -273 -280 -294 -301 -314 -326 -338 -345 -364 -373 -385 -389 -402 -419 -423 -444 -445 0
-5 -13 -28 -43 -48 -63 -68 -83 -97 -110 -123 -127 -142 -160 -171 -176 -194 -201 -213 -226 -234 -248 -253 -271 -279 -297 -303 -317 -322 -338 -346 -361 -374 -377 -391 -403 -420 -426 -442 -450 0
-5 -13 -27 -35 -54 -57 -75 -84 -99 -108 -121 -136 -139 -158 -169 -178 -189 -201 -210 -226 -230 -242 -255 -274 -280 -295 -299 -317 -327 -335 -353 -358 -368 -386 -387 -406 -416 -428 -438 -452 0
-5 -13 -28 -43 -48 -64 -76 -79 -96 -112 -124 -130 -139 -155 -165 -172 -194 -203 -211 -229 -238 -244 -262 -271 -277 -289 -306 -309 -328 -339 -347 -357 -370 -378 -394 -405 -420 -429 -436 -450 0
-5 -13 -34 -41 -48 -65 -75 -83 -98 -107 -123 -127 -143 -149 -166 -174 -188 -201 -206 -226 -237 -251 -257 -266 -286 -290 -308 -311 -324 -338 -349 -357 -373 -382 -388 -404 -413 -422 -442 -449 0
-5 -13 -27 -35 -55 -62 -76 -89 -97 -108 -120 -134 -139 -149 -164 -179 -188 -202 -216 -227 -231 -249 -253 -273 -279 -292 -304 -317 -324 -334 -346 -356 -367 -383 -397 -405 -411 -429 -438 -448 0
-5 -13 -30 -39 -55 -65 -72 -89 -92 -107 -122 -132 -137 -151 -166 -181 -192 -203 -215 -218 -231 -246 -258 -270 -286 -290 -301 -311 -324 -334 -349 -364 -367 -378 -397 -409 -419 -425 -440 -448 0
-5 -17 -32 -39 -46 -67 -69 -86 -99 -110 -113 -132 -142 -152 -161 -179 -193 -202 -210 -229 -240 -246 -255 -273 -282 -294 -305 -315 -320 -336 -353 -356 -368 -386 -396 -404 -416 -427 -435 -445 0
-5 -12 -29 -35 -53 -66 -69 -86 -99 -106 -119 -131 -138 -160 -161 -177 -191 -203 -210 -229 -240 -246 -255 -273 -281 -289 -300 -317 -327 -332 -347 -356 -375 -382 -390 -409 -411 -431 -437 -445 0
-5 -19 -34 -41 -46 -66 -70 -87 -99 -106 -113 -127 -144 -155 -161 -183 -192 -197 -207 -223 -234 -252 -262 -271 -281 -297 -301 -318 -325 -338 -351 -361 -374 -383 -390 -399 -412 -426 -438 -455 0
-5 -19 -31 -43 -56 -63 -68 -86 -99 -102 -116 -130 -139 -155 -161 -183 -190 -197 -207 -222 -234 -252 -261 -271 -284 -295 -299 -312 -325 -338 -347 -356 -374 -378 -390 -408 -420 -427 -435 -453 0
-5 -22 -27 -40 -47 -64 -78 -85 -92 -107 -122 -125 -138 -158 -161 -183 -186 -200 -212 -227 -233 -247 -261 -266 -282 -297 -299 -316 -323 -331 -349 -360 -372 -381 -394 -399 -412 -433 -441 -446 0
-5 -18 -29 -45 -53 -58 -77 -85 -94 -111 -121 -127 -137 -152 -164 -173 -191 -199 -208 -225 -238 -251 -264 -265 -285 -297 -300 -309 -329 -337 -346 -360 -372 -384 -390 -401 -412 -423 -434 -451 0
-5 -17 -24 -39 -55 -58 -70 -87 -95 -103 -121 -136 -144 -159 -170 -173 -191 -199 -207 -225 -233 -251 -264 -268 -282 -293 -308 -315 -328 -331 -351 -356 -368 -382 -390 -407 -412 -426 -444 -445 0
-5 -22 -29 -45 -51 -65 -72 -80 -92 -109 -113 -134 -139 -155 -169 -173 -184 -204 -207 -221 -235 -244 -258 -272 -283 -290 -298 -316 -329 -339 -342 -360 -366 -381 -391 -404 -413 -430 -434 -455 0
-5 -18 -33 -40 -47 -67 -68 -83 -98 -109 -114 -131 -145 -152 -170 -173 -188 -200 -213 -226 -241 -251 -257 -268 -283 -292 -304 -316 -320 -334 -351 -356 -375 -377 -388 -403 -415 -422 -440 -448 0
-5 -18 -28 -41 -48 -63 -76 -89 -99 -106 -122 -126 -139 -149 -166 -173 -188 -196 -213 -227 -241 -246 -261 -265 -279 -288 -306 -317 -323 -332 -349 -363 -368 -377 -395 -403 -412 -422 -436 -454 0
-5 -18 -24 -40 -48 -64 -74 -87 -94 -111 -123 -127 -148 -150 -164 -173 -188 -196 -215 -226 -237 -251 -253 -268 -283 -295 -303 -311 -329 -338 -349 -358 -369 -383 -393 -401 -412 -423 -440 -450 0
-5 -18 -33 -38 -56 -57 -75 -86 -98 -102 -116 -133 -143 -151 -168 -179 -185 -197 -211 -229 -239 -247 -254 -274 -280 -294 -304 -310 -321 -334 -349 -363 -368 -386 -394 -409 -419 -422 -440 -447 0
-5 -22 -29 -38 -50 -66 -68 -85 -97 -102 -124 -127 -140 -158 -171 -181 -185 -204 -210 -218 -235 -250 -258 -265 -280 -296 -303 -313 -323 -339 -345 -357 -371 -377 -389 -407 -418 -427 -434 -453 0
-5 -20 -32 -38 -50 -65 -68 -80 -100 -109 -115 -135 -140 -156 -165 -174 -185 -195 -216 -220 -237 -251 -259 -274 -277 -297 -305 -312 -324 -339 -344 -355 -371 -386 -396 -400 -417 -433 -434 -453 0
-5 -22 -28 -41 -56 -66 -72 -87 -91 -107 -113 -128 -144 -150 -164 -178 -185 -204 -208 -221 -230 -251 -258 -272 -277 -291 -300 -310 -320 -335 -351 -356 -367 -383 -397 -404 -411 -430 -436 -449 0
-5 -12 -33 -38 -46 -64 -78 -85 -96 -111 -115 -128 -142 -158 -170 -176 -192 -201 -211 -229 -232 -247 -255 -271 -284 -297 -303 -312 -322 -339 -350 -355 -373 -377 -387 -404 -417 -426 -441 -450 0
-5 -20 -33 -39 -46 -64 -68 -83 -92 -111 -115 -133 -142 -160 -166 -174 -194 -201 -210 -217 -232 -246 -260 -265 -286 -291 -301 -310 -330 -336 -349 -354 -366 -377 -395 -409 -419 -425 -440 -449 0
-5 -17 -28 -40 -54 -58 -69 -89 -99 -110 -116 -125 -142 -157 -167 -176 -186 -195 -216 -221 -232 -242 -262 -273 -285 -295 -308 -317 -322 -332 -353 -361 -366 -383 -387 -405 -414 -433 -435 -445 0
-5 -21 -24 -38 -48 -62 -76 -80 -96 -109 -123 -136 -139 -156 -168 -179 -188 -195 -215 -229 -232 -246 -255 -266 -282 -292 -304 -309 -324 -335 -344 -356 -374 -379 -388 -408 -411 -425 -440 -454 0
-5 -17 -31 -44 -51 -63 -73 -80 -100 -103 -121 -128 -137 -159 -167 -172 -187 -197 -215 -227 -232 -250 -264 -270 -277 -287 -302 -319 -324 -338 -345 -354 -369 -376 -389 -404 -420 -427 -438 -447 0
-5 -19 -31 -45 -48 -66 -73 -80 -96 -106 -121 -135 -137 -151 -171 -176 -192 -200 -210 -223 -232 -252 -255 -271 -284 -293 -298 -319 -321 -335 -345 -356 -369 -386 -393 -404 -415 -426 -441 -450 0
-5 -19 -27 -42 -56 -57 -75 -84 -99 -109 -122 -128 -138 -151 -169 -174 -189 -202 -207 -221 -232 -249 -261 -274 -280 -294 -299 -316 -326 -337 -346 -355 -373 -376 -389 -402 -419 -423 -436 -448 0
-5 -21 -28 -44 -56 -64 -69 -83 -95 -110 -120 -125 -140 -150 -165 -179 -184 -200 -207 -226 -232 -244 -259 -274 -280 -296 -300 -314 -321 -335 -347 -361 -373 -384 -391 -400 -421 -424 -443 -450 0
-5 -14 -30 -45 -55 -62 -70 -85 -94 -110 -113 -132 -146 -150 -167 -180 -187 -196 -212 -228 -232 -247 -262 -265 -281 -296 -305 -318 -323 -331 -345 -359 -368 -384 -388 -408 -417 -423 -436 -454 0
-5 -18 -33 -40 -46 -64 -78 -83 -90 -108 -115 -134 -140 -158 -164 -172 -192 -199 -208 -227 -241 -252 -254 -267 -283 -294 -298 -316 -321 -334 -352 -360 -370 -377 -398 -405 -416 -428 -440 -453 0
-5 -19 -30 -38 -47 -63 -73 -81 -100 -102 -123 -133 -146 -149 -164 -172 -193 -204 -216 -217 -234 -250 -255 -267 -282 -294 -301 -310 -321 -340 -349 -359 -365 -376 -390 -405 -421 -423 -440 -453 0
-5 -21 -28 -40 -50 -65 -69 -81 -99 -109 -124 -130 -137 -150 -165 -172 -186 -203 -215 -224 -235 -246 -261 -267 -277 -291 -299 -312 -326 -334 -347 -355 -365 -376 -398 -402 -419 -428 -444 -455 0
-5 -20 -30 -39 -55 -62 -70 -87 -98 -106 -113 -126 -139 -160 -165 -183 -186 -205 -212 -217 -230 -246 -260 -267 -281 -288 -303 -313 -323 -341 -349 -362 -365 -376 -393 -399 -415 -426 -437 -446 0
-5 -18 -30 -35 -51 -58 -75 -89 -99 -103 -122 -130 -137 -158 -166 -181 -192 -205 -208 -221 -241 -246 -253 -267 -277 -289 -300 -311 -320 -339 -343 -361 -367 -384 -389 -403 -414 -427 -440 -454 0
-5 -17 -29 -41 -53 -66 -70 -80 -100 -101 -123 -131 -142 -151 -168 -183 -187 -201 -207 -227 -237 -247 -255 -267 -285 -297 -300 -318 -329 -336 -351 -360 -369 -385 -398 -399 -421 -429 -442 -450 0
-5 -14 -32 -41 -56 -65 -74 -81 -99 -106 -113 -126 -144 -155 -168 -182 -190 -199 -206 -227 -231 -248 -260 -267 -286 -289 -298 -319 -321 -337 -349 -364 -371 -377 -398 -400 -410 -429 -444 -451 0
-5 -19 -34 -35 -52 -58 -76 -79 -94 -111 -115 -132 -147 -155 -169 -172 -190 -197 -211 -221 -238 -250 -263 -267 -277 -294 -301 -315 -328 -338 -343 -359 -367 -381 -389 -399 -415 -430 -444 -452 0
-5 -17 -28 -40 -56 -66 -70 -84 -99 -101 -114 -133 -139 -157 -169 -180 -187 -195 -207 -221 -237 -252 -255 -267 -282 -293 -298 -309 -321 -333 -347 -361 -373 -377 -389 -406 -419 -422 -444 -455 0
-5 -12 -28 -35 -52 -66 -69 -87 -100 -112 -120 -130 -138 -155 -169 -178 -186 -205 -213 -223 -234 -248 -261 -265 -278 -289 -302 -316 -328 -332 -351 -356 -367 -380 -390 -405 -416 -433 -438 -448 0
-6 -12 -25 -39 -55 -64 -73 -81 -100 -103 -120 -126 -145 -159 -162 -183 -186 -195 -210 -225 -239 -248 -258 -274 -283 -290 -299 -318 -330 -339 -350 -364 -366 -385 -392 -405 -414 -433 -438 -448 0
-6 -19 -25 -42 -50 -63 -68 -86 -92 -112 -114 -127 -146 -160 -171 -180 -184 -205 -209 -222 -234 -244 -258 -271 -278 -293 -301 -311 -320 -332 -347 -361 -367 -380 -390 -405 -416 -431 -442 -448 0
-6 -12 -25 -42 -56 -66 -73 -85 -96 -102 -116 -135 -139 -157 -161 -180 -186 -198 -216 -223 -234 -252 -262 -272 -281 -290 -301 -311 -328 -338 -349 -355 -374 -386 -396 -401 -421 -426 -442 -450 0
-6 -19 -25 -43 -46 -65 -75 -81 -95 -112 -121 -136 -139 -149 -168 -183 -184 -197 -207 -219 -234 -249 -262 -267 -281 -295 -304 -313 -323 -338 -351 -356 -370 -379 -395 -402 -410 -425 -435 -452 0
-6 -13 -25 -44 -56 -64 -73 -81 -96 -103 -122 -131 -145 -149 -165 -179 -184 -196 -212 -219 -239 -248 -255 -273 -286 -295 -304 -312 -330 -333 -349 -359 -367 -383 -392 -409 -419 -429 -440 -448 0
-6 -23 -24 -36 -50 -64 -70 -87 -91 -108 -123 -132 -138 -159 -162 -179 -188 -202 -215 -227 -236 -248 -255 -266 -286 -288 -301 -314 -325 -336 -352 -357 -365 -380 -398 -405 -412 -428 -442 -445 0
-6 -21 -24 -36 -56 -63 -70 -87 -95 -108 -123 -126 -139 -157 -162 -179 -188 -204 -215 -218 -236 -248 -253 -275 -277 -295 -302 -311 -322 -335 -344 -361 -369 -382 -391 -408 -418 -424 -435 -446 0
-6 -21 -29 -36 -47 -67 -73 -81 -90 -109 -123 -126 -145 -156 -161 -177 -192 -205 -210 -219 -241 -244 -254 -272 -283 -293 -298 -311 -320 -340 -345 -357 -375 -386 -392 -404 -415 -433 -439 -446 0
-6 -18 -24 -36 -46 -67 -74 -81 -96 -103 -121 -135 -145 -159 -166 -182 -185 -196 -210 -219 -239 -244 -260 -275 -276 -297 -306 -315 -323 -334 -344 -362 -374 -377 -392 -409 -420 -431 -440 -445 0
-6 -12 -31 -36 -54 -67 -77 -81 -96 -109 -119 -127 -143 -150 -162 -172 -189 -202 -210 -225 -239 -252 -261 -268 -282 -292 -304 -313 -324 -341 -350 -355 -367 -383 -392 -404 -415 -424 -435 -451 0
-6 -12 -33 -36 -50 -63 -69 -85 -92 -102 -121 -134 -148 -158 -170 -173 -193 -204 -216 -221 -235 -250 -255 -269 -282 -291 -298 -313 -330 -335 -352 -356 -370 -379 -396 -404 -411 -426 -441 -452 0
-6 -14 -29 -36 -56 -66 -77 -85 -95 -109 -116 -133 -137 -150 -166 -180 -184 -198 -210 -225 -231 -243 -262 -274 -282 -293 -298 -313 -323 -331 -348 -357 -369 -382 -398 -408 -419 -422 -442 -454 0
-6 -14 -30 -36 -51 -65 -78 -79 -99 -107 -116 -132 -138 -159 -166 -173 -193 -205 -209 -221 -231 -249 -260 -275 -276 -290 -308 -312 -322 -331 -348 -355 -372 -383 -392 -406 -410 -424 -435 -452 0
-6 -14 -34 -36 -46 -66 -77 -86 -90 -108 -116 -132 -142 -158 -169 -178 -184 -196 -210 -222 -232 -252 -256 -273 -282 -294 -301 -313 -324 -340 -350 -355 -374 -381 -394 -408 -410 -430 -441 -452 0
-6 -12 -30 -35 -54 -59 -77 -87 -91 -107 -124 -131 -144 -150 -162 -172 -189 -204 -213 -221 -239 -249 -263 -268 -283 -296 -300 -314 -326 -337 -352 -362 -367 -379 -397 -406 -419 -431 -444 -456 0
-6 -18 -29 -41 -56 -59 -76 -79 -99 -108 -122 -128 -138 -151 -163 -174 -189 -204 -213 -229 -240 -243 -262 -266 -283 -287 -304 -319 -328 -339 -350 -356 -368 -377 -395 -401 -416 -422 -436 -448 0
-6 -22 -34 -41 -47 -59 -76 -79 -95 -102 -122 -131 -144 -152 -165 -179 -192 -200 -216 -227 -230 -250 -255 -269 -278 -289 -305 -315 -321 -341 -345 -356 -372 -378 -397 -403 -411 -429 -441 -448 0
-6 -23 -31 -44 -52 -59 -74 -80 -91 -107 -116 -132 -137 -159 -171 -173 -189 -201 -214 -228 -234 -250 -260 -269 -279 -288 -302 -312 -324 -337 -350 -355 -374 -378 -391 -400 -411 -430 -444 -447 0
-6 -20 -31 -43 -56 -59 -69 -84 -90 -102 -121 -131 -147 -152 -167 -181 -189 -195 -212 -218 -241 -243 -256 -270 -285 -295 -302 -312 -322 -341 -344 -360 -366 -376 -390 -406 -415 -433 -435 -456 0
-6 -12 -28 -42 -48 -66 -71 -84 -100 -102 -120 -127 -147 -157 -169 -174 -185 -205 -210 -223 -237 -248 -261 -269 -276 -297 -302 -317 -323 -332 -344 -364 -371 -377 -389 -401 -419 -433 -438 -446 0
-6 -12 -31 -39 -56 -66 -71 -84 -96 -112 -116 -126 -139 -157 -161 -175 -186 -203 -211 -227 -241 -247 -261 -274 -282 -293 -298 -315 -321 -340 -349 -359 -366 -382 -390 -399 -415 -426 -440 -450 0
-6 -19 -32 -40 -55 -67 -71 -86 -90 -110 -114 -128 -142 -151 -162 -180 -194 -197 -207 -221 -235 -249 -262 -275 -283 -290 -306 -319 -329 -332 -345 -356 -370 -379 -392 -400 -421 -427 -435 -445 0
-6 -19 -31 -40 -55 -57 -71 -89 -91 -111 -121 -128 -142 -150 -165 -172 -192 -197 -211 -227 -231 -243 -259 -269 -285 -296 -301 -315 -320 -334 -349 -359 -373 -386 -391 -402 -413 -431 -435 -455 0
-6 -14 -24 -42 -46 -62 -78 -88 -97 -104 -120 -128 -146 -156 -167 -175 -185 -202 -214 -217 -234 -252 -261 -275 -276 -294 -305 -316 -321 -341 -342 -358 -368 -380 -393 -399 -414 -432 -435 -451 0
-6 -14 -31 -45 -52 -57 -70 -80 -99 -104 -120 -134 -142 -156 -171 -177 -191 -204 -214 -219 -232 -247 -263 -272 -276 -293 -300 -310 -330 -335 -348 -361 -365 -386 -391 -403 -421 -425 -443 -446 0
-6 -20 -32 -39 -50 -65 -68 -88 -92 -104 -121 -136 -138 -151 -162 -174 -193 -201 -211 -217 -234 -250 -260 -274 -286 -297 -301 -316 -324 -332 -349 -359 -367 -378 -391 -407 -414 -425 -444 -455 0
-6 -13 -28 -42 -48 -62 -75 -89 -98 -104 -115 -135 -137 -157 -165 -182 -184 -196 -209 -226 -237 -248 -262 -268 -286 -293 -300 -311 -323 -336 -349 -357 -375 -380 -388 -408 -410 -425 -437 -446 0
-6 -14 -30 -44 -48 -58 -74 -84 -96 -101 -117 -136 -145 -159 -161 -177 -193 -205 -211 -219 -241 -247 -260 -271 -277 -294 -299 -312 -322 -340 -343 -359 -365 -383 -390 -399 -412 -426 -437 -454 0
-6 -23 -30 -39 -55 -62 -69 -79 -92 -102 -117 -132 -145 -159 -169 -174 -185 -201 -209 -228 -231 -247 -260 -271 -281 -296 -304 -318 -323 -339 -347 -354 -366 -381 -391 -409 -410 -423 -438 -446 0
-6 -14 -33 -35 -46 -64 -73 -89 -90 -111 -117 -132 -145 -156 -171 -179 -192 -205 -210 -219 -232 -249 -262 -271 -276 -294 -300 -310 -326 -337 -346 -354 -367 -386 -391 -404 -419 -428 -438 -456 0
-6 -14 -30 -42 -50 -63 -70 -89 -99 -102 -117 -134 -137 -156 -163 -182 -184 -202 -207 -227 -236 -243 -261 -272 -286 -296 -300 -319 -323 -337 -349 -360 -367 -384 -394 -408 -415 -425 -436 -447 0
-6 -14 -33 -35 -46 -62 -78 -79 -97 -110 -120 -129 -146 -156 -162 -182 -191 -203 -214 -217 -234 -249 -264 -273 -276 -294 -306 -312 -326 -334 -344 -355 -368 -384 -390 -402 -417 -430 -444 -449 0
-6 -12 -30 -44 -47 -65 -74 -80 -92 -111 -120 -129 -142 -160 -162 -177 -192 -195 -215 -222 -234 -250 -255 -272 -286 -297 -301 -313 -322 -341 -343 -361 -368 -384 -392 -403 -415 -431 -440 -448 0
-6 -23 -33 -42 -50 -63 -68 -85 -91 -109 -114 -129 -146 -152 -167 -182 -185 -197 -209 -221 -235 -250 -261 -275 -284 -291 -307 -313 -328 -335 -345 -357 -366 -377 -389 -404 -415 -427 -442 -447 0
-6 -12 -28 -43 -56 -62 -75 -88 -91 -109 -116 -133 -138 -153 -163 -181 -186 -203 -206 -229 -238 -248 -258 -274 -283 -291 -307 -313 -326 -334 -343 -363 -367 -377 -391 -406 -419 -428 -444 -446 0
-6 -18 -30 -35 -46 -67 -75 -87 -99 -108 -113 -127 -146 -153 -169 -178 -194 -198 -210 -225 -235 -244 -254 -273 -276 -289 -300 -310 -330 -341 -342 -357 -372 -384 -390 -400 -411 -430 -434 -452 0
-6 -19 -29 -42 -46 -67 -68 -86 -99 -103 -122 -128 -142 -153 -169 -182 -188 -204 -207 -219 -235 -244 -258 -271 -276 -290 -306 -312 -330 -334 -343 -364 -372 -377 -391 -405 -410 -429 -434 -448 0
-6 -20 -31 -44 -56 -57 -69 -86 -98 -102 -119 -128 -143 -153 -163 -174 -194 -200 -212 -223 -241 -251 -260 -265 -277 -295 -308 -313 -321 -332 -349 -360 -371 -383 -391 -400 -417 -429 -438 -453 0
-6 -20 -34 -35 -52 -62 -76 -79 -98 -108 -114 -127 -147 -153 -165 -179 -189 -198 -215 -229 -231 -244 -262 -271 -276 -289 -308 -317 -329 -334 -343 -359 -367 -383 -391 -405 -416 -430 -434 -448 0
-6 -21 -28 -40 -56 -64 -76 -88 -90 -107 -114 -127 -140 -153 -165 -175 -184 -197 -211 -225 -241 -250 -261 -266 -285 -296 -302 -319 -321 -334 -349 -363 -368 -378 -398 -401 -419 -430 -440 -455 0
-6 -21 -28 -44 -46 -67 -69 -84 -90 -109 -116 -133 -144 -153 -163 -179 -192 -200 -206 -228 -241 -250 -254 -268 -282 -289 -305 -318 -321 -341 -343 -354 -375 -379 -387 -400 -411 -429 -440 -447 0
-6 -22 -28 -42 -56 -66 -69 -86 -90 -107 -114 -132 -140 -153 -171 -174 -190 -195 -212 -219 -239 -247 -260 -273 -281 -296 -305 -313 -324 -335 -350 -362 -375 -378 -389 -408 -418 -423 -440 -456 0
-6 -23 -30 -44 -46 -63 -73 -87 -91 -108 -122 -125 -140 -153 -166 -174 -193 -198 -215 -226 -234 -249 -264 -272 -277 -290 -298 -312 -324 -340 -349 -357 -372 -383 -392 -405 -411 -425 -436 -448 0
-6 -23 -29 -42 -48 -58 -77 -86 -95 -103 -122 -131 -137 -153 -167 -174 -193 -200 -216 -224 -234 -252 -261 -269 -277 -289 -306 -315 -321 -331 -343 -359 -372 -380 -390 -405 -412 -423 -440 -445 0
-7 -15 -33 -37 -46 -67 -68 -85 -97 -110 -122 -127 -144 -152 -162 -179 -189 -204 -212 -228 -239 -249 -253 -275 -279 -294 -300 -312 -326 -337 -348 -356 -373 -385 -398 -400 -412 -429 -444 -452 0
-7 -15 -28 -41 -47 -67 -76 -80 -93 -111 -113 -135 -144 -152 -162 -182 -193 -197 -216 -223 -235 -250 -261 -272 -276 -294 -305 -312 -322 -333 -353 -360 -371 -385 -397 -404 -413 -424 -438 -445 0
-7 -21 -24 -44 -52 -67 -75 -82 -91 -104 -114 -128 -143 -158 -162 -178 -190 -197 -207 -222 -230 -252 -261 -275 -280 -295 -299 -313 -330 -341 -350 -358 -368 -378 -395 -407 -420 -427 -435 -452 0
-7 -20 -32 -36 -47 -67 -74 -82 -92 -101 -123 -133 -138 -157 -162 -182 -187 -197 -207 -222 -236 -251 -253 -272 -286 -297 -301 -313 -326 -338 -343 -358 -367 -384 -394 -407 -412 -429 -440 -446 0
-7 -23 -25 -37 -53 -63 -68 -85 -97 -103 -116 -135 -138 -159 -162 -177 -187 -200 -214 -228 -237 -250 -264 -266 -279 -287 -301 -314 -328 -333 -351 -359 -371 -385 -398 -400 -419 -429 -444 -455 0
-7 -22 -25 -39 -47 -66 -68 -82 -96 -109 -124 -133 -138 -152 -162 -176 -189 -201 -216 -225 -238 -251 -255 -265 -283 -297 -305 -315 -324 -339 -350 -354 -367 -380 -396 -409 -414 -425 -442 -448 0
-7 -15 -24 -44 -56 -65 -74 -80 -93 -109 -116 -134 -144 -151 -162 -179 -186 -204 -211 -227 -241 -242 -258 -274 -283 -288 -307 -319 -326 -341 -352 -360 -369 -381 -388 -407 -420 -428 -440 -453 0
-7 -12 -30 -43 -47 -63 -71 -89 -99 -105 -116 -133 -138 -156 -162 -181 -190 -197 -213 -226 -241 -252 -253 -271 -280 -289 -298 -318 -325 -334 -351 -361 -367 -384 -390 -406 -415 -427 -440 -451 0
-7 -15 -24 -37 -46 -63 -77 -81 -100 -108 -121 -133 -146 -151 -168 -175 -193 -200 -208 -225 -236 -243 -254 -275 -285 -297 -305 -313 -328 -339 -353 -358 -368 -386 -391 -404 -420 -424 -443 -455 0
-7 -15 -30 -43 -49 -57 -75 -81 -99 -102 -124 -131 -145 -151 -166 -175 -190 -203 -207 -229 -238 -252 -262 -268 -278 -296 -300 -318 -326 -337 -351 -359 -366 -376 -390 -406 -419 -423 -443 -450 0
-7 -15 -24 -43 -47 -67 -75 -81 -93 -102 -121 -133 -147 -156 -170 -175 -190 -203 -207 -229 -238 -244 -262 -271 -278 -291 -307 -311 -329 -340 -342 -358 -369 -382 -391 -405 -412 -423 -439 -446 0
-7 -20 -24 -39 -54 -58 -70 -88 -100 -105 -121 -127 -145 -153 -166 -175 -186 -195 -213 -220 -240 -251 -264 -266 -282 -292 -307 -313 -327 -331 -353 -357 -375 -377 -388 -406 -418 -426 -441 -454 0
-7 -12 -28 -36 -47 -65 -75 -81 -98 -109 -123 -136 -141 -150 -161 -176 -192 -198 -215 -223 -235 -250 -255 -272 -284 -296 -307 -318 -324 -335 -345 -357 -371 -380 -388 -403 -421 -432 -442 -454 0
-7 -21 -33 -37 -52 -67 -74 -80 -96 -103 -117 -125 -140 -158 -170 -178 -190 -198 -207 -222 -232 -244 -264 -273 -280 -287 -301 -313 -330 -340 -350 -358 -368 -384 -388 -402 -418 -423 -443 -448 0
-7 -15 -24 -35 -52 -58 -74 -89 -96 -112 -118 -127 -145 -159 -166 -177 -186 -198 -213 -228 -239 -243 -264 -266 -276 -297 -300 -312 -327 -339 -353 -359 -365 -384 -390 -399 -418 -428 -444 -454 0
-7 -13 -31 -43 -52 -57 -74 -81 -93 -112 -120 -129 -139 -160 -170 -178 -189 -198 -207 -226 -236 -244 -264 -272 -280 -293 -302 -309 -325 -335 -345 -357 -368 -380 -388 -406 -416 -423 -439 -448 0
-7 -23 -32 -40 -46 -60 -69 -86 -92 -101 -123 -129 -143 -158 -171 -180 -189 -198 -215 -227 -232 -246 -255 -271 -282 -293 -303 -310 -320 -336 -344 -356 -370 -383 -392 -408 -411 -424 -438 -447 0
-7 -13 -25 -41 -49 -67 -75 -88 -92 -108 -122 -127 -137 -158 -166 -172 -192 -201 -209 -229 -233 -242 -262 -268 -285 -294 -301 -309 -326 -336 -353 -357 -368 -377 -387 -404 -416 -428 -442 -454 0
-7 -13 -28 -42 -55 -64 -69 -89 -90 -104 -118 -132 -140 -159 -167 -174 -187 -195 -209 -227 -241 -250 -254 -274 -281 -297 -306 -313 -323 -341 -351 -363 -368 -384 -388 -407 -411 -428 -440 -455 0
-7 -21 -28 -35 -46 -59 -76 -79 -96 -112 -118 -136 -139 -157 -161 -183 -186 -204 -209 -222 -233 -249 -260 -274 -277 -295 -306 -312 -321 -336 -345 -356 -370 -383 -390 -402 -411 -430 -437 -448 0
-7 -21 -25 -39 -52 -67 -76 -88 -90 -102 -115 -132 -141 -152 -168 -177 -186 -205 -211 -219 -241 -246 -260 -265 -278 -289 -299 -309 -327 -340 -349 -359 -374 -381 -387 -408 -421 -433 -439 -454 0
-7 -15 -28 -35 -54 -64 -69 -89 -93 -112 -120 -133 -137 -150 -166 -179 -192 -195 -214 -219 -236 -252 -254 -267 -279 -288 -302 -310 -329 -335 -351 -361 -368 -384 -395 -399 -414 -422 -440 -451 0
-7 -14 -25 -45 -48 -60 -76 -80 -97 -112 -120 -125 -146 -156 -168 -179 -193 -205 -206 -219 -241 -246 -258 -267 -277 -287 -305 -314 -323 -340 -342 -362 -375 -380 -389 -402 -414 -423 -437 -446 0
-7 -13 -25 -37 -53 -67 -69 -85 -92 -101 -121 -135 -144 -159 -164 -177 -191 -203 -208 -229 -240 -245 -262 -265 -277 -297 -301 -318 -320 -338 -351 -360 -367 -384 -397 -407 -416 -423 -440 -447 0
-7 -13 -25 -40 -54 -67 -77 -87 -91 -101 -121 -128 -141 -156 -167 -182 -187 -197 -207 -226 -230 -245 -259 -275 -284 -291 -301 -315 -330 -341 -351 -363 -367 -379 -397 -407 -413 -430 -441 -447 0
-7 -19 -26 -41 -47 -59 -77 -81 -100 -110 -113 -126 -144 -159 -161 -182 -191 -200 -216 -227 -231 -245 -257 -268 -282 -294 -304 -310 -321 -333 -352 -364 -371 -377 -397 -403 -417 -424 -438 -449 0
-7 -22 -28 -35 -52 -65 -78 -82 -90 -111 -117 -127 -144 -150 -164 -173 -184 -201 -207 -218 -238 -245 -262 -272 -283 -291 -305 -311 -329 -339 -343 -358 -365 -381 -387 -403 -418 -433 -438 -455 0
-7 -14 -30 -44 -51 -66 -71 -80 -96 -105 -113 -128 -145 -160 -164 -173 -190 -204 -206 -228 -241 -245 -259 -272 -277 -290 -298 -312 -320 -334 -349 -362 -375 -385 -391 -407 -411 -426 -434 -449 0
-7 -12 -33 -35 -49 -66 -74 -87 -96 -102 -117 -136 -139 -157 -170 -173 -189 -204 -216 -218 -236 -245 -257 -272 -284 -288 -302 -310 -325 -335 -352 -362 -371 -380 -389 -406 -410 -423 -436 -456 0
-7 -14 -30 -39 -46 -66 -71 -89 -99 -105 -120 -133 -137 -152 -164 -181 -185 -205 -213 -224 -238 -245 -258 -265 -286 -290 -301 -314 -322 -341 -342 -361 -367 -384 -391 -399 -414 -432 -444 -456 0
-7 -20 -26 -39 -48 -64 -78 -80 -98 -112 -115 -125 -145 -153 -166 -176 -184 -196 -208 -223 -241 -252 -256 -272 -284 -296 -307 -318 -321 -338 -345 -354 -375 -378 -397 -407 -410 -429 -439 -450 0
-7 -22 -24 -40 -48 -66 -74 -89 -93 -102 -121 -127 -145 -153 -167 -174 -184 -204 -211 -217 -241 -246 -256 -271 -284 -294 -299 -312 -327 -341 -342 -359 -369 -384 -388 -407 -420 -428 -441 -455 0
-7 -21 -25 -41 -48 -60 -78 -80 -91 -101 -120 -133 -147 -156 -171 -172 -190 -203 -215 -226 -233 -244 -256 -267 -283 -291 -299 -309 -330 -341 -343 -363 -369 -385 -393 -407 -413 -423 -439 -446 0
-7 -21 -25 -42 -51 -63 -78 -82 -99 -102 -121 -128 -137 -151 -167 -178 -189 -197 -207 -226 -240 -243 -264 -269 -280 -296 -299 -316 -330 -335 -347 -360 -369 -386 -394 -405 -418 -425 -438 -447 0
-7 -15 -26 -39 -46 -65 -78 -88 -92 -111 -121 -127 -144 -149 -169 -180 -185 -201 -211 -217 -230 -250 -260 -269 -279 -292 -308 -314 -327 -332 -345 -356 -369 -384 -393 -402 -418 -430 -444 -447 0
-7 -20 -33 -42 -56 -58 -71 -86 -90 -111 -115 -128 -141 -156 -170 -173 -186 -202 -216 -225 -233 -251 -254 -269 -282 -294 -301 -309 -324 -332 -349 -363 -371 -379 -388 -401 -419 -429 -439 -448 0
-7 -23 -30 -37 -46 -65 -70 -79 -98 -108 -115 -135 -144 -153 -171 -182 -192 -203 -211 -218 -239 -249 -257 -269 -283 -296 -305 -315 -321 -334 -352 -360 -372 -386 -389 -402 -419 -424 -435 -452 0
-7 -23 -31 -44 -46 -63 -71 -82 -91 -108 -116 -125 -146 -157 -171 -176 -189 -201 -213 -228 -239 -243 -261 -269 -279 -288 -299 -310 -326 -335 -350 -363 -374 -377 -392 -400 -421 -424 -435 -452 0
-7 -23 -29 -42 -55 -60 -69 -86 -92 -111 -117 -126 -143 -149 -171 -177 -186 -204 -213 -227 -232 -248 -259 -269 -280 -291 -298 -309 -322 -336 -344 -363 -372 -381 -391 -408 -411 -429 -436 -445 0
-8 -22 -30 -42 -49 -67 -70 -80 -91 -101 -117 -130 -142 -159 -161 -174 -193 -199 -211 -223 -241 -245 -257 -272 -277 -294 -302 -312 -320 -337 -343 -356 -368 -381 -391 -408 -421 -427 -436 -454 0
-8 -14 -30 -38 -46 -65 -71 -84 -99 -101 -118 -134 -140 -160 -170 -176 -185 -203 -210 -226 -235 -245 -258 -266 -286 -289 -308 -310 -321 -334 -349 -364 -369 -384 -394 -402 -413 -430 -440 -456 0
-8 -16 -30 -38 -55 -62 -70 -79 -98 -104 -124 -126 -145 -151 -167 -176 -186 -204 -216 -228 -232 -242 -262 -269 -281 -297 -298 -317 -323 -337 -349 -364 -373 -377 -398 -408 -419 -430 -441 -446 0
-8 -15 -30 -38 -54 -60 -70 -80 -91 -112 -119 -136 -137 -158 -161 -182 -192 -196 -211 -219 -239 -247 -264 -268 -282 -296 -308 -312 -324 -336 -349 -362 -366 -378 -390 -403 -417 -425 -444 -454 0
-8 -14 -30 -37 -50 -66 -70 -79 -94 -104 -124 -135 -138 -158 -162 -181 -187 -200 -210 -228 -236 -242 -261 -265 -286 -287 -305 -318 -323 -331 -345 -359 -368 -376 -396 -409 -416 -427 -443 -453 0
-8 -16 -30 -44 -48 -59 -68 -87 -100 -103 -122 -130 -142 -150 -161 -176 -192 -200 -214 -228 -237 -249 -256 -266 -279 -296 -301 -315 -324 -333 -351 -361 -373 -381 -390 -400 -415 -433 -443 -453 0
-8 -16 -30 -42 -54 -61 -78 -81 -90 -112 -117 -127 -142 -150 -161 -175 -186 -205 -211 -227 -238 -249 -260 -266 -280 -296 -302 -309 -324 -337 -349 -363 -372 -381 -390 -399 -415 -433 -438 -449 0
-8 -17 -25 -41 -46 -65 -73 -89 -92 -105 -123 -127 -146 -149 -169 -172 -188 -197 -213 -220 -231 -249 -261 -269 -278 -292 -299 -310 -327 -336 -351 -354 -368 -382 -390 -409 -418 -423 -438 -447 0
-8 -21 -26 -41 -55 -67 -69 -81 -95 -102 -117 -133 -137 -154 -170 -174 -190 -200 -216 -221 -231 -243 -261 -272 -280 -290 -298 -314 -330 -338 -349 -364 -365 -380 -393 -409 -410 -423 -434 -448 0
-8 -21 -27 -41 -50 -59 -77 -89 -91 -105 -113 -128 -145 -150 -170 -179 -186 -204 -209 -222 -236 -243 -257 -270 -277 -287 -300 -311 -323 -337 -342 -361 -373 -380 -387 -406 -412 -431 -442 -447 0
-8 -15 -27 -41 -46 -66 -77 -81 -95 -105 -113 -133 -139 -160 -170 -179 -192 -200 -208 -221 -241 -243 -258 -269 -277 -288 -301 -315 -320 -332 -351 -361 -368 -380 -394 -399 -421 -424 -434 -448 0
-8 -17 -34 -41 -47 -66 -70 -84 -99 -101 -117 -133 -141 -150 -165 -176 -186 -195 -209 -227 -237 -243 -263 -273 -277 -287 -306 -315 -324 -334 -349 -363 -372 -376 -394 -406 -421 -429 -441 -448 0
-8 -22 -34 -41 -48 -60 -72 -79 -91 -107 -117 -126 -145 -159 -165 -176 -184 -203 -211 -219 -231 -251 -255 -267 -286 -288 -299 -319 -325 -335 -343 -364 -371 -376 -389 -403 -420 -429 -435 -445 0
-8 -21 -24 -44 -52 -59 -69 -89 -93 -106 -114 -128 -142 -158 -162 -172 -186 -199 -211 -220 -241 -242 -263 -273 -282 -289 -305 -319 -327 -341 -347 -363 -365 -379 -395 -405 -416 -427 -437 -447 0
-8 -14 -24 -36 -52 -65 -72 -81 -93 -107 -122 -126 -147 -160 -163 -182 -187 -195 -213 -222 -231 -249 -261 -267 -286 -289 -308 -313 -321 -337 -353 -358 -371 -382 -398 -405 -414 -428 -440 -451 0
-8 -12 -25 -44 -52 -61 -73 -87 -91 -105 -114 -128 -146 -160 -161 -180 -188 -205 -208 -222 -236 -245 -260 -275 -280 -291 -299 -310 -330 -336 -346 -361 -374 -377 -389 -407 -417 -430 -439 -447 0
-8 -12 -26 -38 -52 -67 -71 -88 -91 -111 -114 -128 -142 -158 -161 -180 -188 -205 -208 -219 -235 -246 -262 -275 -282 -291 -305 -310 -330 -341 -347 -356 -373 -377 -397 -404 -417 -430 -439 -447 0
-8 -15 -34 -38 -52 -65 -69 -84 -92 -112 -118 -134 -137 -150 -161 -180 -186 -196 -213 -227 -235 -245 -263 -270 -282 -289 -302 -316 -326 -332 -353 -356 -369 -378 -397 -405 -418 -430 -444 -454 0
-8 -14 -34 -37 -52 -58 -72 -81 -95 -110 -123 -129 -137 -159 -167 -181 -184 -198 -207 -221 -233 -243 -263 -275 -281 -296 -306 -315 -322 -335 -351 -359 -368 -382 -395 -403 -415 -424 -435 -452 0
-8 -14 -24 -35 -46 -64 -73 -82 -94 -104 -123 -133 -148 -159 -165 -181 -187 -198 -206 -225 -241 -243 -254 -274 -281 -290 -301 -316 -320 -340 -345 -364 -368 -386 -396 -403 -421 -433 -434 -453 0
-8 -14 -26 -38 -54 -64 -76 -80 -100 -112 -116 -129 -137 -155 -167 -183 -185 -196 -209 -227 -238 -247 -253 -274 -281 -291 -302 -319 -329 -331 -349 -362 -369 -386 -393 -405 -420 -433 -436 -451 0
-8 -17 -31 -43 -49 -64 -71 -80 -91 -107 -124 -135 -140 -149 -171 -177 -185 -197 -210 -220 -238 -245 -262 -272 -276 -291 -308 -310 -326 -336 -345 -357 -366 -380 -392 -406 -417 -425 -443 -446 0
-8 -16 -32 -38 -48 -64 -69 -88 -90 -107 -114 -136 -145 -153 -171 -181 -184 -201 -209 -226 -235 -246 -260 -274 -279 -296 -302 -316 -321 -335 -349 -362 -369 -376 -397 -400 -416 -431 -440 -447 0
-8 -17 -24 -42 -50 -64 -78 -88 -92 -105 -115 -134 -138 -153 -163 -174 -184 -201 -207 -229 -233 -252 -261 -272 -284 -294 -299 -315 -327 -331 -352 -359 -368 -384 -395 -407 -416 -428 -444 -445 0
-8 -16 -24 -36 -47 -64 -77 -81 -95 -110 -122 -136 -138 -154 -167 -182 -189 -197 -207 -229 -238 -246 -262 -265 -278 -291 -307 -315 -326 -333 -346 -359 -373 -380 -390 -407 -412 -423 -437 -445 0
-8 -14 -26 -44 -56 -57 -71 -86 -98 -102 -116 -130 -145 -155 -169 -177 -185 -204 -211 -217 -230 -247 -256 -272 -285 -294 -302 -310 -321 -341 -349 -363 -365 -381 -391 -409 -410 -429 -436 -447 0
-8 -12 -31 -37 -55 -67 -73 -86 -92 -104 -114 -134 -139 -154 -169 -179 -186 -199 -206 -222 -232 -252 -258 -273 -280 -289 -304 -310 -322 -340 -347 -361 -374 -386 -394 -402 -410 -424 -441 -452 0
-8 -17 -31 -44 -48 -58 -73 -86 -100 -101 -118 -134 -139 -153 -169 -179 -194 -197 -209 -223 -234 -246 -253 -273 -277 -287 -300 -315 -324 -340 -349 -359 -365 -379 -388 -400 -411 -429 -440 -447 0
-8 -14 -27 -36 -49 -65 -77 -86 -100 -111 -119 -128 -137 -150 -163 -182 -184 -201 -211 -217 -238 -246 -260 -267 -284 -287 -304 -312 -324 -339 -350 -358 -374 -381 -394 -401 -417 -422 -438 -447 0
-8 -21 -24 -38 -46 -65 -78 -86 -92 -105 -115 -135 -142 -153 -170 -174 -192 -199 -211 -220 -236 -245 -260 -275 -277 -290 -305 -312 -330 -331 -352 -360 -371 -377 -393 -409 -418 -425 -440 -453 0
-8 -21 -24 -35 -49 -65 -78 -80 -97 -112 -117 -130 -139 -155 -167 -182 -192 -197 -206 -219 -234 -242 -264 -267 -281 -290 -303 -312 -326 -338 -353 -356 -373 -380 -390 -407 -417 -425 -438 -453 0
-8 -23 -26 -43 -48 -58 -72 -84 -97 -101 -115 -135 -145 -153 -163 -177 -187 -205 -211 -226 -241 -242 -260 -268 -284 -296 -306 -317 -322 -331 -347 -363 -367 -377 -392 -406 -419 -429 -443 -446 0
-8 -13 -27 -36 -53 -62 -77 -79 -97 -103 -124 -128 -141 -159 -163 -177 -189 -195 -208 -229 -237 -246 -262 -266 -285 -289 -300 -309 -328 -339 -344 -364 -375 -385 -394 -408 -415 -429 -434 -456 0
-8 -14 -32 -36 -49 -58 -77 -89 -97 -106 -113 -128 -145 -155 -161 -181 -188 -201 -211 -226 -237 -245 -264 -274 -277 -287 -306 -315 -320 -335 -351 -359 -370 -379 -388 -405 -411 -431 -434 -447 0
-8 -14 -26 -38 -46 -65 -70 -88 -100 -109 -117 -125 -142 -159 -161 -179 -193 -200 -209 -217 -233 -247 -264 -274 -282 -296 -308 -318 -324 -336 -351 -354 -369 -381 -394 -408 -421 -427 -435 -456 0
-8 -18 -26 -42 -55 -61 -78 -81 -90 -109 -117 -126 -139 -159 -163 -174 -184 -200 -207 -225 -240 -251 -264 -267 -280 -291 -299 -318 -329 -337 -342 -355 -372 -379 -387 -402 -419 -429 -436 -450 0
-8 -13 -26 -38 -48 -67 -69 -79 -98 -109 -123 -129 -145 -155 -165 -179 -192 -196 -209 -222 -240 -251 -255 -275 -276 -297 -307 -315 -326 -336 -344 -354 -374 -386 -388 -407 -416 -428 -440 -446 0
-8 -15 -27 -35 -46 -62 -78 -79 -98 -103 -121 -135 -141 -158 -169 -175 -189 -204 -215 -217 -234 -249 -255 -267 -276 -291 -300 -317 -326 -341 -343 -354 -375 -380 -389 -409 -410 -430 -434 -452 0
-8 -13 -27 -35 -56 -59 -69 -82 -95 -101 -121 -134 -147 -158 -164 -175 -193 -199 -215 -226 -241 -242 -255 -265 -282 -291 -308 -317 -320 -333 -344 -364 -373 -381 -391 -408 -421 -422 -442 -454 0
-8 -13 -25 -37 -54 -61 -77 -84 -92 -101 -121 -136 -139 -158 -169 -180 -187 -201 -215 -217 -230 -248 -256 -270 -279 -293 -302 -312 -326 -333 -352 -360 -367 -382 -397 -404 -413 -426 -438 -456 0
-8 -15 -32 -37 -46 -67 -72 -84 -90 -103 -121 -128 -147 -158 -162 -181 -194 -199 -207 -218 -235 -249 -253 -273 -286 -293 -303 -313 -323 -332 -342 -358 -366 -378 -389 -403 -421 -427 -443 -452 0
-8 -14 -33 -37 -50 -58 -71 -79 -92 -106 -121 -136 -145 -159 -167 -175 -187 -205 -211 -221 -239 -242 -264 -265 -278 -287 -306 -315 -322 -339 -342 -359 -373 -376 -398 -404 -413 -423 -439 -451 0
-8 -16 -27 -42 -54 -67 -71 -88 -95 -101 -121 -127 -140 -150 -162 -179 -186 -205 -211 -226 -230 -251 -258 -266 -280 -287 -301 -315 -324 -341 -351 -363 -370 -384 -388 -404 -416 -428 -444 -452 0
-8 -13 -27 -43 -48 -59 -78 -82 -90 -112 -121 -127 -145 -155 -163 -177 -193 -196 -206 -226 -237 -248 -264 -274 -279 -293 -308 -317 -323 -333 -344 -363 -370 -381 -394 -406 -413 -422 -436 -446 0
-8 -12 -26 -44 -50 -67 -69 -81 -98 -102 -121 -130 -145 -153 -165 -174 -193 -203 -206 -226 -241 -245 -257 -274 -281 -294 -302 -315 -329 -332 -349 -363 -371 -385 -391 -405 -421 -424 -436 -456 0
-9 -15 -24 -37 -56 -65 -70 -80 -95 -111 -123 -130 -139 -156 -163 -177 -186 -204 -212 -227 -241 -242 -263 -267 -276 -288 -301 -317 -329 -338 -349 -360 -365 -381 -391 -403 -421 -429 -443 -453 0
-9 -17 -24 -35 -50 -65 -71 -89 -98 -112 -118 -131 -138 -151 -162 -181 -188 -204 -216 -220 -236 -242 -259 -268 -285 -288 -303 -317 -326 -337 -344 -359 -373 -382 -390 -401 -418 -431 -437 -456 0
-9 -22 -24 -37 -48 -62 -74 -87 -98 -104 -124 -130 -138 -151 -164 -181 -185 -204 -216 -221 -236 -242 -256 -268 -283 -291 -299 -313 -325 -333 -349 -358 -372 -381 -395 -403 -420 -431 -435 -453 0
-9 -17 -24 -35 -46 -59 -76 -85 -95 -112 -118 -136 -139 -159 -169 -182 -188 -197 -212 -220 -231 -249 -256 -267 -276 -293 -304 -313 -321 -333 -345 -360 -372 -379 -391 -400 -411 -429 -438 -451 0
-9 -23 -24 -42 -54 -60 -74 -81 -94 -102 -119 -127 -147 -153 -169 -180 -187 -205 -210 -219 -231 -248 -259 -268 -282 -290 -303 -309 -323 -340 -344 -364 -371 -377 -389 -403 -417 -424 -438 -449 0
-9 -15 -24 -43 -49 -61 -78 -87 -91 -112 -119 -128 -143 -150 -163 -172 -192 -197 -215 -223 -231 -248 -259 -267 -284 -295 -302 -314 -325 -338 -345 -364 -372 -380 -389 -402 -419 -423 -435 -456 0
-9 -23 -24 -42 -50 -66 -71 -80 -91 -108 -116 -135 -141 -154 -164 -180 -188 -205 -216 -227 -231 -243 -259 -268 -282 -293 -303 -309 -323 -336 -349 -363 -369 -380 -393 -408 -421 -424 -442 -449 0
-9 -14 -24 -38 -46 -60 -78 -81 -98 -108 -117 -133 -147 -155 -163 -180 -193 -200 -215 -223 -231 -243 -259 -275 -276 -290 -306 -314 -330 -335 -344 -364 -365 -377 -393 -400 -421 -428 -443 -445 0
-9 -18 -24 -35 -46 -65 -71 -88 -94 -108 -122 -127 -141 -160 -164 -175 -188 -202 -206 -228 -231 -244 -261 -275 -278 -291 -307 -315 -321 -341 -345 -354 -370 -382 -394 -404 -414 -431 -436 -445 0
-9 -14 -24 -35 -49 -65 -71 -85 -94 -107 -122 -135 -148 -150 -168 -175 -193 -200 -206 -221 -233 -252 -254 -267 -282 -293 -305 -318 -321 -331 -348 -359 -369 -381 -395 -401 -413 -423 -440 -453 0
-9 -18 -24 -37 -47 -67 -74 -87 -99 -102 -116 -130 -146 -153 -163 -181 -191 -205 -208 -217 -241 -246 -261 -265 -281 -295 -305 -312 -322 -341 -350 -362 -368 -384 -392 -401 -417 -432 -440 -454 0
-9 -21 -24 -44 -49 -67 -70 -80 -95 -110 -117 -130 -139 -156 -163 -172 -186 -202 -216 -220 -232 -252 -254 -273 -282 -292 -304 -312 -324 -338 -344 -354 -374 -381 -390 -403 -421 -427 -443 -450 0
-9 -18 -24 -35 -46 -61 -69 -87 -100 -105 -122 -135 -143 -153 -166 -182 -192 -198 -208 -229 -233 -247 -253 -266 -284 -294 -300 -315 -324 -340 -350 -357 -374 -384 -389 -408 -417 -423 -434 -448 0
-9 -14 -24 -42 -54 -59 -78 -81 -93 -102 -119 -131 -147 -154 -165 -182 -189 -196 -212 -220 -230 -251 -261 -267 -286 -289 -308 -313 -328 -337 -353 -358 -371 -383 -388 -405 -415 -433 -444 -451 0
-9 -18 -25 -37 -56 -58 -69 -85 -92 -110 -122 -135 -137 -154 -168 -183 -187 -195 -211 -221 -239 -242 -255 -267 -285 -294 -304 -309 -326 -333 -346 -360 -374 -381 -389 -409 -410 -423 -437 -454 0
-9 -18 -25 -38 -46 -66 -69 -87 -100 -105 -116 -131 -147 -149 -168 -175 -188 -200 -207 -218 -233 -251 -253 -275 -278 -291 -304 -309 -328 -332 -351 -356 -367 -383 -390 -408 -411 -433 -438 -445 0
-9 -21 -25 -39 -53 -62 -70 -82 -90 -103 -124 -126 -147 -154 -171 -177 -189 -197 -206 -228 -234 -246 -261 -271 -278 -295 -303 -310 -327 -341 -346 -359 -366 -385 -390 -399 -415 -426 -441 -456 0
-9 -22 -25 -39 -54 -58 -76 -83 -95 -105 -113 -128 -148 -151 -162 -177 -189 -197 -210 -220 -241 -250 -261 -266 -284 -289 -299 -319 -327 -333 -347 -355 -374 -381 -387 -400 -414 -432 -443 -445 0
-9 -17 -25 -42 -48 -67 -74 -84 -93 -111 -123 -126 -139 -149 -162 -176 -188 -195 -214 -226 -236 -242 -264 -271 -279 -287 -303 -317 -327 -333 -352 -361 -369 -380 -393 -403 -410 -432 -443 -450 0
-9 -12 -25 -42 -47 -66 -73 -82 -94 -108 -124 -128 -147 -150 -164 -172 -188 -204 -208 -223 -232 -252 -262 -269 -283 -296 -299 -316 -324 -340 -347 -362 -369 -386 -394 -405 -421 -427 -436 -446 0
-9 -13 -25 -43 -47 -65 -74 -84 -93 -106 -113 -135 -140 -160 -170 -176 -191 -198 -210 -218 -236 -248 -264 -273 -277 -297 -301 -317 -326 -337 -344 -360 -371 -377 -389 -409 -419 -430 -442 -445 0
-9 -17 -25 -44 -50 -58 -76 -89 -93 -108 -116 -134 -137 -151 -171 -180 -188 -201 -208 -224 -239 -243 -256 -274 -280 -291 -299 -315 -329 -336 -343 -361 -375 -377 -387 -406 -413 -428 -441 -447 0
-9 -22 -26 -39 -47 -59 -72 -89 -90 -110 -122 -126 -140 -155 -165 -172 -191 -204 -214 -218 -232 -248 -256 -275 -277 -294 -298 -314 -326 -337 -344 -359 -371 -386 -391 -409 -420 -427 -436 -449 0
-9 -18 -26 -38 -51 -59 -78 -88 -90 -111 -114 -127 -145 -152 -163 -178 -193 -197 -206 -226 -232 -248 -264 -274 -280 -293 -308 -318 -320 -334 -344 -362 -369 -385 -394 -405 -421 -426 -444 -453 0
-9 -22 -26 -39 -53 -58 -72 -81 -90 -103 -122 -129 -148 -155 -168 -181 -184 -198 -216 -221 -235 -244 -258 -267 -277 -291 -305 -310 -321 -333 -342 -359 -369 -380 -392 -409 -419 -424 -436 -452 0
-9 -14 -26 -44 -53 -62 -74 -83 -92 -101 -117 -134 -148 -150 -163 -177 -187 -205 -206 -222 -232 -250 -261 -266 -284 -291 -300 -310 -328 -341 -347 -354 -367 -377 -398 -404 -419 -428 -439 -446 0
-9 -18 -26 -39 -48 -58 -72 -87 -91 -101 -122 -136 -147 -153 -168 -183 -187 -198 -214 -222 -234 -252 -255 -266 -276 -294 -300 -309 -324 -337 -350 -364 -367 -377 -397 -406 -412 -433 -434 -454 0
-9 -23 -26 -39 -48 -59 -76 -88 -94 -111 -114 -127 -137 -155 -162 -177 -188 -202 -214 -217 -240 -248 -261 -275 -279 -291 -298 -317 -326 -333 -344 -359 -374 -382 -398 -401 -414 -422 -436 -455 0
-9 -21 -27 -36 -51 -60 -69 -88 -92 -107 -124 -133 -137 -150 -162 -178 -189 -205 -208 -223 -234 -246 -261 -265 -277 -288 -306 -315 -324 -332 -346 -354 -367 -380 -396 -409 -412 -428 -442 -447 0
-9 -12 -27 -43 -47 -59 -76 -85 -93 -107 -116 -135 -138 -160 -162 -177 -191 -197 -210 -228 -230 -246 -264 -273 -281 -294 -301 -314 -326 -333 -343 -358 -371 -385 -389 -409 -419 -424 -442 -449 0
-9 -15 -27 -44 -46 -67 -73 -79 -93 -108 -116 -133 -146 -151 -163 -174 -191 -200 -214 -226 -236 -243 -263 -266 -286 -293 -301 -311 -330 -332 -352 -361 -368 -384 -391 -399 -420 -422 -444 -445 0
-9 -18 -28 -37 -55 -58 -69 -83 -100 -110 -117 -125 -140 -159 -166 -181 -184 -198 -207 -218 -234 -243 -263 -275 -280 -287 -306 -312 -322 -340 -351 -360 -374 -383 -392 -400 -412 -433 -435 -445 0
-9 -15 -28 -37 -54 -61 -69 -87 -99 -102 -119 -125 -140 -160 -171 -180 -184 -201 -208 -222 -234 -245 -259 -274 -278 -289 -298 -316 -322 -336 -353 -361 -366 -383 -392 -405 -415 -425 -435 -451 0
-9 -23 -28 -43 -47 -65 -71 -83 -92 -105 -113 -135 -138 -155 -165 -173 -194 -198 -212 -217 -239 -248 -264 -273 -279 -289 -298 -311 -326 -336 -352 -362 -371 -384 -389 -406 -418 -423 -444 -456 0
-9 -18 -28 -35 -46 -60 -76 -89 -90 -111 -117 -135 -139 -154 -169 -182 -192 -197 -211 -221 -231 -243 -257 -271 -276 -293 -303 -310 -322 -339 -346 -361 -366 -377 -391 -404 -416 -422 -438 -451 0
-9 -17 -28 -35 -56 -65 -71 -84 -93 -111 -115 -135 -137 -150 -170 -173 -187 -197 -210 -224 -236 -242 -261 -269 -284 -288 -307 -314 -329 -336 -342 -355 -371 -377 -389 -404 -419 -430 -444 -456 0
-9 -16 -28 -45 -53 -58 -69 -84 -99 -104 -122 -130 -137 -152 -170 -181 -186 -198 -212 -223 -241 -243 -257 -273 -281 -291 -307 -312 -326 -333 -347 -354 -374 -378 -390 -406 -419 -428 -443 -452 0
-9 -17 -28 -43 -47 -65 -70 -88 -95 -101 -117 -136 -141 -150 -161 -176 -190 -205 -209 -217 -234 -244 -261 -271 -284 -287 -300 -316 -324 -341 -351 -363 -365 -380 -388 -409 -414 -432 -442 -448 0
-9 -13 -31 -45 -48 -59 -73 -82 -91 -106 -113 -134 -147 -156 -165 -182 -193 -197 -212 -229 -231 -245 -261 -265 -280 -289 -308 -315 -321 -338 -353 -358 -373 -378 -391 -407 -413 -432 -435 -455 0
-9 -15 -31 -45 -50 -58 -72 -81 -93 -103 -113 -135 -143 -159 -162 -182 -188 -197 -216 -223 -235 -250 -262 -266 -276 -297 -306 -315 -322 -332 -353 -359 -368 -380 -398 -406 -412 -427 -437 -445 0
-9 -13 -31 -45 -47 -59 -77 -84 -90 -108 -116 -134 -141 -154 -164 -181 -188 -195 -212 -226 -240 -242 -264 -268 -282 -295 -306 -313 -325 -335 -353 -360 -370 -379 -388 -406 -421 -429 -441 -454 0
-9 -14 -31 -38 -50 -59 -77 -79 -98 -105 -116 -126 -143 -160 -163 -178 -184 -204 -211 -229 -232 -242 -257 -274 -282 -287 -302 -319 -325 -331 -350 -364 -368 -385 -392 -408 -417 -433 -444 -447 0
-9 -13 -31 -45 -54 -62 -71 -83 -90 -105 -116 -131 -147 -151 -163 -174 -187 -201 -216 -224 -238 -252 -262 -266 -281 -293 -301 -318 -330 -337 -348 -359 -366 -379 -392 -399 -420 -433 -438 -449 0
-9 -15 -31 -35 -55 -58 -72 -84 -100 -105 -122 -125 -143 -151 -171 -181 -188 -201 -211 -218 -232 -250 -261 -269 -285 -296 -305 -311 -324 -337 -347 -358 -373 -386 -389 -401 -418 -427 -440 -446 0
-9 -18 -31 -45 -55 -57 -71 -82 -92 -108 -114 -134 -139 -154 -170 -174 -185 -199 -211 -229 -231 -246 -259 -273 -284 -296 -304 -311 -324 -335 -352 -354 -371 -383 -390 -399 -418 -425 -442 -449 0
-9 -15 -31 -37 -46 -61 -73 -81 -100 -101 -122 -135 -139 -156 -168 -183 -186 -198 -215 -227 -230 -243 -258 -270 -277 -289 -306 -315 -326 -340 -345 -356 -365 -376 -391 -402 -418 -431 -441 -448 0
-9 -16 -32 -35 -56 -59 -72 -85 -95 -101 -114 -133 -147 -151 -166 -173 -190 -197 -216 -226 -233 -245 -262 -266 -285 -290 -301 -317 -330 -341 -343 -356 -368 -384 -387 -399 -414 -432 -437 -456 0
-9 -15 -32 -38 -55 -62 -70 -87 -90 -102 -118 -136 -139 -156 -168 -183 -185 -195 -207 -218 -234 -245 -262 -274 -282 -289 -305 -309 -329 -337 -351 -356 -371 -379 -387 -400 -411 -432 -438 -452 0
-9 -17 -33 -36 -51 -58 -70 -82 -90 -110 -115 -134 -148 -155 -165 -182 -184 -197 -216 -224 -232 -242 -256 -273 -284 -297 -302 -314 -325 -338 -352 -355 -367 -381 -397 -409 -412 -429 -435 -445 0
-9 -21 -33 -42 -49 -57 -73 -89 -92 -102 -115 -129 -143 -154 -168 -176 -190 -199 -207 -222 -230 -252 -264 -268 -278 -288 -298 -315 -328 -338 -342 -360 -370 -386 -389 -404 -419 -426 -439 -446 0
-9 -13 -33 -42 -47 -60 -70 -89 -94 -101 -117 -134 -143 -155 -166 -172 -186 -201 -210 -217 -241 -252 -261 -269 -284 -295 -307 -316 -325 -336 -344 -360 -375 -386 -388 -402 -418 -428 -442 -454 0
-9 -17 -34 -37 -47 -59 -76 -85 -98 -101 -123 -126 -142 -152 -162 -172 -194 -201 -216 -220 -234 -250 -255 -273 -284 -293 -300 -317 -325 -336 -352 -360 -375 -382 -397 -403 -413 -429 -438 -453 0
-9 -22 -34 -36 -53 -57 -69 -85 -92 -105 -119 -134 -138 -154 -161 -181 -192 -201 -208 -222 -233 -247 -264 -266 -283 -290 -298 -314 -322 -333 -350 -362 -370 -379 -396 -404 -411 -426 -434 -456 0
-9 -22 -34 -39 -50 -59 -72 -80 -92 -105 -115 -125 -145 -159 -169 -175 -186 -202 -206 -221 -235 -242 -258 -267 -280 -294 -298 -313 -322 -338 -353 -357 -369 -381 -395 -399 -415 -422 -434 -449 0
-9 -17 -34 -35 -46 -59 -76 -85 -95 -112 -118 -127 -137 -159 -161 -181 -188 -197 -212 -220 -231 -249 -256 -275 -285 -296 -304 -313 -321 -333 -345 -360 -372 -379 -391 -400 -411 -429 -438 -451 0
-10 -15 -29 -35 -55 -61 -74 -84 -93 -103 -113 -134 -148 -150 -161 -177 -188 -198 -214 -217 -240 -248 -260 -271 -279 -288 -306 -313 -328 -335 -348 -355 -374 -377 -396 -401 -421 -433 -442 -448 0
-10 -13 -29 -38 -54 -59 -73 -88 -92 -105 -124 -125 -139 -156 -170 -177 -186 -196 -209 -224 -237 -247 -262 -275 -280 -295 -301 -314 -322 -338 -351 -364 -367 -377 -395 -407 -416 -424 -434 -448 0
-10 -16 -29 -43 -47 -61 -77 -85 -100 -107 -113 -129 -138 -152 -162 -177 -187 -197 -211 -225 -240 -251 -264 -265 -283 -297 -307 -316 -328 -336 -342 -357 -368 -378 -390 -404 -419 -427 -442 -451 0
-10 -13 -25 -40 -49 -62 -69 -81 -98 -101 -123 -130 -143 -160 -166 -177 -186 -205 -206 -221 -241 -246 -260 -269 -277 -294 -306 -314 -326 -336 -344 -356 -365 -383 -398 -402 -419 -427 -440 -454 0
-10 -19 -24 -40 -54 -60 -69 -83 -100 -112 -119 -128 -138 -153 -163 -176 -184 -205 -208 -223 -239 -248 -264 -266 -283 -292 -299 -315 -327 -339 -345 -354 -375 -379 -389 -402 -420 -427 -435 -456 0
-10 -16 -28 -40 -50 -66 -70 -83 -100 -104 -123 -125 -138 -151 -164 -183 -185 -203 -207 -219 -240 -251 -258 -268 -283 -294 -305 -316 -328 -333 -347 -360 -367 -377 -391 -402 -419 -428 -442 -445 0
-10 -13 -33 -40 -54 -59 -69 -82 -90 -106 -119 -131 -140 -160 -163 -172 -190 -200 -212 -218 -241 -246 -254 -272 -285 -290 -301 -317 -326 -334 -344 -360 -375 -386 -398 -402 -415 -430 -437 -456 0
-10 -23 -28 -40 -55 -59 -69 -79 -93 -111 -114 -130 -142 -152 -164 -175 -194 -199 -213 -229 -232 -250 -262 -268 -282 -291 -305 -317 -329 -336 -352 -356 -365 -379 -391 -408 -419 -426 -441 -449 0
-10 -18 -25 -40 -47 -61 -70 -89 -99 -105 -122 -125 -143 -150 -161 -182 -188 -197 -213 -224 -235 -245 -262 -266 -280 -287 -306 -317 -325 -341 -349 -360 -373 -384 -391 -400 -417 -423 -441 -449 0
-10 -13 -32 -45 -49 -63 -72 -81 -95 -104 -115 -131 -147 -149 -167 -175 -184 -196 -211 -224 -234 -246 -262 -275 -279 -294 -299 -314 -322 -333 -350 -359 -369 -383 -388 -408 -417 -433 -439 -454 0
-10 -12 -27 -39 -47 -63 -77 -89 -92 -111 -114 -129 -141 -155 -163 -177 -193 -197 -213 -228 -232 -248 -264 -271 -276 -296 -299 -319 -323 -339 -348 -361 -371 -382 -395 -405 -421 -432 -444 -453 0
-10 -17 -24 -44 -47 -63 -70 -85 -100 -105 -114 -134 -142 -153 -171 -179 -184 -199 -209 -220 -240 -251 -255 -271 -282 -295 -305 -317 -329 -337 -348 -359 -375 -379 -391 -402 -420 -429 -441 -448 0
-10 -14 -25 -38 -48 -63 -73 -89 -93 -111 -123 -125 -138 -156 -171 -179 -194 -199 -209 -227 -236 -243 -257 -271 -276 -287 -305 -319 -324 -337 -346 -354 -372 -377 -395 -405 -416 -428 -440 -447 0
-10 -17 -28 -37 -54 -63 -69 -81 -95 -104 -123 -125 -138 -160 -162 -179 -190 -199 -215 -220 -241 -250 -253 -266 -279 -288 -307 -319 -321 -332 -347 -361 -368 -380 -387 -402 -419 -424 -443 -452 0
-10 -19 -34 -44 -49 -63 -70 -80 -91 -107 -113 -130 -146 -153 -165 -178 -194 -197 -206 -220 -241 -251 -256 -266 -281 -294 -301 -313 -328 -334 -350 -355 -374 -378 -391 -405 -420 -425 -435 -456 0
-10 -12 -25 -45 -48 -63 -77 -83 -98 -103 -119 -131 -141 -150 -165 -178 -193 -198 -208 -225 -240 -248 -257 -267 -276 -291 -302 -315 -321 -335 -343 -362 -374 -382 -391 -405 -421 -426 -439 -453 0
-10 -13 -25 -43 -47 -63 -72 -79 -93 -107 -123 -136 -140 -156 -171 -177 -188 -198 -213 -218 -240 -251 -257 -271 -276 -297 -306 -317 -326 -335 -344 -360 -374 -377 -391 -406 -417 -428 -439 -446 0
-10 -14 -28 -38 -46 -63 -71 -88 -92 -111 -118 -125 -142 -160 -162 -183 -194 -199 -206 -217 -235 -246 -259 -272 -282 -294 -306 -313 -324 -335 -349 -354 -374 -381 -394 -400 -421 -433 -443 -451 0
-10 -13 -34 -43 -50 -57 -75 -81 -93 -103 -117 -130 -147 -156 -163 -181 -190 -196 -208 -220 -241 -252 -253 -272 -283 -293 -304 -311 -328 -339 -344 -358 -368 -381 -391 -408 -410 -427 -439 -451 0
-10 -16 -34 -38 -47 -66 -75 -79 -99 -108 -117 -126 -142 -152 -167 -176 -191 -195 -208 -222 -232 -245 -263 -275 -284 -289 -308 -316 -325 -341 -352 -362 -366 -379 -389 -406 -410 -427 -441 -454 0
-10 -17 -32 -36 -56 -57 -75 -82 -92 -108 -114 -135 -139 -155 -169 -178 -184 -199 -208 -223 -232 -252 -256 -272 -277 -290 -298 -311 -324 -338 -344 -354 -372 -381 -391 -408 -410 -429 -442 -447 0
-10 -22 -28 -45 -48 -66 -75 -83 -95 -104 -113 -126 -141 -151 -171 -173 -187 -198 -212 -218 -234 -248 -258 -272 -284 -291 -302 -312 -322 -341 -351 -355 -375 -378 -395 -406 -413 -432 -434 -450 0
-10 -14 -25 -45 -51 -60 -75 -83 -95 -112 -113 -134 -138 -152 -164 -175 -193 -205 -212 -225 -241 -243 -258 -270 -276 -290 -299 -319 -327 -339 -348 -361 -365 -381 -395 -407 -414 -428 -438 -452 0
-10 -19 -26 -45 -54 -59 -75 -81 -94 -107 -123 -127 -137 -150 -166 -177 -185 -197 -214 -219 -230 -247 -254 -274 -280 -293 -302 -310 -320 -334 -344 -361 -372 -381 -390 -399 -420 -433 -441 -447 0
-10 -16 -28 -44 -50 -58 -75 -81 -98 -103 -113 -130 -148 -153 -167 -178 -187 -197 -216 -228 -230 -251 -256 -266 -281 -289 -302 -318 -320 -338 -353 -355 -375 -376 -390 -404 -413 -433 -443 -449 0
-10 -21 -28 -38 -48 -59 -68 -82 -96 -103 -124 -126 -147 -155 -161 -183 -190 -200 -209 -224 -234 -242 -260 -268 -285 -295 -303 -319 -323 -336 -344 -364 -366 -377 -388 -406 -416 -425 -443 -454 0
-10 -18 -28 -44 -48 -59 -68 -80 -96 -111 -118 -130 -148 -151 -166 -174 -193 -203 -210 -219 -241 -246 -254 -274 -278 -289 -305 -316 -329 -333 -343 -363 -367 -381 -390 -400 -412 -428 -437 -450 0
-10 -19 -27 -35 -56 -57 -71 -82 -96 -112 -114 -127 -146 -155 -161 -183 -186 -199 -211 -224 -236 -245 -263 -266 -284 -293 -299 -311 -330 -335 -351 -363 -365 -384 -392 -399 -418 -427 -442 -449 0
-10 -13 -33 -37 -50 -66 -71 -85 -96 -106 -116 -125 -139 -160 -167 -172 -186 -196 -212 -219 -234 -246 -263 -275 -281 -291 -302 -312 -325 -334 -349 -354 -372 -376 -397 -399 -415 -429 -440 -455 0
-10 -22 -24 -37 -51 -58 -72 -89 -96 -104 -122 -128 -142 -151 -167 -174 -187 -198 -212 -221 -232 -248 -254 -275 -284 -289 -308 -316 -325 -336 -351 -356 -374 -383 -397 -406 -413 -427 -441 -451 0
-10 -22 -25 -45 -48 -66 -72 -85 -96 -107 -113 -126 -141 -151 -164 -178 -190 -198 -214 -218 -232 -247 -264 -272 -277 -290 -303 -319 -323 -339 -344 -355 -371 -382 -398 -401 -418 -432 -434 -450 0
-10 -16 -32 -38 -48 -57 -73 -89 -96 -102 -115 -129 -147 -156 -171 -182 -184 -203 -212 -218 -239 -249 -256 -267 -280 -294 -303 -312 -321 -332 -350 -364 -369 -378 -393 -400 -421 -428 -435 -452 0
-10 -16 -24 -35 -46 -62 -69 -83 -98 -104 -120 -135 -143 -160 -166 -177 -184 -198 -213 -229 -232 -246 -254 -274 -279 -294 -305 -316 -321 -336 -353 -356 -368 -382 -392 -408 -419 -433 -444 -451 0
-10 -23 -32 -36 -46 -61 -70 -88 -90 -108 -120 -127 -141 -155 -163 -177 -191 -200 -214 -229 -240 -243 -254 -272 -279 -296 -305 -313 -324 -338 -346 -357 -372 -384 -394 -401 -416 -422 -437 -447 0
-10 -21 -28 -38 -46 -60 -77 -89 -90 -103 -120 -129 -142 -152 -165 -182 -186 -200 -212 -219 -237 -246 -253 -275 -278 -288 -305 -313 -328 -335 -353 -360 -371 -386 -394 -404 -420 -433 -438 -447 0
-10 -21 -27 -39 -55 -57 -69 -89 -92 -105 -120 -126 -142 -153 -167 -174 -189 -205 -210 -220 -241 -242 -253 -269 -283 -292 -304 -319 -320 -332 -350 -364 -368 -380 -396 -408 -411 -433 -438 -448 0
-10 -22 -34 -36 -51 -58 -72 -81 -93 -103 -113 -132 -146 -155 -163 -183 -184 -202 -208 -225 -235 -251 -258 -267 -277 -289 -305 -319 -321 -339 -347 -356 -371 -380 -393 -405 -410 -430 -434 -451 0
-10 -21 -25 -39 -47 -62 -70 -88 -90 -106 -124 -132 -141 -150 -166 -176 -194 -201 -209 -225 -234 -243 -255 -266 -276 -291 -301 -310 -320 -337 -349 -357 -374 -384 -397 -402 -413 -430 -441 -454 0
-10 -14 -24 -43 -55 -61 -78 -82 -92 -108 -117 -132 -142 -150 -164 -175 -190 -203 -215 -224 -232 -242 -262 -270 -276 -291 -300 -309 -325 -341 -347 -362 -370 -382 -397 -404 -419 -433 -436 -445 0
-10 -18 -26 -45 -48 -58 -71 -85 -98 -106 -123 -132 -137 -151 -163 -181 -189 -202 -216 -225 -240 -243 -254 -268 -280 -293 -304 -314 -322 -332 -344 -362 -370 -386 -395 -403 -419 -426 -436 -445 0
-10 -17 -28 -37 -54 -57 -70 -80 -99 -104 -124 -127 -144 -155 -162 -172 -190 -199 -207 -227 -237 -244 -263 -271 -286 -291 -305 -319 -321 -341 -343 -363 -365 -376 -398 -405 -416 -429 -444 -453 0
-10 -13 -32 -39 -49 -57 -71 -88 -94 -103 -124 -128 -144 -155 -167 -172 -189 -197 -214 -219 -241 -242 -259 -270 -285 -289 -305 -315 -320 -341 -344 -362 -375 -376 -395 -400 -414 -432 -442 -447 0
-10 -14 -32 -39 -50 -59 -78 -88 -90 -105 -114 -130 -144 -152 -163 -181 -191 -205 -206 -220 -232 -248 -264 -272 -282 -293 -301 -317 -326 -337 -344 -354 -368 -381 -387 -409 -421 -432 -443 -449 0
-10 -16 -33 -45 -46 -61 -73 -79 -92 -108 -115 -134 -144 -153 -170 -179 -190 -202 -209 -227 -231 -246 -255 -275 -281 -294 -298 -315 -323 -340 -349 -354 -368 -377 -398 -404 -416 -430 -434 -449 0
-10 -17 -34 -35 -51 -66 -71 -88 -91 -101 -118 -126 -144 -155 -162 -183 -190 -199 -206 -217 -239 -250 -255 -272 -285 -294 -304 -311 -324 -341 -349 -363 -367 -381 -397 -404 -413 -427 -437 -454 0
-11 -13 -28 -36 -54 -63 -76 -83 -97 -107 -123 -128 -141 -151 -163 -176 -194 -204 -207 -227 -235 -244 -258 -272 -283 -293 -303 -319 -321 -334 -352 -362 -370 -383 -395 -406 -416 -432 -441 -452 0
-11 -13 -30 -42 -54 -60 -73 -81 -96 -106 -123 -129 -143 -151 -164 -174 -193 -204 -212 -225 -236 -245 -263 -270 -277 -290 -299 -319 -324 -339 -352 -361 -366 -381 -388 -407 -417 -428 -444 -452 0
-11 -13 -28 -37 -50 -63 -70 -87 -98 -109 -115 -129 -147 -154 -164 -179 -190 -204 -214 -217 -234 -252 -255 -265 -283 -288 -307 -309 -329 -340 -348 -359 -375 -386 -391 -402 -412 -431 -444 -453 0
-11 -13 -26 -41 -53 -61 -70 -88 -91 -104 -122 -132 -142 -156 -168 -181 -184 -196 -209 -223 -234 -246 -260 -274 -279 -288 -307 -314 -325 -340 -349 -364 -371 -385 -397 -403 -415 -431 -444 -456 0
-11 -13 -26 -43 -48 -59 -73 -85 -94 -110 -123 -132 -139 -157 -167 -176 -184 -196 -210 -226 -235 -245 -255 -274 -284 -293 -304 -318 -321 -333 -345 -354 -372 -376 -396 -403 -415 -432 -442 -450 0
-11 -21 -28 -44 -46 -61 -76 -84 -96 -105 -121 -129 -139 -152 -164 -175 -190 -204 -212 -221 -232 -244 -260 -265 -285 -288 -303 -309 -328 -336 -344 -364 -370 -377 -388 -402 -418 -431 -440 -456 0
-11 -20 -30 -43 -46 -61 -73 -82 -92 -104 -123 -133 -139 -156 -165 -175 -187 -197 -213 -224 -232 -251 -263 -265 -277 -288 -298 -309 -326 -340 -348 -357 -372 -386 -394 -405 -410 -425 -437 -453 0
-11 -20 -32 -35 -46 -61 -73 -87 -93 -103 -121 -131 -147 -153 -170 -181 -187 -203 -212 -222 -236 -247 -256 -266 -279 -293 -302 -312 -322 -332 -348 -362 -367 -377 -393 -405 -416 -433 -439 -448 0
-11 -15 -29 -43 -46 -61 -69 -88 -95 -105 -121 -128 -143 -158 -163 -181 -184 -200 -207 -226 -236 -243 -255 -271 -285 -295 -303 -313 -322 -333 -343 -362 -374 -382 -391 -408 -410 -426 -434 -448 0
-11 -17 -28 -42 -46 -63 -77 -86 -95 -105 -122 -127 -140 -153 -163 -180 -187 -197 -215 -224 -239 -249 -254 -272 -276 -291 -300 -313 -321 -341 -343 -361 -375 -383 -398 -404 -411 -425 -444 -451 0
-11 -14 -29 -44 -46 -61 -73 -85 -93 -109 -117 -134 -140 -158 -164 -175 -185 -202 -210 -226 -239 -252 -253 -266 -282 -294 -299 -318 -327 -336 -348 -355 -374 -377 -398 -402 -419 -430 -439 -449 0
-11 -14 -33 -39 -52 -58 -76 -82 -96 -104 -122 -130 -142 -152 -161 -181 -188 -204 -213 -219 -240 -248 -257 -271 -282 -295 -306 -313 -325 -335 -351 -360 -370 -382 -398 -405 -414 -429 -440 -456 0
-11 -14 -26 -43 -50 -58 -70 -85 -99 -110 -117 -130 -144 -157 -170 -181 -192 -203 -210 -222 -232 -242 -257 -269 -282 -287 -307 -309 -325 -338 -349 -363 -374 -381 -390 -403 -412 -427 -437 -456 0
-11 -21 -26 -38 -52 -58 -74 -84 -96 -110 -116 -135 -139 -153 -165 -176 -189 -202 -215 -225 -238 -242 -256 -265 -279 -287 -305 -315 -322 -340 -353 -360 -371 -376 -397 -405 -418 -423 -435 -451 0
-11 -19 -31 -35 -49 -58 -72 -86 -95 -112 -117 -127 -144 -159 -164 -177 -193 -202 -209 -217 -234 -243 -253 -274 -279 -293 -300 -319 -323 -332 -344 -356 -373 -377 -387 -406 -417 -431 -436 -454 0
-11 -16 -28 -36 -54 -64 -70 -80 -99 -110 -119 -132 -139 -154 -166 -180 -184 -201 -207 -227 -232 -246 -260 -274 -279 -296 -303 -316 -323 -336 -349 -363 -366 -385 -392 -403 -421 -424 -435 -454 0
-11 -20 -32 -38 -52 -59 -73 -80 -92 -110 -115 -135 -141 -156 -165 -174 -191 -195 -215 -220 -237 -251 -256 -267 -277 -287 -305 -312 -320 -338 -351 -360 -375 -376 -393 -402 -413 -433 -434 -450 0
-11 -22 -31 -40 -50 -59 -69 -82 -94 -102 -121 -128 -143 -159 -167 -181 -185 -202 -211 -219 -231 -247 -255 -265 -280 -287 -302 -315 -327 -341 -345 -354 -368 -386 -387 -401 -417 -431 -434 -447 0
-11 -17 -25 -37 -47 -62 -74 -87 -98 -102 -116 -135 -144 -157 -167 -180 -184 -198 -208 -217 -234 -246 -262 -274 -278 -295 -305 -310 -325 -341 -350 -356 -367 -384 -397 -400 -417 -430 -441 -454 0
-11 -18 -26 -40 -48 -66 -72 -85 -97 -102 -123 -133 -139 -153 -166 -182 -192 -196 -208 -219 -237 -251 -257 -270 -276 -296 -305 -314 -325 -334 -350 -357 -372 -376 -397 -405 -414 -428 -437 -454 0
-11 -20 -31 -36 -49 -62 -77 -86 -98 -106 -114 -127 -143 -152 -162 -181 -189 -202 -206 -225 -234 -252 -258 -268 -280 -292 -300 -313 -324 -341 -350 -357 -365 -383 -388 -404 -415 -422 -434 -451 0
-11 -20 -27 -41 -49 -66 -71 -88 -91 -108 -114 -128 -145 -155 -166 -173 -190 -196 -213 -219 -239 -252 -255 -270 -276 -297 -305 -310 -329 -335 -342 -362 -371 -376 -389 -404 -420 -432 -434 -453 0
-11 -21 -30 -36 -51 -63 -70 -84 -93 -112 -114 -127 -145 -154 -166 -174 -194 -195 -207 -220 -236 -247 -261 -272 -278 -290 -305 -311 -329 -335 -343 -363 -365 -384 -388 -403 -416 -423 -441 -452 0
-11 -21 -28 -36 -53 -62 -75 -82 -94 -103 -121 -126 -147 -152 -165 -182 -184 -202 -208 -219 -237 -248 -257 -273 -278 -288 -306 -314 -323 -341 -344 -359 -373 -378 -398 -405 -410 -430 -436 -451 0
-11 -14 -25 -41 -49 -62 -75 -81 -94 -108 -123 -126 -145 -159 -170 -175 -193 -201 -212 -225 -233 -248 -254 -270 -278 -296 -299 -309 -328 -336 -350 -362 -369 -385 -395 -402 -413 -428 -441 -446 0
-11 -21 -26 -35 -51 -63 -72 -84 -97 -112 -117 -126 -139 -158 -166 -176 -188 -204 -215 -219 -236 -242 -253 -267 -279 -288 -303 -310 -329 -338 -349 -363 -367 -377 -395 -403 -417 -430 -437 -446 0
-11 -20 -32 -41 -53 -62 -74 -83 -91 -105 -123 -126 -140 -153 -170 -179 -193 -197 -209 -222 -236 -250 -257 -270 -277 -294 -301 -310 -321 -334 -349 -359 -368 -379 -392 -404 -415 -424 -435 -449 0
-11 -16 -30 -42 -55 -59 -74 -84 -96 -103 -122 -126 -140 -154 -164 -180 -184 -196 -213 -224 -240 -249 -262 -268 -278 -296 -302 -318 -323 -333 -348 -361 -369 -378 -397 -401 -419 -427 -436 -454 0
-11 -21 -30 -39 -49 -65 -73 -88 -92 -106 -117 -126 -144 -151 -163 -177 -192 -202 -207 -220 -237 -252 -255 -267 -281 -288 -301 -319 -326 -332 -352 -364 -368 -377 -398 -402 -419 -422 -434 -454 0
-11 -14 -25 -37 -48 -63 -76 -85 -95 -112 -121 -126 -146 -154 -168 -179 -194 -199 -211 -227 -232 -246 -258 -265 -277 -295 -303 -317 -330 -332 -346 -359 -370 -386 -389 -402 -418 -433 -441 -454 0
-11 -15 -29 -43 -49 -64 -77 -85 -94 -107 -115 -133 -138 -152 -166 -180 -184 -197 -210 -219 -232 -249 -262 -272 -285 -297 -304 -313 -323 -340 -342 -358 -368 -384 -387 -404 -417 -424 -443 -446 0
-11 -17 -25 -43 -47 -63 -76 -82 -97 -107 -123 -131 -138 -152 -161 -177 -187 -205 -213 -224 -234 -245 -261 -268 -284 -294 -303 -313 -320 -333 -352 -357 -371 -377 -395 -403 -420 -427 -442 -453 0
-11 -16 -32 -36 -50 -64 -77 -83 -91 -108 -116 -132 -138 -158 -161 -178 -187 -201 -209 -227 -238 -248 -254 -274 -279 -291 -298 -311 -330 -336 -346 -357 -372 -383 -392 -405 -411 -433 -442 -447 0
-11 -15 -32 -35 -50 -64 -74 -88 -94 -103 -118 -132 -138 -158 -162 -180 -188 -195 -214 -217 -240 -248 -255 -271 -282 -291 -301 -313 -330 -333 -342 -355 -370 -384 -394 -404 -421 -422 -444 -451 0
