p cnf 456 10207
1 2 3 4 5 6 7 8 9 10 11 0
-1 -2 0
-1 -3 0
-1 -4 0
-1 -5 0
-1 -6 0
-1 -7 0
-1 -8 0
-1 -9 0
-1 -10 0
-1 -11 0
-2 -3 0
-2 -4 0
-2 -5 0
-2 -6 0
-2 -7 0
-2 -8 0
-2 -9 0
-2 -10 0
-2 -11 0
-3 -4 0
-3 -5 0
-3 -6 0
-3 -7 0
-3 -8 0
-3 -9 0
-3 -10 0
-3 -11 0
-4 -5 0
-4 -6 0
-4 -7 0
-4 -8 0
-4 -9 0
-4 -10 0
-4 -11 0
-5 -6 0
-5 -7 0
-5 -8 0
-5 -9 0
-5 -10 0
-5 -11 0
-6 -7 0
-6 -8 0
-6 -9 0
-6 -10 0
-6 -11 0
-7 -8 0
-7 -9 0
-7 -10 0
-7 -11 0
-8 -9 0
-8 -10 0
-8 -11 0
-9 -10 0
-9 -11 0
-10 -11 0
12 13 14 15 16 17 18 19 20 21 22 0
-12 -13 0
-12 -14 0
-12 -15 0
-12 -16 0
-12 -17 0
-12 -18 0
-12 -19 0
-12 -20 0
-12 -21 0
-12 -22 0
-13 -14 0
-13 -15 0
-13 -16 0
-13 -17 0
-13 -18 0
-13 -19 0
-13 -20 0
-13 -21 0
-13 -22 0
-14 -15 0
-14 -16 0
-14 -17 0
-14 -18 0
-14 -19 0
-14 -20 0
-14 -21 0
-14 -22 0
-15 -16 0
-15 -17 0
-15 -18 0
-15 -19 0
-15 -20 0
-15 -21 0
-15 -22 0
-16 -17 0
-16 -18 0
-16 -19 0
-16 -20 0
-16 -21 0
-16 -22 0
-17 -18 0
-17 -19 0
-17 -20 0
-17 -21 0
-17 -22 0
-18 -19 0
-18 -20 0
-18 -21 0
-18 -22 0
-19 -20 0
-19 -21 0
-19 -22 0
-20 -21 0
-20 -22 0
-21 -22 0
23 24 25 26 27 28 29 30 31 32 33 0
-23 -24 0
-23 -25 0
-23 -26 0
-23 -27 0
-23 -28 0
-23 -29 0
-23 -30 0
-23 -31 0
-23 -32 0
-23 -33 0
-24 -25 0
-24 -26 0
-24 -27 0
-24 -28 0
-24 -29 0
-24 -30 0
-24 -31 0
-24 -32 0
-24 -33 0
-25 -26 0
-25 -27 0
-25 -28 0
-25 -29 0
-25 -30 0
-25 -31 0
-25 -32 0
-25 -33 0
-26 -27 0
-26 -28 0
-26 -29 0
-26 -30 0
-26 -31 0
-26 -32 0
-26 -33 0
-27 -28 0
-27 -29 0
-27 -30 0
-27 -31 0
-27 -32 0
-27 -33 0
-28 -29 0
-28 -30 0
-28 -31 0
-28 -32 0
-28 -33 0
-29 -30 0
-29 -31 0
-29 -32 0
-29 -33 0
-30 -31 0
-30 -32 0
-30 -33 0
-31 -32 0
-31 -33 0
-32 -33 0
34 35 36 37 38 39 40 41 42 43 44 0
-34 -35 0
-34 -36 0
-34 -37 0
-34 -38 0
-34 -39 0
-34 -40 0
-34 -41 0
-34 -42 0
-34 -43 0
-34 -44 0
-35 -36 0
-35 -37 0
-35 -38 0
-35 -39 0
-35 -40 0
-35 -41 0
-35 -42 0
-35 -43 0
-35 -44 0
-36 -37 0
-36 -38 0
-36 -39 0
-36 -40 0
-36 -41 0
-36 -42 0
-36 -43 0
-36 -44 0
-37 -38 0
-37 -39 0
-37 -40 0
-37 -41 0
-37 -42 0
-37 -43 0
-37 -44 0
-38 -39 0
-38 -40 0
-38 -41 0
-38 -42 0
-38 -43 0
-38 -44 0
-39 -40 0
-39 -41 0
-39 -42 0
-39 -43 0
-39 -44 0
-40 -41 0
-40 -42 0
-40 -43 0
-40 -44 0
-41 -42 0
-41 -43 0
-41 -44 0
-42 -43 0
-42 -44 0
-43 -44 0
45 46 47 48 49 50 51 52 53 54 55 0
-45 -46 0
-45 -47 0
-45 -48 0
-45 -49 0
-45 -50 0
-45 -51 0
-45 -52 0
-45 -53 0
-45 -54 0
-45 -55 0
-46 -47 0
-46 -48 0
-46 -49 0
-46 -50 0
-46 -51 0
-46 -52 0
-46 -53 0
-46 -54 0
-46 -55 0
-47 -48 0
-47 -49 0
-47 -50 0
-47 -51 0
-47 -52 0
-47 -53 0
-47 -54 0
-47 -55 0
-48 -49 0
-48 -50 0
-48 -51 0
-48 -52 0
-48 -53 0
-48 -54 0
-48 -55 0
-49 -50 0
-49 -51 0
-49 -52 0
-49 -53 0
-49 -54 0
-49 -55 0
-50 -51 0
-50 -52 0
-50 -53 0
-50 -54 0
-50 -55 0
-51 -52 0
-51 -53 0
-51 -54 0
-51 -55 0
-52 -53 0
-52 -54 0
-52 -55 0
-53 -54 0
-53 -55 0
-54 -55 0
56 57 58 59 60 61 62 63 64 65 66 0
-56 -57 0
-56 -58 0
-56 -59 0
-56 -60 0
-56 -61 0
-56 -62 0
-56 -63 0
-56 -64 0
-56 -65 0
-56 -66 0
-57 -58 0
-57 -59 0
-57 -60 0
-57 -61 0
-57 -62 0
-57 -63 0
-57 -64 0
-57 -65 0
-57 -66 0
-58 -59 0
-58 -60 0
-58 -61 0
-58 -62 0
-58 -63 0
-58 -64 0
-58 -65 0
-58 -66 0
-59 -60 0
-59 -61 0
-59 -62 0
-59 -63 0
-59 -64 0
-59 -65 0
-59 -66 0
-60 -61 0
-60 -62 0
-60 -63 0
-60 -64 0
-60 -65 0
-60 -66 0
-61 -62 0
-61 -63 0
-61 -64 0
-61 -65 0
-61 -66 0
-62 -63 0
-62 -64 0
-62 -65 0
-62 -66 0
-63 -64 0
-63 -65 0
-63 -66 0
-64 -65 0
-64 -66 0
-65 -66 0
67 68 69 70 71 72 73 74 75 76 77 78 0
-67 -68 0
-67 -69 0
-67 -70 0
-67 -71 0
-67 -72 0
-67 -73 0
-67 -74 0
-67 -75 0
-67 -76 0
-67 -77 0
-67 -78 0
-68 -69 0
-68 -70 0
-68 -71 0
-68 -72 0
-68 -73 0
-68 -74 0
-68 -75 0
-68 -76 0
-68 -77 0
-68 -78 0
-69 -70 0
-69 -71 0
-69 -72 0
-69 -73 0
-69 -74 0
-69 -75 0
-69 -76 0
-69 -77 0
-69 -78 0
-70 -71 0
-70 -72 0
-70 -73 0
-70 -74 0
-70 -75 0
-70 -76 0
-70 -77 0
-70 -78 0
-71 -72 0
-71 -73 0
-71 -74 0
-71 -75 0
-71 -76 0
-71 -77 0
-71 -78 0
-72 -73 0
-72 -74 0
-72 -75 0
-72 -76 0
-72 -77 0
-72 -78 0
-73 -74 0
-73 -75 0
-73 -76 0
-73 -77 0
-73 -78 0
-74 -75 0
-74 -76 0
-74 -77 0
-74 -78 0
-75 -76 0
-75 -77 0
-75 -78 0
-76 -77 0
-76 -78 0
-77 -78 0
79 80 81 82 83 84 85 86 87 88 89 0
-79 -80 0
-79 -81 0
-79 -82 0
-79 -83 0
-79 -84 0
-79 -85 0
-79 -86 0
-79 -87 0
-79 -88 0
-79 -89 0
-80 -81 0
-80 -82 0
-80 -83 0
-80 -84 0
-80 -85 0
-80 -86 0
-80 -87 0
-80 -88 0
-80 -89 0
-81 -82 0
-81 -83 0
-81 -84 0
-81 -85 0
-81 -86 0
-81 -87 0
-81 -88 0
-81 -89 0
-82 -83 0
-82 -84 0
-82 -85 0
-82 -86 0
-82 -87 0
-82 -88 0
-82 -89 0
-83 -84 0
-83 -85 0
-83 -86 0
-83 -87 0
-83 -88 0
-83 -89 0
-84 -85 0
-84 -86 0
-84 -87 0
-84 -88 0
-84 -89 0
-85 -86 0
-85 -87 0
-85 -88 0
-85 -89 0
-86 -87 0
-86 -88 0
-86 -89 0
-87 -88 0
-87 -89 0
-88 -89 0
90 91 92 93 94 95 96 97 98 99 100 101 0
-90 -91 0
-90 -92 0
-90 -93 0
-90 -94 0
-90 -95 0
-90 -96 0
-90 -97 0
-90 -98 0
-90 -99 0
-90 -100 0
-90 -101 0
-91 -92 0
-91 -93 0
-91 -94 0
-91 -95 0
-91 -96 0
-91 -97 0
-91 -98 0
-91 -99 0
-91 -100 0
-91 -101 0
-92 -93 0
-92 -94 0
-92 -95 0
-92 -96 0
-92 -97 0
-92 -98 0
-92 -99 0
-92 -100 0
-92 -101 0
-93 -94 0
-93 -95 0
-93 -96 0
-93 -97 0
-93 -98 0
-93 -99 0
-93 -100 0
-93 -101 0
-94 -95 0
-94 -96 0
-94 -97 0
-94 -98 0
-94 -99 0
-94 -100 0
-94 -101 0
-95 -96 0
-95 -97 0
-95 -98 0
-95 -99 0
-95 -100 0
-95 -101 0
-96 -97 0
-96 -98 0
-96 -99 0
-96 -100 0
-96 -101 0
-97 -98 0
-97 -99 0
-97 -100 0
-97 -101 0
-98 -99 0
-98 -100 0
-98 -101 0
-99 -100 0
-99 -101 0
-100 -101 0
102 103 104 105 106 107 108 109 110 111 112 0
-102 -103 0
-102 -104 0
-102 -105 0
-102 -106 0
-102 -107 0
-102 -108 0
-102 -109 0
-102 -110 0
-102 -111 0
-102 -112 0
-103 -104 0
-103 -105 0
-103 -106 0
-103 -107 0
-103 -108 0
-103 -109 0
-103 -110 0
-103 -111 0
-103 -112 0
-104 -105 0
-104 -106 0
-104 -107 0
-104 -108 0
-104 -109 0
-104 -110 0
-104 -111 0
-104 -112 0
-105 -106 0
-105 -107 0
-105 -108 0
-105 -109 0
-105 -110 0
-105 -111 0
-105 -112 0
-106 -107 0
-106 -108 0
-106 -109 0
-106 -110 0
-106 -111 0
-106 -112 0
-107 -108 0
-107 -109 0
-107 -110 0
-107 -111 0
-107 -112 0
-108 -109 0
-108 -110 0
-108 -111 0
-108 -112 0
-109 -110 0
-109 -111 0
-109 -112 0
-110 -111 0
-110 -112 0
-111 -112 0
113 114 115 116 117 118 119 120 121 122 123 124 0
-113 -114 0
-113 -115 0
-113 -116 0
-113 -117 0
-113 -118 0
-113 -119 0
-113 -120 0
-113 -121 0
-113 -122 0
-113 -123 0
-113 -124 0
-114 -115 0
-114 -116 0
-114 -117 0
-114 -118 0
-114 -119 0
-114 -120 0
-114 -121 0
-114 -122 0
-114 -123 0
-114 -124 0
-115 -116 0
-115 -117 0
-115 -118 0
-115 -119 0
-115 -120 0
-115 -121 0
-115 -122 0
-115 -123 0
-115 -124 0
-116 -117 0
-116 -118 0
-116 -119 0
-116 -120 0
-116 -121 0
-116 -122 0
-116 -123 0
-116 -124 0
-117 -118 0
-117 -119 0
-117 -120 0
-117 -121 0
-117 -122 0
-117 -123 0
-117 -124 0
-118 -119 0
-118 -120 0
-118 -121 0
-118 -122 0
-118 -123 0
-118 -124 0
-119 -120 0
-119 -121 0
-119 -122 0
-119 -123 0
-119 -124 0
-120 -121 0
-120 -122 0
-120 -123 0
-120 -124 0
-121 -122 0
-121 -123 0
-121 -124 0
-122 -123 0
-122 -124 0
-123 -124 0
125 126 127 128 129 130 131 132 133 134 135 136 0
-125 -126 0
-125 -127 0
-125 -128 0
-125 -129 0
-125 -130 0
-125 -131 0
-125 -132 0
-125 -133 0
-125 -134 0
-125 -135 0
-125 -136 0
-126 -127 0
-126 -128 0
-126 -129 0
-126 -130 0
-126 -131 0
-126 -132 0
-126 -133 0
-126 -134 0
-126 -135 0
-126 -136 0
-127 -128 0
-127 -129 0
-127 -130 0
-127 -131 0
-127 -132 0
-127 -133 0
-127 -134 0
-127 -135 0
-127 -136 0
-128 -129 0
-128 -130 0
-128 -131 0
-128 -132 0
-128 -133 0
-128 -134 0
-128 -135 0
-128 -136 0
-129 -130 0
-129 -131 0
-129 -132 0
-129 -133 0
-129 -134 0
-129 -135 0
-129 -136 0
-130 -131 0
-130 -132 0
-130 -133 0
-130 -134 0
-130 -135 0
-130 -136 0
-131 -132 0
-131 -133 0
-131 -134 0
-131 -135 0
-131 -136 0
-132 -133 0
-132 -134 0
-132 -135 0
-132 -136 0
-133 -134 0
-133 -135 0
-133 -136 0
-134 -135 0
-134 -136 0
-135 -136 0
137 138 139 140 141 142 143 144 145 146 147 148 0
-137 -138 0
-137 -139 0
-137 -140 0
-137 -141 0
-137 -142 0
-137 -143 0
-137 -144 0
-137 -145 0
-137 -146 0
-137 -147 0
-137 -148 0
-138 -139 0
-138 -140 0
-138 -141 0
-138 -142 0
-138 -143 0
-138 -144 0
-138 -145 0
-138 -146 0
-138 -147 0
-138 -148 0
-139 -140 0
-139 -141 0
-139 -142 0
-139 -143 0
-139 -144 0
-139 -145 0
-139 -146 0
-139 -147 0
-139 -148 0
-140 -141 0
-140 -142 0
-140 -143 0
-140 -144 0
-140 -145 0
-140 -146 0
-140 -147 0
-140 -148 0
-141 -142 0
-141 -143 0
-141 -144 0
-141 -145 0
-141 -146 0
-141 -147 0
-141 -148 0
-142 -143 0
-142 -144 0
-142 -145 0
-142 -146 0
-142 -147 0
-142 -148 0
-143 -144 0
-143 -145 0
-143 -146 0
-143 -147 0
-143 -148 0
-144 -145 0
-144 -146 0
-144 -147 0
-144 -148 0
-145 -146 0
-145 -147 0
-145 -148 0
-146 -147 0
-146 -148 0
-147 -148 0
149 150 151 152 153 154 155 156 157 158 159 0
-149 -150 0
-149 -151 0
-149 -152 0
-149 -153 0
-149 -154 0
-149 -155 0
-149 -156 0
-149 -157 0
-149 -158 0
-149 -159 0
-150 -151 0
-150 -152 0
-150 -153 0
-150 -154 0
-150 -155 0
-150 -156 0
-150 -157 0
-150 -158 0
-150 -159 0
-151 -152 0
-151 -153 0
-151 -154 0
-151 -155 0
-151 -156 0
-151 -157 0
-151 -158 0
-151 -159 0
-152 -153 0
-152 -154 0
-152 -155 0
-152 -156 0
-152 -157 0
-152 -158 0
-152 -159 0
-153 -154 0
-153 -155 0
-153 -156 0
-153 -157 0
-153 -158 0
-153 -159 0
-154 -155 0
-154 -156 0
-154 -157 0
-154 -158 0
-154 -159 0
-155 -156 0
-155 -157 0
-155 -158 0
-155 -159 0
-156 -157 0
-156 -158 0
-156 -159 0
-157 -158 0
-157 -159 0
-158 -159 0
160 161 162 163 164 165 166 167 168 169 170 171 0
-160 -161 0
-160 -162 0
-160 -163 0
-160 -164 0
-160 -165 0
-160 -166 0
-160 -167 0
-160 -168 0
-160 -169 0
-160 -170 0
-160 -171 0
-161 -162 0
-161 -163 0
-161 -164 0
-161 -165 0
-161 -166 0
-161 -167 0
-161 -168 0
-161 -169 0
-161 -170 0
-161 -171 0
-162 -163 0
-162 -164 0
-162 -165 0
-162 -166 0
-162 -167 0
-162 -168 0
-162 -169 0
-162 -170 0
-162 -171 0
-163 -164 0
-163 -165 0
-163 -166 0
-163 -167 0
-163 -168 0
-163 -169 0
-163 -170 0
-163 -171 0
-164 -165 0
-164 -166 0
-164 -167 0
-164 -168 0
-164 -169 0
-164 -170 0
-164 -171 0
-165 -166 0
-165 -167 0
-165 -168 0
-165 -169 0
-165 -170 0
-165 -171 0
-166 -167 0
-166 -168 0
-166 -169 0
-166 -170 0
-166 -171 0
-167 -168 0
-167 -169 0
-167 -170 0
-167 -171 0
-168 -169 0
-168 -170 0
-168 -171 0
-169 -170 0
-169 -171 0
-170 -171 0
172 173 174 175 176 177 178 179 180 181 182 0
-172 -173 0
-172 -174 0
-172 -175 0
-172 -176 0
-172 -177 0
-172 -178 0
-172 -179 0
-172 -180 0
-172 -181 0
-172 -182 0
-173 -174 0
-173 -175 0
-173 -176 0
-173 -177 0
-173 -178 0
-173 -179 0
-173 -180 0
-173 -181 0
-173 -182 0
-174 -175 0
-174 -176 0
-174 -177 0
-174 -178 0
-174 -179 0
-174 -180 0
-174 -181 0
-174 -182 0
-175 -176 0
-175 -177 0
-175 -178 0
-175 -179 0
-175 -180 0
-175 -181 0
-175 -182 0
-176 -177 0
-176 -178 0
-176 -179 0
-176 -180 0
-176 -181 0
-176 -182 0
-177 -178 0
-177 -179 0
-177 -180 0
-177 -181 0
-177 -182 0
-178 -179 0
-178 -180 0
-178 -181 0
-178 -182 0
-179 -180 0
-179 -181 0
-179 -182 0
-180 -181 0
-180 -182 0
-181 -182 0
183 184 185 186 187 188 189 190 191 192 193 0
-183 -184 0
-183 -185 0
-183 -186 0
-183 -187 0
-183 -188 0
-183 -189 0
-183 -190 0
-183 -191 0
-183 -192 0
-183 -193 0
-184 -185 0
-184 -186 0
-184 -187 0
-184 -188 0
-184 -189 0
-184 -190 0
-184 -191 0
-184 -192 0
-184 -193 0
-185 -186 0
-185 -187 0
-185 -188 0
-185 -189 0
-185 -190 0
-185 -191 0
-185 -192 0
-185 -193 0
-186 -187 0
-186 -188 0
-186 -189 0
-186 -190 0
-186 -191 0
-186 -192 0
-186 -193 0
-187 -188 0
-187 -189 0
-187 -190 0
-187 -191 0
-187 -192 0
-187 -193 0
-188 -189 0
-188 -190 0
-188 -191 0
-188 -192 0
-188 -193 0
-189 -190 0
-189 -191 0
-189 -192 0
-189 -193 0
-190 -191 0
-190 -192 0
-190 -193 0
-191 -192 0
-191 -193 0
-192 -193 0
194 195 196 197 198 199 200 201 202 203 204 0
-194 -195 0
-194 -196 0
-194 -197 0
-194 -198 0
-194 -199 0
-194 -200 0
-194 -201 0
-194 -202 0
-194 -203 0
-194 -204 0
-195 -196 0
-195 -197 0
-195 -198 0
-195 -199 0
-195 -200 0
-195 -201 0
-195 -202 0
-195 -203 0
-195 -204 0
-196 -197 0
-196 -198 0
-196 -199 0
-196 -200 0
-196 -201 0
-196 -202 0
-196 -203 0
-196 -204 0
-197 -198 0
-197 -199 0
-197 -200 0
-197 -201 0
-197 -202 0
-197 -203 0
-197 -204 0
-198 -199 0
-198 -200 0
-198 -201 0
-198 -202 0
-198 -203 0
-198 -204 0
-199 -200 0
-199 -201 0
-199 -202 0
-199 -203 0
-199 -204 0
-200 -201 0
-200 -202 0
-200 -203 0
-200 -204 0
-201 -202 0
-201 -203 0
-201 -204 0
-202 -203 0
-202 -204 0
-203 -204 0
205 206 207 208 209 210 211 212 213 214 215 0
-205 -206 0
-205 -207 0
-205 -208 0
-205 -209 0
-205 -210 0
-205 -211 0
-205 -212 0
-205 -213 0
-205 -214 0
-205 -215 0
-206 -207 0
-206 -208 0
-206 -209 0
-206 -210 0
-206 -211 0
-206 -212 0
-206 -213 0
-206 -214 0
-206 -215 0
-207 -208 0
-207 -209 0
-207 -210 0
-207 -211 0
-207 -212 0
-207 -213 0
-207 -214 0
-207 -215 0
-208 -209 0
-208 -210 0
-208 -211 0
-208 -212 0
-208 -213 0
-208 -214 0
-208 -215 0
-209 -210 0
-209 -211 0
-209 -212 0
-209 -213 0
-209 -214 0
-209 -215 0
-210 -211 0
-210 -212 0
-210 -213 0
-210 -214 0
-210 -215 0
-211 -212 0
-211 -213 0
-211 -214 0
-211 -215 0
-212 -213 0
-212 -214 0
-212 -215 0
-213 -214 0
-213 -215 0
-214 -215 0
216 217 218 219 220 221 222 223 224 225 226 0
-216 -217 0
-216 -218 0
-216 -219 0
-216 -220 0
-216 -221 0
-216 -222 0
-216 -223 0
-216 -224 0
-216 -225 0
-216 -226 0
-217 -218 0
-217 -219 0
-217 -220 0
-217 -221 0
-217 -222 0
-217 -223 0
-217 -224 0
-217 -225 0
-217 -226 0
-218 -219 0
-218 -220 0
-218 -221 0
-218 -222 0
-218 -223 0
-218 -224 0
-218 -225 0
-218 -226 0
-219 -220 0
-219 -221 0
-219 -222 0
-219 -223 0
-219 -224 0
-219 -225 0
-219 -226 0
-220 -221 0
-220 -222 0
-220 -223 0
-220 -224 0
-220 -225 0
-220 -226 0
-221 -222 0
-221 -223 0
-221 -224 0
-221 -225 0
-221 -226 0
-222 -223 0
-222 -224 0
-222 -225 0
-222 -226 0
-223 -224 0
-223 -225 0
-223 -226 0
-224 -225 0
-224 -226 0
-225 -226 0
227 228 229 230 231 232 233 234 235 236 237 238 0
-227 -228 0
-227 -229 0
-227 -230 0
-227 -231 0
-227 -232 0
-227 -233 0
-227 -234 0
-227 -235 0
-227 -236 0
-227 -237 0
-227 -238 0
-228 -229 0
-228 -230 0
-228 -231 0
-228 -232 0
-228 -233 0
-228 -234 0
-228 -235 0
-228 -236 0
-228 -237 0
-228 -238 0
-229 -230 0
-229 -231 0
-229 -232 0
-229 -233 0
-229 -234 0
-229 -235 0
-229 -236 0
-229 -237 0
-229 -238 0
-230 -231 0
-230 -232 0
-230 -233 0
-230 -234 0
-230 -235 0
-230 -236 0
-230 -237 0
-230 -238 0
-231 -232 0
-231 -233 0
-231 -234 0
-231 -235 0
-231 -236 0
-231 -237 0
-231 -238 0
-232 -233 0
-232 -234 0
-232 -235 0
-232 -236 0
-232 -237 0
-232 -238 0
-233 -234 0
-233 -235 0
-233 -236 0
-233 -237 0
-233 -238 0
-234 -235 0
-234 -236 0
-234 -237 0
-234 -238 0
-235 -236 0
-235 -237 0
-235 -238 0
-236 -237 0
-236 -238 0
-237 -238 0
239 240 241 242 243 244 245 246 247 248 249 0
-239 -240 0
-239 -241 0
-239 -242 0
-239 -243 0
-239 -244 0
-239 -245 0
-239 -246 0
-239 -247 0
-239 -248 0
-239 -249 0
-240 -241 0
-240 -242 0
-240 -243 0
-240 -244 0
-240 -245 0
-240 -246 0
-240 -247 0
-240 -248 0
-240 -249 0
-241 -242 0
-241 -243 0
-241 -244 0
-241 -245 0
-241 -246 0
-241 -247 0
-241 -248 0
-241 -249 0
-242 -243 0
-242 -244 0
-242 -245 0
-242 -246 0
-242 -247 0
-242 -248 0
-242 -249 0
-243 -244 0
-243 -245 0
-243 -246 0
-243 -247 0
-243 -248 0
-243 -249 0
-244 -245 0
-244 -246 0
-244 -247 0
-244 -248 0
-244 -249 0
-245 -246 0
-245 -247 0
-245 -248 0
-245 -249 0
-246 -247 0
-246 -248 0
-246 -249 0
-247 -248 0
-247 -249 0
-248 -249 0
250 251 252 253 254 255 256 257 258 259 260 261 0
-250 -251 0
-250 -252 0
-250 -253 0
-250 -254 0
-250 -255 0
-250 -256 0
-250 -257 0
-250 -258 0
-250 -259 0
-250 -260 0
-250 -261 0
-251 -252 0
-251 -253 0
-251 -254 0
-251 -255 0
-251 -256 0
-251 -257 0
-251 -258 0
-251 -259 0
-251 -260 0
-251 -261 0
-252 -253 0
-252 -254 0
-252 -255 0
-252 -256 0
-252 -257 0
-252 -258 0
-252 -259 0
-252 -260 0
-252 -261 0
-253 -254 0
-253 -255 0
-253 -256 0
-253 -257 0
-253 -258 0
-253 -259 0
-253 -260 0
-253 -261 0
-254 -255 0
-254 -256 0
-254 -257 0
-254 -258 0
-254 -259 0
-254 -260 0
-254 -261 0
-255 -256 0
-255 -257 0
-255 -258 0
-255 -259 0
-255 -260 0
-255 -261 0
-256 -257 0
-256 -258 0
-256 -259 0
-256 -260 0
-256 -261 0
-257 -258 0
-257 -259 0
-257 -260 0
-257 -261 0
-258 -259 0
-258 -260 0
-258 -261 0
-259 -260 0
-259 -261 0
-260 -261 0
262 263 264 265 266 267 268 269 270 271 272 273 0
-262 -263 0
-262 -264 0
-262 -265 0
-262 -266 0
-262 -267 0
-262 -268 0
-262 -269 0
-262 -270 0
-262 -271 0
-262 -272 0
-262 -273 0
-263 -264 0
-263 -265 0
-263 -266 0
-263 -267 0
-263 -268 0
-263 -269 0
-263 -270 0
-263 -271 0
-263 -272 0
-263 -273 0
-264 -265 0
-264 -266 0
-264 -267 0
-264 -268 0
-264 -269 0
-264 -270 0
-264 -271 0
-264 -272 0
-264 -273 0
-265 -266 0
-265 -267 0
-265 -268 0
-265 -269 0
-265 -270 0
-265 -271 0
-265 -272 0
-265 -273 0
-266 -267 0
-266 -268 0
-266 -269 0
-266 -270 0
-266 -271 0
-266 -272 0
-266 -273 0
-267 -268 0
-267 -269 0
-267 -270 0
-267 -271 0
-267 -272 0
-267 -273 0
-268 -269 0
-268 -270 0
-268 -271 0
-268 -272 0
-268 -273 0
-269 -270 0
-269 -271 0
-269 -272 0
-269 -273 0
-270 -271 0
-270 -272 0
-270 -273 0
-271 -272 0
-271 -273 0
-272 -273 0
274 275 276 277 278 279 280 281 282 283 284 285 0
-274 -275 0
-274 -276 0
-274 -277 0
-274 -278 0
-274 -279 0
-274 -280 0
-274 -281 0
-274 -282 0
-274 -283 0
-274 -284 0
-274 -285 0
-275 -276 0
-275 -277 0
-275 -278 0
-275 -279 0
-275 -280 0
-275 -281 0
-275 -282 0
-275 -283 0
-275 -284 0
-275 -285 0
-276 -277 0
-276 -278 0
-276 -279 0
-276 -280 0
-276 -281 0
-276 -282 0
-276 -283 0
-276 -284 0
-276 -285 0
-277 -278 0
-277 -279 0
-277 -280 0
-277 -281 0
-277 -282 0
-277 -283 0
-277 -284 0
-277 -285 0
-278 -279 0
-278 -280 0
-278 -281 0
-278 -282 0
-278 -283 0
-278 -284 0
-278 -285 0
-279 -280 0
-279 -281 0
-279 -282 0
-279 -283 0
-279 -284 0
-279 -285 0
-280 -281 0
-280 -282 0
-280 -283 0
-280 -284 0
-280 -285 0
-281 -282 0
-281 -283 0
-281 -284 0
-281 -285 0
-282 -283 0
-282 -284 0
-282 -285 0
-283 -284 0
-283 -285 0
-284 -285 0
286 287 288 289 290 291 292 293 294 295 296 0
-286 -287 0
-286 -288 0
-286 -289 0
-286 -290 0
-286 -291 0
-286 -292 0
-286 -293 0
-286 -294 0
-286 -295 0
-286 -296 0
-287 -288 0
-287 -289 0
-287 -290 0
-287 -291 0
-287 -292 0
-287 -293 0
-287 -294 0
-287 -295 0
-287 -296 0
-288 -289 0
-288 -290 0
-288 -291 0
-288 -292 0
-288 -293 0
-288 -294 0
-288 -295 0
-288 -296 0
-289 -290 0
-289 -291 0
-289 -292 0
-289 -293 0
-289 -294 0
-289 -295 0
-289 -296 0
-290 -291 0
-290 -292 0
-290 -293 0
-290 -294 0
-290 -295 0
-290 -296 0
-291 -292 0
-291 -293 0
-291 -294 0
-291 -295 0
-291 -296 0
-292 -293 0
-292 -294 0
-292 -295 0
-292 -296 0
-293 -294 0
-293 -295 0
-293 -296 0
-294 -295 0
-294 -296 0
-295 -296 0
297 298 299 300 301 302 303 304 305 306 307 0
-297 -298 0
-297 -299 0
-297 -300 0
-297 -301 0
-297 -302 0
-297 -303 0
-297 -304 0
-297 -305 0
-297 -306 0
-297 -307 0
-298 -299 0
-298 -300 0
-298 -301 0
-298 -302 0
-298 -303 0
-298 -304 0
-298 -305 0
-298 -306 0
-298 -307 0
-299 -300 0
-299 -301 0
-299 -302 0
-299 -303 0
-299 -304 0
-299 -305 0
-299 -306 0
-299 -307 0
-300 -301 0
-300 -302 0
-300 -303 0
-300 -304 0
-300 -305 0
-300 -306 0
-300 -307 0
-301 -302 0
-301 -303 0
-301 -304 0
-301 -305 0
-301 -306 0
-301 -307 0
-302 -303 0
-302 -304 0
-302 -305 0
-302 -306 0
-302 -307 0
-303 -304 0
-303 -305 0
-303 -306 0
-303 -307 0
-304 -305 0
-304 -306 0
-304 -307 0
-305 -306 0
-305 -307 0
-306 -307 0
308 309 310 311 312 313 314 315 316 317 318 319 320 0
-308 -309 0
-308 -310 0
-308 -311 0
-308 -312 0
-308 -313 0
-308 -314 0
-308 -315 0
-308 -316 0
-308 -317 0
-308 -318 0
-308 -319 0
-308 -320 0
-309 -310 0
-309 -311 0
-309 -312 0
-309 -313 0
-309 -314 0
-309 -315 0
-309 -316 0
-309 -317 0
-309 -318 0
-309 -319 0
-309 -320 0
-310 -311 0
-310 -312 0
-310 -313 0
-310 -314 0
-310 -315 0
-310 -316 0
-310 -317 0
-310 -318 0
-310 -319 0
-310 -320 0
-311 -312 0
-311 -313 0
-311 -314 0
-311 -315 0
-311 -316 0
-311 -317 0
-311 -318 0
-311 -319 0
-311 -320 0
-312 -313 0
-312 -314 0
-312 -315 0
-312 -316 0
-312 -317 0
-312 -318 0
-312 -319 0
-312 -320 0
-313 -314 0
-313 -315 0
-313 -316 0
-313 -317 0
-313 -318 0
-313 -319 0
-313 -320 0
-314 -315 0
-314 -316 0
-314 -317 0
-314 -318 0
-314 -319 0
-314 -320 0
-315 -316 0
-315 -317 0
-315 -318 0
-315 -319 0
-315 -320 0
-316 -317 0
-316 -318 0
-316 -319 0
-316 -320 0
-317 -318 0
-317 -319 0
-317 -320 0
-318 -319 0
-318 -320 0
-319 -320 0
321 322 323 324 325 326 327 328 329 330 331 332 0
-321 -322 0
-321 -323 0
-321 -324 0
-321 -325 0
-321 -326 0
-321 -327 0
-321 -328 0
-321 -329 0
-321 -330 0
-321 -331 0
-321 -332 0
-322 -323 0
-322 -324 0
-322 -325 0
-322 -326 0
-322 -327 0
-322 -328 0
-322 -329 0
-322 -330 0
-322 -331 0
-322 -332 0
-323 -324 0
-323 -325 0
-323 -326 0
-323 -327 0
-323 -328 0
-323 -329 0
-323 -330 0
-323 -331 0
-323 -332 0
-324 -325 0
-324 -326 0
-324 -327 0
-324 -328 0
-324 -329 0
-324 -330 0
-324 -331 0
-324 -332 0
-325 -326 0
-325 -327 0
-325 -328 0
-325 -329 0
-325 -330 0
-325 -331 0
-325 -332 0
-326 -327 0
-326 -328 0
-326 -329 0
-326 -330 0
-326 -331 0
-326 -332 0
-327 -328 0
-327 -329 0
-327 -330 0
-327 -331 0
-327 -332 0
-328 -329 0
-328 -330 0
-328 -331 0
-328 -332 0
-329 -330 0
-329 -331 0
-329 -332 0
-330 -331 0
-330 -332 0
-331 -332 0
333 334 335 336 337 338 339 340 341 342 343 0
-333 -334 0
-333 -335 0
-333 -336 0
-333 -337 0
-333 -338 0
-333 -339 0
-333 -340 0
-333 -341 0
-333 -342 0
-333 -343 0
-334 -335 0
-334 -336 0
-334 -337 0
-334 -338 0
-334 -339 0
-334 -340 0
-334 -341 0
-334 -342 0
-334 -343 0
-335 -336 0
-335 -337 0
-335 -338 0
-335 -339 0
-335 -340 0
-335 -341 0
-335 -342 0
-335 -343 0
-336 -337 0
-336 -338 0
-336 -339 0
-336 -340 0
-336 -341 0
-336 -342 0
-336 -343 0
-337 -338 0
-337 -339 0
-337 -340 0
-337 -341 0
-337 -342 0
-337 -343 0
-338 -339 0
-338 -340 0
-338 -341 0
-338 -342 0
-338 -343 0
-339 -340 0
-339 -341 0
-339 -342 0
-339 -343 0
-340 -341 0
-340 -342 0
-340 -343 0
-341 -342 0
-341 -343 0
-342 -343 0
344 345 346 347 348 349 350 351 352 353 354 355 0
-344 -345 0
-344 -346 0
-344 -347 0
-344 -348 0
-344 -349 0
-344 -350 0
-344 -351 0
-344 -352 0
-344 -353 0
-344 -354 0
-344 -355 0
-345 -346 0
-345 -347 0
-345 -348 0
-345 -349 0
-345 -350 0
-345 -351 0
-345 -352 0
-345 -353 0
-345 -354 0
-345 -355 0
-346 -347 0
-346 -348 0
-346 -349 0
-346 -350 0
-346 -351 0
-346 -352 0
-346 -353 0
-346 -354 0
-346 -355 0
-347 -348 0
-347 -349 0
-347 -350 0
-347 -351 0
-347 -352 0
-347 -353 0
-347 -354 0
-347 -355 0
-348 -349 0
-348 -350 0
-348 -351 0
-348 -352 0
-348 -353 0
-348 -354 0
-348 -355 0
-349 -350 0
-349 -351 0
-349 -352 0
-349 -353 0
-349 -354 0
-349 -355 0
-350 -351 0
-350 -352 0
-350 -353 0
-350 -354 0
-350 -355 0
-351 -352 0
-351 -353 0
-351 -354 0
-351 -355 0
-352 -353 0
-352 -354 0
-352 -355 0
-353 -354 0
-353 -355 0
-354 -355 0
356 357 358 359 360 361 362 363 364 365 366 0
-356 -357 0
-356 -358 0
-356 -359 0
-356 -360 0
-356 -361 0
-356 -362 0
-356 -363 0
-356 -364 0
-356 -365 0
-356 -366 0
-357 -358 0
-357 -359 0
-357 -360 0
-357 -361 0
-357 -362 0
-357 -363 0
-357 -364 0
-357 -365 0
-357 -366 0
-358 -359 0
-358 -360 0
-358 -361 0
-358 -362 0
-358 -363 0
-358 -364 0
-358 -365 0
-358 -366 0
-359 -360 0
-359 -361 0
-359 -362 0
-359 -363 0
-359 -364 0
-359 -365 0
-359 -366 0
-360 -361 0
-360 -362 0
-360 -363 0
-360 -364 0
-360 -365 0
-360 -366 0
-361 -362 0
-361 -363 0
-361 -364 0
-361 -365 0
-361 -366 0
-362 -363 0
-362 -364 0
-362 -365 0
-362 -366 0
-363 -364 0
-363 -365 0
-363 -366 0
-364 -365 0
-364 -366 0
-365 -366 0
367 368 369 370 371 372 373 374 375 376 377 0
-367 -368 0
-367 -369 0
-367 -370 0
-367 -371 0
-367 -372 0
-367 -373 0
-367 -374 0
-367 -375 0
-367 -376 0
-367 -377 0
-368 -369 0
-368 -370 0
-368 -371 0
-368 -372 0
-368 -373 0
-368 -374 0
-368 -375 0
-368 -376 0
-368 -377 0
-369 -370 0
-369 -371 0
-369 -372 0
-369 -373 0
-369 -374 0
-369 -375 0
-369 -376 0
-369 -377 0
-370 -371 0
-370 -372 0
-370 -373 0
-370 -374 0
-370 -375 0
-370 -376 0
-370 -377 0
-371 -372 0
-371 -373 0
-371 -374 0
-371 -375 0
-371 -376 0
-371 -377 0
-372 -373 0
-372 -374 0
-372 -375 0
-372 -376 0
-372 -377 0
-373 -374 0
-373 -375 0
-373 -376 0
-373 -377 0
-374 -375 0
-374 -376 0
-374 -377 0
-375 -376 0
-375 -377 0
-376 -377 0
378 379 380 381 382 383 384 385 386 387 388 0
-378 -379 0
-378 -380 0
-378 -381 0
-378 -382 0
-378 -383 0
-378 -384 0
-378 -385 0
-378 -386 0
-378 -387 0
-378 -388 0
-379 -380 0
-379 -381 0
-379 -382 0
-379 -383 0
-379 -384 0
-379 -385 0
-379 -386 0
-379 -387 0
-379 -388 0
-380 -381 0
-380 -382 0
-380 -383 0
-380 -384 0
-380 -385 0
-380 -386 0
-380 -387 0
-380 -388 0
-381 -382 0
-381 -383 0
-381 -384 0
-381 -385 0
-381 -386 0
-381 -387 0
-381 -388 0
-382 -383 0
-382 -384 0
-382 -385 0
-382 -386 0
-382 -387 0
-382 -388 0
-383 -384 0
-383 -385 0
-383 -386 0
-383 -387 0
-383 -388 0
-384 -385 0
-384 -386 0
-384 -387 0
-384 -388 0
-385 -386 0
-385 -387 0
-385 -388 0
-386 -387 0
-386 -388 0
-387 -388 0
389 390 391 392 393 394 395 396 397 398 399 0
-389 -390 0
-389 -391 0
-389 -392 0
-389 -393 0
-389 -394 0
-389 -395 0
-389 -396 0
-389 -397 0
-389 -398 0
-389 -399 0
-390 -391 0
-390 -392 0
-390 -393 0
-390 -394 0
-390 -395 0
-390 -396 0
-390 -397 0
-390 -398 0
-390 -399 0
-391 -392 0
-391 -393 0
-391 -394 0
-391 -395 0
-391 -396 0
-391 -397 0
-391 -398 0
-391 -399 0
-392 -393 0
-392 -394 0
-392 -395 0
-392 -396 0
-392 -397 0
-392 -398 0
-392 -399 0
-393 -394 0
-393 -395 0
-393 -396 0
-393 -397 0
-393 -398 0
-393 -399 0
-394 -395 0
-394 -396 0
-394 -397 0
-394 -398 0
-394 -399 0
-395 -396 0
-395 -397 0
-395 -398 0
-395 -399 0
-396 -397 0
-396 -398 0
-396 -399 0
-397 -398 0
-397 -399 0
-398 -399 0
400 401 402 403 404 405 406 407 408 409 410 411 0
-400 -401 0
-400 -402 0
-400 -403 0
-400 -404 0
-400 -405 0
-400 -406 0
-400 -407 0
-400 -408 0
-400 -409 0
-400 -410 0
-400 -411 0
-401 -402 0
-401 -403 0
-401 -404 0
-401 -405 0
-401 -406 0
-401 -407 0
-401 -408 0
-401 -409 0
-401 -410 0
-401 -411 0
-402 -403 0
-402 -404 0
-402 -405 0
-402 -406 0
-402 -407 0
-402 -408 0
-402 -409 0
-402 -410 0
-402 -411 0
-403 -404 0
-403 -405 0
-403 -406 0
-403 -407 0
-403 -408 0
-403 -409 0
-403 -410 0
-403 -411 0
-404 -405 0
-404 -406 0
-404 -407 0
-404 -408 0
-404 -409 0
-404 -410 0
-404 -411 0
-405 -406 0
-405 -407 0
-405 -408 0
-405 -409 0
-405 -410 0
-405 -411 0
-406 -407 0
-406 -408 0
-406 -409 0
-406 -410 0
-406 -411 0
-407 -408 0
-407 -409 0
-407 -410 0
-407 -411 0
-408 -409 0
-408 -410 0
-408 -411 0
-409 -410 0
-409 -411 0
-410 -411 0
412 413 414 415 416 417 418 419 420 421 422 423 0
-412 -413 0
-412 -414 0
-412 -415 0
-412 -416 0
-412 -417 0
-412 -418 0
-412 -419 0
-412 -420 0
-412 -421 0
-412 -422 0
-412 -423 0
-413 -414 0
-413 -415 0
-413 -416 0
-413 -417 0
-413 -418 0
-413 -419 0
-413 -420 0
-413 -421 0
-413 -422 0
-413 -423 0
-414 -415 0
-414 -416 0
-414 -417 0
-414 -418 0
-414 -419 0
-414 -420 0
-414 -421 0
-414 -422 0
-414 -423 0
-415 -416 0
-415 -417 0
-415 -418 0
-415 -419 0
-415 -420 0
-415 -421 0
-415 -422 0
-415 -423 0
-416 -417 0
-416 -418 0
-416 -419 0
-416 -420 0
-416 -421 0
-416 -422 0
-416 -423 0
-417 -418 0
-417 -419 0
-417 -420 0
-417 -421 0
-417 -422 0
-417 -423 0
-418 -419 0
-418 -420 0
-418 -421 0
-418 -422 0
-418 -423 0
-419 -420 0
-419 -421 0
-419 -422 0
-419 -423 0
-420 -421 0
-420 -422 0
-420 -423 0
-421 -422 0
-421 -423 0
-422 -423 0
424 425 426 427 428 429 430 431 432 433 434 0
-424 -425 0
-424 -426 0
-424 -427 0
-424 -428 0
-424 -429 0
-424 -430 0
-424 -431 0
-424 -432 0
-424 -433 0
-424 -434 0
-425 -426 0
-425 -427 0
-425 -428 0
-425 -429 0
-425 -430 0
-425 -431 0
-425 -432 0
-425 -433 0
-425 -434 0
-426 -427 0
-426 -428 0
-426 -429 0
-426 -430 0
-426 -431 0
-426 -432 0
-426 -433 0
-426 -434 0
-427 -428 0
-427 -429 0
-427 -430 0
-427 -431 0
-427 -432 0
-427 -433 0
-427 -434 0
-428 -429 0
-428 -430 0
-428 -431 0
-428 -432 0
-428 -433 0
-428 -434 0
-429 -430 0
-429 -431 0
-429 -432 0
-429 -433 0
-429 -434 0
-430 -431 0
-430 -432 0
-430 -433 0
-430 -434 0
-431 -432 0
-431 -433 0
-431 -434 0
-432 -433 0
-432 -434 0
-433 -434 0
435 436 437 438 439 440 441 442 443 444 445 0
-435 -436 0
-435 -437 0
-435 -438 0
-435 -439 0
-435 -440 0
-435 -441 0
-435 -442 0
-435 -443 0
-435 -444 0
-435 -445 0
-436 -437 0
-436 -438 0
-436 -439 0
-436 -440 0
-436 -441 0
-436 -442 0
-436 -443 0
-436 -444 0
-436 -445 0
-437 -438 0
-437 -439 0
-437 -440 0
-437 -441 0
-437 -442 0
-437 -443 0
-437 -444 0
-437 -445 0
-438 -439 0
-438 -440 0
-438 -441 0
-438 -442 0
-438 -443 0
-438 -444 0
-438 -445 0
-439 -440 0
-439 -441 0
-439 -442 0
-439 -443 0
-439 -444 0
-439 -445 0
-440 -441 0
-440 -442 0
-440 -443 0
-440 -444 0
-440 -445 0
-441 -442 0
-441 -443 0
-441 -444 0
-441 -445 0
-442 -443 0
-442 -444 0
-442 -445 0
-443 -444 0
-443 -445 0
-444 -445 0
446 447 448 449 450 451 452 453 454 455 456 0
-446 -447 0
-446 -448 0
-446 -449 0
-446 -450 0
-446 -451 0
-446 -452 0
-446 -453 0
-446 -454 0
-446 -455 0
-446 -456 0
-447 -448 0
-447 -449 0
-447 -450 0
-447 -451 0
-447 -452 0
-447 -453 0
-447 -454 0
-447 -455 0
-447 -456 0
-448 -449 0
-448 -450 0
-448 -451 0
-448 -452 0
-448 -453 0
-448 -454 0
-448 -455 0
-448 -456 0
-449 -450 0
-449 -451 0
-449 -452 0
-449 -453 0
-449 -454 0
-449 -455 0
-449 -456 0
-450 -451 0
-450 -452 0
-450 -453 0
-450 -454 0
-450 -455 0
-450 -456 0
-451 -452 0
-451 -453 0
-451 -454 0
-451 -455 0
-451 -456 0
-452 -453 0
-452 -454 0
-452 -455 0
-452 -456 0
-453 -454 0
-453 -455 0
-453 -456 0
-454 -455 0
-454 -456 0
-455 -456 0
1 11 12 34 56 67 79 90 102 113 125 137 149 0
-1 -11 0
-1 -12 0
-1 -34 0
-1 -56 0
-1 -67 0
-1 -79 0
-1 -90 0
-1 -102 0
-1 -113 0
-1 -125 0
-1 -137 0
-1 -149 0
-11 -12 0
-11 -34 0
-11 -56 0
-11 -67 0
-11 -79 0
-11 -90 0
-11 -102 0
-11 -113 0
-11 -125 0
-11 -137 0
-11 -149 0
-12 -34 0
-12 -56 0
-12 -67 0
-12 -79 0
-12 -90 0
-12 -102 0
-12 -113 0
-12 -125 0
-12 -137 0
-12 -149 0
-34 -56 0
-34 -67 0
-34 -79 0
-34 -90 0
-34 -102 0
-34 -113 0
-34 -125 0
-34 -137 0
-34 -149 0
-56 -67 0
-56 -79 0
-56 -90 0
-56 -102 0
-56 -113 0
-56 -125 0
-56 -137 0
-56 -149 0
-67 -79 0
-67 -90 0
-67 -102 0
-67 -113 0
-67 -125 0
-67 -137 0
-67 -149 0
-79 -90 0
-79 -102 0
-79 -113 0
-79 -125 0
-79 -137 0
-79 -149 0
-90 -102 0
-90 -113 0
-90 -125 0
-90 -137 0
-90 -149 0
-102 -113 0
-102 -125 0
-102 -137 0
-102 -149 0
-113 -125 0
-113 -137 0
-113 -149 0
-125 -137 0
-125 -149 0
-137 -149 0
1 22 151 160 170 172 183 194 205 227 239 250 274 0
-1 -22 0
-1 -151 0
-1 -160 0
-1 -170 0
-1 -172 0
-1 -183 0
-1 -194 0
-1 -205 0
-1 -227 0
-1 -239 0
-1 -250 0
-1 -274 0
-22 -151 0
-22 -160 0
-22 -170 0
-22 -172 0
-22 -183 0
-22 -194 0
-22 -205 0
-22 -227 0
-22 -239 0
-22 -250 0
-22 -274 0
-151 -160 0
-151 -170 0
-151 -172 0
-151 -183 0
-151 -194 0
-151 -205 0
-151 -227 0
-151 -239 0
-151 -250 0
-151 -274 0
-160 -170 0
-160 -172 0
-160 -183 0
-160 -194 0
-160 -205 0
-160 -227 0
-160 -239 0
-160 -250 0
-160 -274 0
-170 -172 0
-170 -183 0
-170 -194 0
-170 -205 0
-170 -227 0
-170 -239 0
-170 -250 0
-170 -274 0
-172 -183 0
-172 -194 0
-172 -205 0
-172 -227 0
-172 -239 0
-172 -250 0
-172 -274 0
-183 -194 0
-183 -205 0
-183 -227 0
-183 -239 0
-183 -250 0
-183 -274 0
-194 -205 0
-194 -227 0
-194 -239 0
-194 -250 0
-194 -274 0
-205 -227 0
-205 -239 0
-205 -250 0
-205 -274 0
-227 -239 0
-227 -250 0
-227 -274 0
-239 -250 0
-239 -274 0
-250 -274 0
12 33 140 151 182 286 295 308 321 333 344 356 367 0
-12 -33 0
-12 -140 0
-12 -151 0
-12 -182 0
-12 -286 0
-12 -295 0
-12 -308 0
-12 -321 0
-12 -333 0
-12 -344 0
-12 -356 0
-12 -367 0
-33 -140 0
-33 -151 0
-33 -182 0
-33 -286 0
-33 -295 0
-33 -308 0
-33 -321 0
-33 -333 0
-33 -344 0
-33 -356 0
-33 -367 0
-140 -151 0
-140 -182 0
-140 -286 0
-140 -295 0
-140 -308 0
-140 -321 0
-140 -333 0
-140 -344 0
-140 -356 0
-140 -367 0
-151 -182 0
-151 -286 0
-151 -295 0
-151 -308 0
-151 -321 0
-151 -333 0
-151 -344 0
-151 -356 0
-151 -367 0
-182 -286 0
-182 -295 0
-182 -308 0
-182 -321 0
-182 -333 0
-182 -344 0
-182 -356 0
-182 -367 0
-286 -295 0
-286 -308 0
-286 -321 0
-286 -333 0
-286 -344 0
-286 -356 0
-286 -367 0
-295 -308 0
-295 -321 0
-295 -333 0
-295 -344 0
-295 -356 0
-295 -367 0
-308 -321 0
-308 -333 0
-308 -344 0
-308 -356 0
-308 -367 0
-321 -333 0
-321 -344 0
-321 -356 0
-321 -367 0
-333 -344 0
-333 -356 0
-333 -367 0
-344 -356 0
-344 -367 0
-356 -367 0
44 129 140 160 192 264 305 370 378 387 389 412 424 0
-44 -129 0
-44 -140 0
-44 -160 0
-44 -192 0
-44 -264 0
-44 -305 0
-44 -370 0
-44 -378 0
-44 -387 0
-44 -389 0
-44 -412 0
-44 -424 0
-129 -140 0
-129 -160 0
-129 -192 0
-129 -264 0
-129 -305 0
-129 -370 0
-129 -378 0
-129 -387 0
-129 -389 0
-129 -412 0
-129 -424 0
-140 -160 0
-140 -192 0
-140 -264 0
-140 -305 0
-140 -370 0
-140 -378 0
-140 -387 0
-140 -389 0
-140 -412 0
-140 -424 0
-160 -192 0
-160 -264 0
-160 -305 0
-160 -370 0
-160 -378 0
-160 -387 0
-160 -389 0
-160 -412 0
-160 -424 0
-192 -264 0
-192 -305 0
-192 -370 0
-192 -378 0
-192 -387 0
-192 -389 0
-192 -412 0
-192 -424 0
-264 -305 0
-264 -370 0
-264 -378 0
-264 -387 0
-264 -389 0
-264 -412 0
-264 -424 0
-305 -370 0
-305 -378 0
-305 -387 0
-305 -389 0
-305 -412 0
-305 -424 0
-370 -378 0
-370 -387 0
-370 -389 0
-370 -412 0
-370 -424 0
-378 -387 0
-378 -389 0
-378 -412 0
-378 -424 0
-387 -389 0
-387 -412 0
-387 -424 0
-389 -412 0
-389 -424 0
-412 -424 0
34 55 117 129 172 204 254 319 359 427 435 443 446 0
-34 -55 0
-34 -117 0
-34 -129 0
-34 -172 0
-34 -204 0
-34 -254 0
-34 -319 0
-34 -359 0
-34 -427 0
-34 -435 0
-34 -443 0
-34 -446 0
-55 -117 0
-55 -129 0
-55 -172 0
-55 -204 0
-55 -254 0
-55 -319 0
-55 -359 0
-55 -427 0
-55 -435 0
-55 -443 0
-55 -446 0
-117 -129 0
-117 -172 0
-117 -204 0
-117 -254 0
-117 -319 0
-117 -359 0
-117 -427 0
-117 -435 0
-117 -443 0
-117 -446 0
-129 -172 0
-129 -204 0
-129 -254 0
-129 -319 0
-129 -359 0
-129 -427 0
-129 -435 0
-129 -443 0
-129 -446 0
-172 -204 0
-172 -254 0
-172 -319 0
-172 -359 0
-172 -427 0
-172 -435 0
-172 -443 0
-172 -446 0
-204 -254 0
-204 -319 0
-204 -359 0
-204 -427 0
-204 -435 0
-204 -443 0
-204 -446 0
-254 -319 0
-254 -359 0
-254 -427 0
-254 -435 0
-254 -443 0
-254 -446 0
-319 -359 0
-319 -427 0
-319 -435 0
-319 -443 0
-319 -446 0
-359 -427 0
-359 -435 0
-359 -443 0
-359 -446 0
-427 -435 0
-427 -443 0
-427 -446 0
-435 -443 0
-435 -446 0
-443 -446 0
66 107 117 183 242 264 286 330 348 409 416 450 453 0
-66 -107 0
-66 -117 0
-66 -183 0
-66 -242 0
-66 -264 0
-66 -286 0
-66 -330 0
-66 -348 0
-66 -409 0
-66 -416 0
-66 -450 0
-66 -453 0
-107 -117 0
-107 -183 0
-107 -242 0
-107 -264 0
-107 -286 0
-107 -330 0
-107 -348 0
-107 -409 0
-107 -416 0
-107 -450 0
-107 -453 0
-117 -183 0
-117 -242 0
-117 -264 0
-117 -286 0
-117 -330 0
-117 -348 0
-117 -409 0
-117 -416 0
-117 -450 0
-117 -453 0
-183 -242 0
-183 -264 0
-183 -286 0
-183 -330 0
-183 -348 0
-183 -409 0
-183 -416 0
-183 -450 0
-183 -453 0
-242 -264 0
-242 -286 0
-242 -330 0
-242 -348 0
-242 -409 0
-242 -416 0
-242 -450 0
-242 -453 0
-264 -286 0
-264 -330 0
-264 -348 0
-264 -409 0
-264 -416 0
-264 -450 0
-264 -453 0
-286 -330 0
-286 -348 0
-286 -409 0
-286 -416 0
-286 -450 0
-286 -453 0
-330 -348 0
-330 -409 0
-330 -416 0
-330 -450 0
-330 -453 0
-348 -409 0
-348 -416 0
-348 -450 0
-348 -453 0
-409 -416 0
-409 -450 0
-409 -453 0
-416 -450 0
-416 -453 0
-450 -453 0
56 78 96 107 194 225 233 254 338 370 405 421 440 0
-56 -78 0
-56 -96 0
-56 -107 0
-56 -194 0
-56 -225 0
-56 -233 0
-56 -254 0
-56 -338 0
-56 -370 0
-56 -405 0
-56 -421 0
-56 -440 0
-78 -96 0
-78 -107 0
-78 -194 0
-78 -225 0
-78 -233 0
-78 -254 0
-78 -338 0
-78 -370 0
-78 -405 0
-78 -421 0
-78 -440 0
-96 -107 0
-96 -194 0
-96 -225 0
-96 -233 0
-96 -254 0
-96 -338 0
-96 -370 0
-96 -405 0
-96 -421 0
-96 -440 0
-107 -194 0
-107 -225 0
-107 -233 0
-107 -254 0
-107 -338 0
-107 -370 0
-107 -405 0
-107 -421 0
-107 -440 0
-194 -225 0
-194 -233 0
-194 -254 0
-194 -338 0
-194 -370 0
-194 -405 0
-194 -421 0
-194 -440 0
-225 -233 0
-225 -254 0
-225 -338 0
-225 -370 0
-225 -405 0
-225 -421 0
-225 -440 0
-233 -254 0
-233 -338 0
-233 -370 0
-233 -405 0
-233 -421 0
-233 -440 0
-254 -338 0
-254 -370 0
-254 -405 0
-254 -421 0
-254 -440 0
-338 -370 0
-338 -405 0
-338 -421 0
-338 -440 0
-370 -405 0
-370 -421 0
-370 -440 0
-405 -421 0
-405 -440 0
-421 -440 0
67 85 89 96 205 220 237 242 308 353 359 378 432 0
-67 -85 0
-67 -89 0
-67 -96 0
-67 -205 0
-67 -220 0
-67 -237 0
-67 -242 0
-67 -308 0
-67 -353 0
-67 -359 0
-67 -378 0
-67 -432 0
-85 -89 0
-85 -96 0
-85 -205 0
-85 -220 0
-85 -237 0
-85 -242 0
-85 -308 0
-85 -353 0
-85 -359 0
-85 -378 0
-85 -432 0
-89 -96 0
-89 -205 0
-89 -220 0
-89 -237 0
-89 -242 0
-89 -308 0
-89 -353 0
-89 -359 0
-89 -378 0
-89 -432 0
-96 -205 0
-96 -220 0
-96 -237 0
-96 -242 0
-96 -308 0
-96 -353 0
-96 -359 0
-96 -378 0
-96 -432 0
-205 -220 0
-205 -237 0
-205 -242 0
-205 -308 0
-205 -353 0
-205 -359 0
-205 -378 0
-205 -432 0
-220 -237 0
-220 -242 0
-220 -308 0
-220 -353 0
-220 -359 0
-220 -378 0
-220 -432 0
-237 -242 0
-237 -308 0
-237 -353 0
-237 -359 0
-237 -378 0
-237 -432 0
-242 -308 0
-242 -353 0
-242 -359 0
-242 -378 0
-242 -432 0
-308 -353 0
-308 -359 0
-308 -378 0
-308 -432 0
-353 -359 0
-353 -378 0
-353 -432 0
-359 -378 0
-359 -432 0
-378 -432 0
79 85 101 211 233 248 314 321 348 365 383 389 427 0
-79 -85 0
-79 -101 0
-79 -211 0
-79 -233 0
-79 -248 0
-79 -314 0
-79 -321 0
-79 -348 0
-79 -365 0
-79 -383 0
-79 -389 0
-79 -427 0
-85 -101 0
-85 -211 0
-85 -233 0
-85 -248 0
-85 -314 0
-85 -321 0
-85 -348 0
-85 -365 0
-85 -383 0
-85 -389 0
-85 -427 0
-101 -211 0
-101 -233 0
-101 -248 0
-101 -314 0
-101 -321 0
-101 -348 0
-101 -365 0
-101 -383 0
-101 -389 0
-101 -427 0
-211 -233 0
-211 -248 0
-211 -314 0
-211 -321 0
-211 -348 0
-211 -365 0
-211 -383 0
-211 -389 0
-211 -427 0
-233 -248 0
-233 -314 0
-233 -321 0
-233 -348 0
-233 -365 0
-233 -383 0
-233 -389 0
-233 -427 0
-248 -314 0
-248 -321 0
-248 -348 0
-248 -365 0
-248 -383 0
-248 -389 0
-248 -427 0
-314 -321 0
-314 -348 0
-314 -365 0
-314 -383 0
-314 -389 0
-314 -427 0
-321 -348 0
-321 -365 0
-321 -383 0
-321 -389 0
-321 -427 0
-348 -365 0
-348 -383 0
-348 -389 0
-348 -427 0
-365 -383 0
-365 -389 0
-365 -427 0
-383 -389 0
-383 -427 0
-389 -427 0
62 90 112 200 220 227 261 301 333 338 375 416 435 0
-62 -90 0
-62 -112 0
-62 -200 0
-62 -220 0
-62 -227 0
-62 -261 0
-62 -301 0
-62 -333 0
-62 -338 0
-62 -375 0
-62 -416 0
-62 -435 0
-90 -112 0
-90 -200 0
-90 -220 0
-90 -227 0
-90 -261 0
-90 -301 0
-90 -333 0
-90 -338 0
-90 -375 0
-90 -416 0
-90 -435 0
-112 -200 0
-112 -220 0
-112 -227 0
-112 -261 0
-112 -301 0
-112 -333 0
-112 -338 0
-112 -375 0
-112 -416 0
-112 -435 0
-200 -220 0
-200 -227 0
-200 -261 0
-200 -301 0
-200 -333 0
-200 -338 0
-200 -375 0
-200 -416 0
-200 -435 0
-220 -227 0
-220 -261 0
-220 -301 0
-220 -333 0
-220 -338 0
-220 -375 0
-220 -416 0
-220 -435 0
-227 -261 0
-227 -301 0
-227 -333 0
-227 -338 0
-227 -375 0
-227 -416 0
-227 -435 0
-261 -301 0
-261 -333 0
-261 -338 0
-261 -375 0
-261 -416 0
-261 -435 0
-301 -333 0
-301 -338 0
-301 -375 0
-301 -416 0
-301 -435 0
-333 -338 0
-333 -375 0
-333 -416 0
-333 -435 0
-338 -375 0
-338 -416 0
-338 -435 0
-375 -416 0
-375 -435 0
-416 -435 0
52 62 102 190 211 239 272 293 344 405 412 446 450 0
-52 -62 0
-52 -102 0
-52 -190 0
-52 -211 0
-52 -239 0
-52 -272 0
-52 -293 0
-52 -344 0
-52 -405 0
-52 -412 0
-52 -446 0
-52 -450 0
-62 -102 0
-62 -190 0
-62 -211 0
-62 -239 0
-62 -272 0
-62 -293 0
-62 -344 0
-62 -405 0
-62 -412 0
-62 -446 0
-62 -450 0
-102 -190 0
-102 -211 0
-102 -239 0
-102 -272 0
-102 -293 0
-102 -344 0
-102 -405 0
-102 -412 0
-102 -446 0
-102 -450 0
-190 -211 0
-190 -239 0
-190 -272 0
-190 -293 0
-190 -344 0
-190 -405 0
-190 -412 0
-190 -446 0
-190 -450 0
-211 -239 0
-211 -272 0
-211 -293 0
-211 -344 0
-211 -405 0
-211 -412 0
-211 -446 0
-211 -450 0
-239 -272 0
-239 -293 0
-239 -344 0
-239 -405 0
-239 -412 0
-239 -446 0
-239 -450 0
-272 -293 0
-272 -344 0
-272 -405 0
-272 -412 0
-272 -446 0
-272 -450 0
-293 -344 0
-293 -405 0
-293 -412 0
-293 -446 0
-293 -450 0
-344 -405 0
-344 -412 0
-344 -446 0
-344 -450 0
-405 -412 0
-405 -446 0
-405 -450 0
-412 -446 0
-412 -450 0
-446 -450 0
41 52 113 136 200 250 284 314 356 424 440 443 453 0
-41 -52 0
-41 -113 0
-41 -136 0
-41 -200 0
-41 -250 0
-41 -284 0
-41 -314 0
-41 -356 0
-41 -424 0
-41 -440 0
-41 -443 0
-41 -453 0
-52 -113 0
-52 -136 0
-52 -200 0
-52 -250 0
-52 -284 0
-52 -314 0
-52 -356 0
-52 -424 0
-52 -440 0
-52 -443 0
-52 -453 0
-113 -136 0
-113 -200 0
-113 -250 0
-113 -284 0
-113 -314 0
-113 -356 0
-113 -424 0
-113 -440 0
-113 -443 0
-113 -453 0
-136 -200 0
-136 -250 0
-136 -284 0
-136 -314 0
-136 -356 0
-136 -424 0
-136 -440 0
-136 -443 0
-136 -453 0
-200 -250 0
-200 -284 0
-200 -314 0
-200 -356 0
-200 -424 0
-200 -440 0
-200 -443 0
-200 -453 0
-250 -284 0
-250 -314 0
-250 -356 0
-250 -424 0
-250 -440 0
-250 -443 0
-250 -453 0
-284 -314 0
-284 -356 0
-284 -424 0
-284 -440 0
-284 -443 0
-284 -453 0
-314 -356 0
-314 -424 0
-314 -440 0
-314 -443 0
-314 -453 0
-356 -424 0
-356 -440 0
-356 -443 0
-356 -453 0
-424 -440 0
-424 -443 0
-424 -453 0
-440 -443 0
-440 -453 0
-443 -453 0
31 41 125 148 168 190 301 367 383 387 409 421 432 0
-31 -41 0
-31 -125 0
-31 -148 0
-31 -168 0
-31 -190 0
-31 -301 0
-31 -367 0
-31 -383 0
-31 -387 0
-31 -409 0
-31 -421 0
-31 -432 0
-41 -125 0
-41 -148 0
-41 -168 0
-41 -190 0
-41 -301 0
-41 -367 0
-41 -383 0
-41 -387 0
-41 -409 0
-41 -421 0
-41 -432 0
-125 -148 0
-125 -168 0
-125 -190 0
-125 -301 0
-125 -367 0
-125 -383 0
-125 -387 0
-125 -409 0
-125 -421 0
-125 -432 0
-148 -168 0
-148 -190 0
-148 -301 0
-148 -367 0
-148 -383 0
-148 -387 0
-148 -409 0
-148 -421 0
-148 -432 0
-168 -190 0
-168 -301 0
-168 -367 0
-168 -383 0
-168 -387 0
-168 -409 0
-168 -421 0
-168 -432 0
-190 -301 0
-190 -367 0
-190 -383 0
-190 -387 0
-190 -409 0
-190 -421 0
-190 -432 0
-301 -367 0
-301 -383 0
-301 -387 0
-301 -409 0
-301 -421 0
-301 -432 0
-367 -383 0
-367 -387 0
-367 -409 0
-367 -421 0
-367 -432 0
-383 -387 0
-383 -409 0
-383 -421 0
-383 -432 0
-387 -409 0
-387 -421 0
-387 -432 0
-409 -421 0
-409 -432 0
-421 -432 0
21 31 137 159 274 293 295 305 319 330 353 365 375 0
-21 -31 0
-21 -137 0
-21 -159 0
-21 -274 0
-21 -293 0
-21 -295 0
-21 -305 0
-21 -319 0
-21 -330 0
-21 -353 0
-21 -365 0
-21 -375 0
-31 -137 0
-31 -159 0
-31 -274 0
-31 -293 0
-31 -295 0
-31 -305 0
-31 -319 0
-31 -330 0
-31 -353 0
-31 -365 0
-31 -375 0
-137 -159 0
-137 -274 0
-137 -293 0
-137 -295 0
-137 -305 0
-137 -319 0
-137 -330 0
-137 -353 0
-137 -365 0
-137 -375 0
-159 -274 0
-159 -293 0
-159 -295 0
-159 -305 0
-159 -319 0
-159 -330 0
-159 -353 0
-159 -365 0
-159 -375 0
-274 -293 0
-274 -295 0
-274 -305 0
-274 -319 0
-274 -330 0
-274 -353 0
-274 -365 0
-274 -375 0
-293 -295 0
-293 -305 0
-293 -319 0
-293 -330 0
-293 -353 0
-293 -365 0
-293 -375 0
-295 -305 0
-295 -319 0
-295 -330 0
-295 -353 0
-295 -365 0
-295 -375 0
-305 -319 0
-305 -330 0
-305 -353 0
-305 -365 0
-305 -375 0
-319 -330 0
-319 -353 0
-319 -365 0
-319 -375 0
-330 -353 0
-330 -365 0
-330 -375 0
-353 -365 0
-353 -375 0
-365 -375 0
21 149 168 170 182 192 204 225 237 248 261 272 284 0
-21 -149 0
-21 -168 0
-21 -170 0
-21 -182 0
-21 -192 0
-21 -204 0
-21 -225 0
-21 -237 0
-21 -248 0
-21 -261 0
-21 -272 0
-21 -284 0
-149 -168 0
-149 -170 0
-149 -182 0
-149 -192 0
-149 -204 0
-149 -225 0
-149 -237 0
-149 -248 0
-149 -261 0
-149 -272 0
-149 -284 0
-168 -170 0
-168 -182 0
-168 -192 0
-168 -204 0
-168 -225 0
-168 -237 0
-168 -248 0
-168 -261 0
-168 -272 0
-168 -284 0
-170 -182 0
-170 -192 0
-170 -204 0
-170 -225 0
-170 -237 0
-170 -248 0
-170 -261 0
-170 -272 0
-170 -284 0
-182 -192 0
-182 -204 0
-182 -225 0
-182 -237 0
-182 -248 0
-182 -261 0
-182 -272 0
-182 -284 0
-192 -204 0
-192 -225 0
-192 -237 0
-192 -248 0
-192 -261 0
-192 -272 0
-192 -284 0
-204 -225 0
-204 -237 0
-204 -248 0
-204 -261 0
-204 -272 0
-204 -284 0
-225 -237 0
-225 -248 0
-225 -261 0
-225 -272 0
-225 -284 0
-237 -248 0
-237 -261 0
-237 -272 0
-237 -284 0
-248 -261 0
-248 -272 0
-248 -284 0
-261 -272 0
-261 -284 0
-272 -284 0
11 22 33 44 55 66 78 89 101 112 136 148 159 0
-11 -22 0
-11 -33 0
-11 -44 0
-11 -55 0
-11 -66 0
-11 -78 0
-11 -89 0
-11 -101 0
-11 -112 0
-11 -136 0
-11 -148 0
-11 -159 0
-22 -33 0
-22 -44 0
-22 -55 0
-22 -66 0
-22 -78 0
-22 -89 0
-22 -101 0
-22 -112 0
-22 -136 0
-22 -148 0
-22 -159 0
-33 -44 0
-33 -55 0
-33 -66 0
-33 -78 0
-33 -89 0
-33 -101 0
-33 -112 0
-33 -136 0
-33 -148 0
-33 -159 0
-44 -55 0
-44 -66 0
-44 -78 0
-44 -89 0
-44 -101 0
-44 -112 0
-44 -136 0
-44 -148 0
-44 -159 0
-55 -66 0
-55 -78 0
-55 -89 0
-55 -101 0
-55 -112 0
-55 -136 0
-55 -148 0
-55 -159 0
-66 -78 0
-66 -89 0
-66 -101 0
-66 -112 0
-66 -136 0
-66 -148 0
-66 -159 0
-78 -89 0
-78 -101 0
-78 -112 0
-78 -136 0
-78 -148 0
-78 -159 0
-89 -101 0
-89 -112 0
-89 -136 0
-89 -148 0
-89 -159 0
-101 -112 0
-101 -136 0
-101 -148 0
-101 -159 0
-112 -136 0
-112 -148 0
-112 -159 0
-136 -148 0
-136 -159 0
-148 -159 0
1 2 23 45 57 80 91 103 126 138 150 0
-1 -2 0
-1 -23 0
-1 -45 0
-1 -57 0
-1 -80 0
-1 -91 0
-1 -103 0
-1 -126 0
-1 -138 0
-1 -150 0
-2 -23 0
-2 -45 0
-2 -57 0
-2 -80 0
-2 -91 0
-2 -103 0
-2 -126 0
-2 -138 0
-2 -150 0
-23 -45 0
-23 -57 0
-23 -80 0
-23 -91 0
-23 -103 0
-23 -126 0
-23 -138 0
-23 -150 0
-45 -57 0
-45 -80 0
-45 -91 0
-45 -103 0
-45 -126 0
-45 -138 0
-45 -150 0
-57 -80 0
-57 -91 0
-57 -103 0
-57 -126 0
-57 -138 0
-57 -150 0
-80 -91 0
-80 -103 0
-80 -126 0
-80 -138 0
-80 -150 0
-91 -103 0
-91 -126 0
-91 -138 0
-91 -150 0
-103 -126 0
-103 -138 0
-103 -150 0
-126 -138 0
-126 -150 0
-138 -150 0
2 12 171 195 206 216 228 240 251 262 275 0
-2 -12 0
-2 -171 0
-2 -195 0
-2 -206 0
-2 -216 0
-2 -228 0
-2 -240 0
-2 -251 0
-2 -262 0
-2 -275 0
-12 -171 0
-12 -195 0
-12 -206 0
-12 -216 0
-12 -228 0
-12 -240 0
-12 -251 0
-12 -262 0
-12 -275 0
-171 -195 0
-171 -206 0
-171 -216 0
-171 -228 0
-171 -240 0
-171 -251 0
-171 -262 0
-171 -275 0
-195 -206 0
-195 -216 0
-195 -228 0
-195 -240 0
-195 -251 0
-195 -262 0
-195 -275 0
-206 -216 0
-206 -228 0
-206 -240 0
-206 -251 0
-206 -262 0
-206 -275 0
-216 -228 0
-216 -240 0
-216 -251 0
-216 -262 0
-216 -275 0
-228 -240 0
-228 -251 0
-228 -262 0
-228 -275 0
-240 -251 0
-240 -262 0
-240 -275 0
-251 -262 0
-251 -275 0
-262 -275 0
23 34 193 265 306 371 379 388 390 400 413 0
-23 -34 0
-23 -193 0
-23 -265 0
-23 -306 0
-23 -371 0
-23 -379 0
-23 -388 0
-23 -390 0
-23 -400 0
-23 -413 0
-34 -193 0
-34 -265 0
-34 -306 0
-34 -371 0
-34 -379 0
-34 -388 0
-34 -390 0
-34 -400 0
-34 -413 0
-193 -265 0
-193 -306 0
-193 -371 0
-193 -379 0
-193 -388 0
-193 -390 0
-193 -400 0
-193 -413 0
-265 -306 0
-265 -371 0
-265 -379 0
-265 -388 0
-265 -390 0
-265 -400 0
-265 -413 0
-306 -371 0
-306 -379 0
-306 -388 0
-306 -390 0
-306 -400 0
-306 -413 0
-371 -379 0
-371 -388 0
-371 -390 0
-371 -400 0
-371 -413 0
-379 -388 0
-379 -390 0
-379 -400 0
-379 -413 0
-388 -390 0
-388 -400 0
-388 -413 0
-390 -400 0
-390 -413 0
-400 -413 0
45 56 108 215 243 265 331 349 417 451 454 0
-45 -56 0
-45 -108 0
-45 -215 0
-45 -243 0
-45 -265 0
-45 -331 0
-45 -349 0
-45 -417 0
-45 -451 0
-45 -454 0
-56 -108 0
-56 -215 0
-56 -243 0
-56 -265 0
-56 -331 0
-56 -349 0
-56 -417 0
-56 -451 0
-56 -454 0
-108 -215 0
-108 -243 0
-108 -265 0
-108 -331 0
-108 -349 0
-108 -417 0
-108 -451 0
-108 -454 0
-215 -243 0
-215 -265 0
-215 -331 0
-215 -349 0
-215 -417 0
-215 -451 0
-215 -454 0
-243 -265 0
-243 -331 0
-243 -349 0
-243 -417 0
-243 -451 0
-243 -454 0
-265 -331 0
-265 -349 0
-265 -417 0
-265 -451 0
-265 -454 0
-331 -349 0
-331 -417 0
-331 -451 0
-331 -454 0
-349 -417 0
-349 -451 0
-349 -454 0
-417 -451 0
-417 -454 0
-451 -454 0
57 67 97 108 195 226 234 343 371 422 441 0
-57 -67 0
-57 -97 0
-57 -108 0
-57 -195 0
-57 -226 0
-57 -234 0
-57 -343 0
-57 -371 0
-57 -422 0
-57 -441 0
-67 -97 0
-67 -108 0
-67 -195 0
-67 -226 0
-67 -234 0
-67 -343 0
-67 -371 0
-67 -422 0
-67 -441 0
-97 -108 0
-97 -195 0
-97 -226 0
-97 -234 0
-97 -343 0
-97 -371 0
-97 -422 0
-97 -441 0
-108 -195 0
-108 -226 0
-108 -234 0
-108 -343 0
-108 -371 0
-108 -422 0
-108 -441 0
-195 -226 0
-195 -234 0
-195 -343 0
-195 -371 0
-195 -422 0
-195 -441 0
-226 -234 0
-226 -343 0
-226 -371 0
-226 -422 0
-226 -441 0
-234 -343 0
-234 -371 0
-234 -422 0
-234 -441 0
-343 -371 0
-343 -422 0
-343 -441 0
-371 -422 0
-371 -441 0
-422 -441 0
79 97 206 221 238 243 327 354 379 394 433 0
-79 -97 0
-79 -206 0
-79 -221 0
-79 -238 0
-79 -243 0
-79 -327 0
-79 -354 0
-79 -379 0
-79 -394 0
-79 -433 0
-97 -206 0
-97 -221 0
-97 -238 0
-97 -243 0
-97 -327 0
-97 -354 0
-97 -379 0
-97 -394 0
-97 -433 0
-206 -221 0
-206 -238 0
-206 -243 0
-206 -327 0
-206 -354 0
-206 -379 0
-206 -394 0
-206 -433 0
-221 -238 0
-221 -243 0
-221 -327 0
-221 -354 0
-221 -379 0
-221 -394 0
-221 -433 0
-238 -243 0
-238 -327 0
-238 -354 0
-238 -379 0
-238 -394 0
-238 -433 0
-243 -327 0
-243 -354 0
-243 -379 0
-243 -394 0
-243 -433 0
-327 -354 0
-327 -379 0
-327 -394 0
-327 -433 0
-354 -379 0
-354 -394 0
-354 -433 0
-379 -394 0
-379 -433 0
-394 -433 0
73 80 90 212 216 234 249 315 349 366 384 390 0
-73 -80 0
-73 -90 0
-73 -212 0
-73 -216 0
-73 -234 0
-73 -249 0
-73 -315 0
-73 -349 0
-73 -366 0
-73 -384 0
-73 -390 0
-80 -90 0
-80 -212 0
-80 -216 0
-80 -234 0
-80 -249 0
-80 -315 0
-80 -349 0
-80 -366 0
-80 -384 0
-80 -390 0
-90 -212 0
-90 -216 0
-90 -234 0
-90 -249 0
-90 -315 0
-90 -349 0
-90 -366 0
-90 -384 0
-90 -390 0
-212 -216 0
-212 -234 0
-212 -249 0
-212 -315 0
-212 -349 0
-212 -366 0
-212 -384 0
-212 -390 0
-216 -234 0
-216 -249 0
-216 -315 0
-216 -349 0
-216 -366 0
-216 -384 0
-216 -390 0
-234 -249 0
-234 -315 0
-234 -349 0
-234 -366 0
-234 -384 0
-234 -390 0
-249 -315 0
-249 -349 0
-249 -366 0
-249 -384 0
-249 -390 0
-315 -349 0
-315 -366 0
-315 -384 0
-315 -390 0
-349 -366 0
-349 -384 0
-349 -390 0
-366 -384 0
-366 -390 0
-384 -390 0
63 73 91 102 201 221 228 302 376 400 417 0
-63 -73 0
-63 -91 0
-63 -102 0
-63 -201 0
-63 -221 0
-63 -228 0
-63 -302 0
-63 -376 0
-63 -400 0
-63 -417 0
-73 -91 0
-73 -102 0
-73 -201 0
-73 -221 0
-73 -228 0
-73 -302 0
-73 -376 0
-73 -400 0
-73 -417 0
-91 -102 0
-91 -201 0
-91 -221 0
-91 -228 0
-91 -302 0
-91 -376 0
-91 -400 0
-91 -417 0
-102 -201 0
-102 -221 0
-102 -228 0
-102 -302 0
-102 -376 0
-102 -400 0
-102 -417 0
-201 -221 0
-201 -228 0
-201 -302 0
-201 -376 0
-201 -400 0
-201 -417 0
-221 -228 0
-221 -302 0
-221 -376 0
-221 -400 0
-221 -417 0
-228 -302 0
-228 -376 0
-228 -400 0
-228 -417 0
-302 -376 0
-302 -400 0
-302 -417 0
-376 -400 0
-376 -417 0
-400 -417 0
53 63 103 113 212 240 273 294 327 413 451 0
-53 -63 0
-53 -103 0
-53 -113 0
-53 -212 0
-53 -240 0
-53 -273 0
-53 -294 0
-53 -327 0
-53 -413 0
-53 -451 0
-63 -103 0
-63 -113 0
-63 -212 0
-63 -240 0
-63 -273 0
-63 -294 0
-63 -327 0
-63 -413 0
-63 -451 0
-103 -113 0
-103 -212 0
-103 -240 0
-103 -273 0
-103 -294 0
-103 -327 0
-103 -413 0
-103 -451 0
-113 -212 0
-113 -240 0
-113 -273 0
-113 -294 0
-113 -327 0
-113 -413 0
-113 -451 0
-212 -240 0
-212 -273 0
-212 -294 0
-212 -327 0
-212 -413 0
-212 -451 0
-240 -273 0
-240 -294 0
-240 -327 0
-240 -413 0
-240 -451 0
-273 -294 0
-273 -327 0
-273 -413 0
-273 -451 0
-294 -327 0
-294 -413 0
-294 -451 0
-327 -413 0
-327 -451 0
-413 -451 0
42 53 125 180 201 251 285 315 394 441 454 0
-42 -53 0
-42 -125 0
-42 -180 0
-42 -201 0
-42 -251 0
-42 -285 0
-42 -315 0
-42 -394 0
-42 -441 0
-42 -454 0
-53 -125 0
-53 -180 0
-53 -201 0
-53 -251 0
-53 -285 0
-53 -315 0
-53 -394 0
-53 -441 0
-53 -454 0
-125 -180 0
-125 -201 0
-125 -251 0
-125 -285 0
-125 -315 0
-125 -394 0
-125 -441 0
-125 -454 0
-180 -201 0
-180 -251 0
-180 -285 0
-180 -315 0
-180 -394 0
-180 -441 0
-180 -454 0
-201 -251 0
-201 -285 0
-201 -315 0
-201 -394 0
-201 -441 0
-201 -454 0
-251 -285 0
-251 -315 0
-251 -394 0
-251 -441 0
-251 -454 0
-285 -315 0
-285 -394 0
-285 -441 0
-285 -454 0
-315 -394 0
-315 -441 0
-315 -454 0
-394 -441 0
-394 -454 0
-441 -454 0
32 42 126 137 169 262 302 384 388 422 433 0
-32 -42 0
-32 -126 0
-32 -137 0
-32 -169 0
-32 -262 0
-32 -302 0
-32 -384 0
-32 -388 0
-32 -422 0
-32 -433 0
-42 -126 0
-42 -137 0
-42 -169 0
-42 -262 0
-42 -302 0
-42 -384 0
-42 -388 0
-42 -422 0
-42 -433 0
-126 -137 0
-126 -169 0
-126 -262 0
-126 -302 0
-126 -384 0
-126 -388 0
-126 -422 0
-126 -433 0
-137 -169 0
-137 -262 0
-137 -302 0
-137 -384 0
-137 -388 0
-137 -422 0
-137 -433 0
-169 -262 0
-169 -302 0
-169 -384 0
-169 -388 0
-169 -422 0
-169 -433 0
-262 -302 0
-262 -384 0
-262 -388 0
-262 -422 0
-262 -433 0
-302 -384 0
-302 -388 0
-302 -422 0
-302 -433 0
-384 -388 0
-384 -422 0
-384 -433 0
-388 -422 0
-388 -433 0
-422 -433 0
32 138 149 180 275 294 306 331 343 354 366 376 0
-32 -138 0
-32 -149 0
-32 -180 0
-32 -275 0
-32 -294 0
-32 -306 0
-32 -331 0
-32 -343 0
-32 -354 0
-32 -366 0
-32 -376 0
-138 -149 0
-138 -180 0
-138 -275 0
-138 -294 0
-138 -306 0
-138 -331 0
-138 -343 0
-138 -354 0
-138 -366 0
-138 -376 0
-149 -180 0
-149 -275 0
-149 -294 0
-149 -306 0
-149 -331 0
-149 -343 0
-149 -354 0
-149 -366 0
-149 -376 0
-180 -275 0
-180 -294 0
-180 -306 0
-180 -331 0
-180 -343 0
-180 -354 0
-180 -366 0
-180 -376 0
-275 -294 0
-275 -306 0
-275 -331 0
-275 -343 0
-275 -354 0
-275 -366 0
-275 -376 0
-294 -306 0
-294 -331 0
-294 -343 0
-294 -354 0
-294 -366 0
-294 -376 0
-306 -331 0
-306 -343 0
-306 -354 0
-306 -366 0
-306 -376 0
-331 -343 0
-331 -354 0
-331 -366 0
-331 -376 0
-343 -354 0
-343 -366 0
-343 -376 0
-354 -366 0
-354 -376 0
-366 -376 0
11 150 169 171 193 215 226 238 249 273 285 0
-11 -150 0
-11 -169 0
-11 -171 0
-11 -193 0
-11 -215 0
-11 -226 0
-11 -238 0
-11 -249 0
-11 -273 0
-11 -285 0
-150 -169 0
-150 -171 0
-150 -193 0
-150 -215 0
-150 -226 0
-150 -238 0
-150 -249 0
-150 -273 0
-150 -285 0
-169 -171 0
-169 -193 0
-169 -215 0
-169 -226 0
-169 -238 0
-169 -249 0
-169 -273 0
-169 -285 0
-171 -193 0
-171 -215 0
-171 -226 0
-171 -238 0
-171 -249 0
-171 -273 0
-171 -285 0
-193 -215 0
-193 -226 0
-193 -238 0
-193 -249 0
-193 -273 0
-193 -285 0
-215 -226 0
-215 -238 0
-215 -249 0
-215 -273 0
-215 -285 0
-226 -238 0
-226 -249 0
-226 -273 0
-226 -285 0
-238 -249 0
-238 -273 0
-238 -285 0
-249 -273 0
-249 -285 0
-273 -285 0
2 3 24 46 68 81 92 114 127 139 151 0
-2 -3 0
-2 -24 0
-2 -46 0
-2 -68 0
-2 -81 0
-2 -92 0
-2 -114 0
-2 -127 0
-2 -139 0
-2 -151 0
-3 -24 0
-3 -46 0
-3 -68 0
-3 -81 0
-3 -92 0
-3 -114 0
-3 -127 0
-3 -139 0
-3 -151 0
-24 -46 0
-24 -68 0
-24 -81 0
-24 -92 0
-24 -114 0
-24 -127 0
-24 -139 0
-24 -151 0
-46 -68 0
-46 -81 0
-46 -92 0
-46 -114 0
-46 -127 0
-46 -139 0
-46 -151 0
-68 -81 0
-68 -92 0
-68 -114 0
-68 -127 0
-68 -139 0
-68 -151 0
-81 -92 0
-81 -114 0
-81 -127 0
-81 -139 0
-81 -151 0
-92 -114 0
-92 -127 0
-92 -139 0
-92 -151 0
-114 -127 0
-114 -139 0
-114 -151 0
-127 -139 0
-127 -151 0
-139 -151 0
3 152 160 161 173 184 217 229 252 263 276 0
-3 -152 0
-3 -160 0
-3 -161 0
-3 -173 0
-3 -184 0
-3 -217 0
-3 -229 0
-3 -252 0
-3 -263 0
-3 -276 0
-152 -160 0
-152 -161 0
-152 -173 0
-152 -184 0
-152 -217 0
-152 -229 0
-152 -252 0
-152 -263 0
-152 -276 0
-160 -161 0
-160 -173 0
-160 -184 0
-160 -217 0
-160 -229 0
-160 -252 0
-160 -263 0
-160 -276 0
-161 -173 0
-161 -184 0
-161 -217 0
-161 -229 0
-161 -252 0
-161 -263 0
-161 -276 0
-173 -184 0
-173 -217 0
-173 -229 0
-173 -252 0
-173 -263 0
-173 -276 0
-184 -217 0
-184 -229 0
-184 -252 0
-184 -263 0
-184 -276 0
-217 -229 0
-217 -252 0
-217 -263 0
-217 -276 0
-229 -252 0
-229 -263 0
-229 -276 0
-252 -263 0
-252 -276 0
-263 -276 0
23 141 152 172 277 287 296 309 322 334 357 368 0
-23 -141 0
-23 -152 0
-23 -172 0
-23 -277 0
-23 -287 0
-23 -296 0
-23 -309 0
-23 -322 0
-23 -334 0
-23 -357 0
-23 -368 0
-141 -152 0
-141 -172 0
-141 -277 0
-141 -287 0
-141 -296 0
-141 -309 0
-141 -322 0
-141 -334 0
-141 -357 0
-141 -368 0
-152 -172 0
-152 -277 0
-152 -287 0
-152 -296 0
-152 -309 0
-152 -322 0
-152 -334 0
-152 -357 0
-152 -368 0
-172 -277 0
-172 -287 0
-172 -296 0
-172 -309 0
-172 -322 0
-172 -334 0
-172 -357 0
-172 -368 0
-277 -287 0
-277 -296 0
-277 -309 0
-277 -322 0
-277 -334 0
-277 -357 0
-277 -368 0
-287 -296 0
-287 -309 0
-287 -322 0
-287 -334 0
-287 -357 0
-287 -368 0
-296 -309 0
-296 -322 0
-296 -334 0
-296 -357 0
-296 -368 0
-309 -322 0
-309 -334 0
-309 -357 0
-309 -368 0
-322 -334 0
-322 -357 0
-322 -368 0
-334 -357 0
-334 -368 0
-357 -368 0
24 130 141 161 183 266 307 380 391 401 425 0
-24 -130 0
-24 -141 0
-24 -161 0
-24 -183 0
-24 -266 0
-24 -307 0
-24 -380 0
-24 -391 0
-24 -401 0
-24 -425 0
-130 -141 0
-130 -161 0
-130 -183 0
-130 -266 0
-130 -307 0
-130 -380 0
-130 -391 0
-130 -401 0
-130 -425 0
-141 -161 0
-141 -183 0
-141 -266 0
-141 -307 0
-141 -380 0
-141 -391 0
-141 -401 0
-141 -425 0
-161 -183 0
-161 -266 0
-161 -307 0
-161 -380 0
-161 -391 0
-161 -401 0
-161 -425 0
-183 -266 0
-183 -307 0
-183 -380 0
-183 -391 0
-183 -401 0
-183 -425 0
-266 -307 0
-266 -380 0
-266 -391 0
-266 -401 0
-266 -425 0
-307 -380 0
-307 -391 0
-307 -401 0
-307 -425 0
-380 -391 0
-380 -401 0
-380 -425 0
-391 -401 0
-391 -425 0
-401 -425 0
45 118 130 173 194 277 320 360 398 428 436 0
-45 -118 0
-45 -130 0
-45 -173 0
-45 -194 0
-45 -277 0
-45 -320 0
-45 -360 0
-45 -398 0
-45 -428 0
-45 -436 0
-118 -130 0
-118 -173 0
-118 -194 0
-118 -277 0
-118 -320 0
-118 -360 0
-118 -398 0
-118 -428 0
-118 -436 0
-130 -173 0
-130 -194 0
-130 -277 0
-130 -320 0
-130 -360 0
-130 -398 0
-130 -428 0
-130 -436 0
-173 -194 0
-173 -277 0
-173 -320 0
-173 -360 0
-173 -398 0
-173 -428 0
-173 -436 0
-194 -277 0
-194 -320 0
-194 -360 0
-194 -398 0
-194 -428 0
-194 -436 0
-277 -320 0
-277 -360 0
-277 -398 0
-277 -428 0
-277 -436 0
-320 -360 0
-320 -398 0
-320 -428 0
-320 -436 0
-360 -398 0
-360 -428 0
-360 -436 0
-398 -428 0
-398 -436 0
-428 -436 0
46 57 118 184 205 244 266 287 332 410 455 0
-46 -57 0
-46 -118 0
-46 -184 0
-46 -205 0
-46 -244 0
-46 -266 0
-46 -287 0
-46 -332 0
-46 -410 0
-46 -455 0
-57 -118 0
-57 -184 0
-57 -205 0
-57 -244 0
-57 -266 0
-57 -287 0
-57 -332 0
-57 -410 0
-57 -455 0
-118 -184 0
-118 -205 0
-118 -244 0
-118 -266 0
-118 -287 0
-118 -332 0
-118 -410 0
-118 -455 0
-184 -205 0
-184 -244 0
-184 -266 0
-184 -287 0
-184 -332 0
-184 -410 0
-184 -455 0
-205 -244 0
-205 -266 0
-205 -287 0
-205 -332 0
-205 -410 0
-205 -455 0
-244 -266 0
-244 -287 0
-244 -332 0
-244 -410 0
-244 -455 0
-266 -287 0
-266 -332 0
-266 -410 0
-266 -455 0
-287 -332 0
-287 -410 0
-287 -455 0
-332 -410 0
-332 -455 0
-410 -455 0
68 80 86 222 227 244 309 355 360 380 395 434 0
-68 -80 0
-68 -86 0
-68 -222 0
-68 -227 0
-68 -244 0
-68 -309 0
-68 -355 0
-68 -360 0
-68 -380 0
-68 -395 0
-68 -434 0
-80 -86 0
-80 -222 0
-80 -227 0
-80 -244 0
-80 -309 0
-80 -355 0
-80 -360 0
-80 -380 0
-80 -395 0
-80 -434 0
-86 -222 0
-86 -227 0
-86 -244 0
-86 -309 0
-86 -355 0
-86 -360 0
-86 -380 0
-86 -395 0
-86 -434 0
-222 -227 0
-222 -244 0
-222 -309 0
-222 -355 0
-222 -360 0
-222 -380 0
-222 -395 0
-222 -434 0
-227 -244 0
-227 -309 0
-227 -355 0
-227 -360 0
-227 -380 0
-227 -395 0
-227 -434 0
-244 -309 0
-244 -355 0
-244 -360 0
-244 -380 0
-244 -395 0
-244 -434 0
-309 -355 0
-309 -360 0
-309 -380 0
-309 -395 0
-309 -434 0
-355 -360 0
-355 -380 0
-355 -395 0
-355 -434 0
-360 -380 0
-360 -395 0
-360 -434 0
-380 -395 0
-380 -434 0
-395 -434 0
74 81 86 91 217 239 316 322 385 391 428 0
-74 -81 0
-74 -86 0
-74 -91 0
-74 -217 0
-74 -239 0
-74 -316 0
-74 -322 0
-74 -385 0
-74 -391 0
-74 -428 0
-81 -86 0
-81 -91 0
-81 -217 0
-81 -239 0
-81 -316 0
-81 -322 0
-81 -385 0
-81 -391 0
-81 -428 0
-86 -91 0
-86 -217 0
-86 -239 0
-86 -316 0
-86 -322 0
-86 -385 0
-86 -391 0
-86 -428 0
-91 -217 0
-91 -239 0
-91 -316 0
-91 -322 0
-91 -385 0
-91 -391 0
-91 -428 0
-217 -239 0
-217 -316 0
-217 -322 0
-217 -385 0
-217 -391 0
-217 -428 0
-239 -316 0
-239 -322 0
-239 -385 0
-239 -391 0
-239 -428 0
-316 -322 0
-316 -385 0
-316 -391 0
-316 -428 0
-322 -385 0
-322 -391 0
-322 -428 0
-385 -391 0
-385 -428 0
-391 -428 0
74 92 103 222 229 250 303 334 377 401 436 0
-74 -92 0
-74 -103 0
-74 -222 0
-74 -229 0
-74 -250 0
-74 -303 0
-74 -334 0
-74 -377 0
-74 -401 0
-74 -436 0
-92 -103 0
-92 -222 0
-92 -229 0
-92 -250 0
-92 -303 0
-92 -334 0
-92 -377 0
-92 -401 0
-92 -436 0
-103 -222 0
-103 -229 0
-103 -250 0
-103 -303 0
-103 -334 0
-103 -377 0
-103 -401 0
-103 -436 0
-222 -229 0
-222 -250 0
-222 -303 0
-222 -334 0
-222 -377 0
-222 -401 0
-222 -436 0
-229 -250 0
-229 -303 0
-229 -334 0
-229 -377 0
-229 -401 0
-229 -436 0
-250 -303 0
-250 -334 0
-250 -377 0
-250 -401 0
-250 -436 0
-303 -334 0
-303 -377 0
-303 -401 0
-303 -436 0
-334 -377 0
-334 -401 0
-334 -436 0
-377 -401 0
-377 -436 0
-401 -436 0
43 114 126 181 252 274 316 357 395 425 455 0
-43 -114 0
-43 -126 0
-43 -181 0
-43 -252 0
-43 -274 0
-43 -316 0
-43 -357 0
-43 -395 0
-43 -425 0
-43 -455 0
-114 -126 0
-114 -181 0
-114 -252 0
-114 -274 0
-114 -316 0
-114 -357 0
-114 -395 0
-114 -425 0
-114 -455 0
-126 -181 0
-126 -252 0
-126 -274 0
-126 -316 0
-126 -357 0
-126 -395 0
-126 -425 0
-126 -455 0
-181 -252 0
-181 -274 0
-181 -316 0
-181 -357 0
-181 -395 0
-181 -425 0
-181 -455 0
-252 -274 0
-252 -316 0
-252 -357 0
-252 -395 0
-252 -425 0
-252 -455 0
-274 -316 0
-274 -357 0
-274 -395 0
-274 -425 0
-274 -455 0
-316 -357 0
-316 -395 0
-316 -425 0
-316 -455 0
-357 -395 0
-357 -425 0
-357 -455 0
-395 -425 0
-395 -455 0
-425 -455 0
43 127 138 170 263 303 368 385 398 410 434 0
-43 -127 0
-43 -138 0
-43 -170 0
-43 -263 0
-43 -303 0
-43 -368 0
-43 -385 0
-43 -398 0
-43 -410 0
-43 -434 0
-127 -138 0
-127 -170 0
-127 -263 0
-127 -303 0
-127 -368 0
-127 -385 0
-127 -398 0
-127 -410 0
-127 -434 0
-138 -170 0
-138 -263 0
-138 -303 0
-138 -368 0
-138 -385 0
-138 -398 0
-138 -410 0
-138 -434 0
-170 -263 0
-170 -303 0
-170 -368 0
-170 -385 0
-170 -398 0
-170 -410 0
-170 -434 0
-263 -303 0
-263 -368 0
-263 -385 0
-263 -398 0
-263 -410 0
-263 -434 0
-303 -368 0
-303 -385 0
-303 -398 0
-303 -410 0
-303 -434 0
-368 -385 0
-368 -398 0
-368 -410 0
-368 -434 0
-385 -398 0
-385 -410 0
-385 -434 0
-398 -410 0
-398 -434 0
-410 -434 0
22 139 150 181 276 296 307 320 332 355 377 0
-22 -139 0
-22 -150 0
-22 -181 0
-22 -276 0
-22 -296 0
-22 -307 0
-22 -320 0
-22 -332 0
-22 -355 0
-22 -377 0
-139 -150 0
-139 -181 0
-139 -276 0
-139 -296 0
-139 -307 0
-139 -320 0
-139 -332 0
-139 -355 0
-139 -377 0
-150 -181 0
-150 -276 0
-150 -296 0
-150 -307 0
-150 -320 0
-150 -332 0
-150 -355 0
-150 -377 0
-181 -276 0
-181 -296 0
-181 -307 0
-181 -320 0
-181 -332 0
-181 -355 0
-181 -377 0
-276 -296 0
-276 -307 0
-276 -320 0
-276 -332 0
-276 -355 0
-276 -377 0
-296 -307 0
-296 -320 0
-296 -332 0
-296 -355 0
-296 -377 0
-307 -320 0
-307 -332 0
-307 -355 0
-307 -377 0
-320 -332 0
-320 -355 0
-320 -377 0
-332 -355 0
-332 -377 0
-355 -377 0
3 13 35 47 69 82 93 104 115 128 140 0
-3 -13 0
-3 -35 0
-3 -47 0
-3 -69 0
-3 -82 0
-3 -93 0
-3 -104 0
-3 -115 0
-3 -128 0
-3 -140 0
-13 -35 0
-13 -47 0
-13 -69 0
-13 -82 0
-13 -93 0
-13 -104 0
-13 -115 0
-13 -128 0
-13 -140 0
-35 -47 0
-35 -69 0
-35 -82 0
-35 -93 0
-35 -104 0
-35 -115 0
-35 -128 0
-35 -140 0
-47 -69 0
-47 -82 0
-47 -93 0
-47 -104 0
-47 -115 0
-47 -128 0
-47 -140 0
-69 -82 0
-69 -93 0
-69 -104 0
-69 -115 0
-69 -128 0
-69 -140 0
-82 -93 0
-82 -104 0
-82 -115 0
-82 -128 0
-82 -140 0
-93 -104 0
-93 -115 0
-93 -128 0
-93 -140 0
-104 -115 0
-104 -128 0
-104 -140 0
-115 -128 0
-115 -140 0
-128 -140 0
13 24 278 286 288 297 310 323 335 345 369 0
-13 -24 0
-13 -278 0
-13 -286 0
-13 -288 0
-13 -297 0
-13 -310 0
-13 -323 0
-13 -335 0
-13 -345 0
-13 -369 0
-24 -278 0
-24 -286 0
-24 -288 0
-24 -297 0
-24 -310 0
-24 -323 0
-24 -335 0
-24 -345 0
-24 -369 0
-278 -286 0
-278 -288 0
-278 -297 0
-278 -310 0
-278 -323 0
-278 -335 0
-278 -345 0
-278 -369 0
-286 -288 0
-286 -297 0
-286 -310 0
-286 -323 0
-286 -335 0
-286 -345 0
-286 -369 0
-288 -297 0
-288 -310 0
-288 -323 0
-288 -335 0
-288 -345 0
-288 -369 0
-297 -310 0
-297 -323 0
-297 -335 0
-297 -345 0
-297 -369 0
-310 -323 0
-310 -335 0
-310 -345 0
-310 -369 0
-323 -335 0
-323 -345 0
-323 -369 0
-335 -345 0
-335 -369 0
-345 -369 0
35 46 119 195 255 278 308 399 437 444 447 0
-35 -46 0
-35 -119 0
-35 -195 0
-35 -255 0
-35 -278 0
-35 -308 0
-35 -399 0
-35 -437 0
-35 -444 0
-35 -447 0
-46 -119 0
-46 -195 0
-46 -255 0
-46 -278 0
-46 -308 0
-46 -399 0
-46 -437 0
-46 -444 0
-46 -447 0
-119 -195 0
-119 -255 0
-119 -278 0
-119 -308 0
-119 -399 0
-119 -437 0
-119 -444 0
-119 -447 0
-195 -255 0
-195 -278 0
-195 -308 0
-195 -399 0
-195 -437 0
-195 -444 0
-195 -447 0
-255 -278 0
-255 -308 0
-255 -399 0
-255 -437 0
-255 -444 0
-255 -447 0
-278 -308 0
-278 -399 0
-278 -437 0
-278 -444 0
-278 -447 0
-308 -399 0
-308 -437 0
-308 -444 0
-308 -447 0
-399 -437 0
-399 -444 0
-399 -447 0
-437 -444 0
-437 -447 0
-444 -447 0
47 119 206 245 288 321 350 411 418 452 456 0
-47 -119 0
-47 -206 0
-47 -245 0
-47 -288 0
-47 -321 0
-47 -350 0
-47 -411 0
-47 -418 0
-47 -452 0
-47 -456 0
-119 -206 0
-119 -245 0
-119 -288 0
-119 -321 0
-119 -350 0
-119 -411 0
-119 -418 0
-119 -452 0
-119 -456 0
-206 -245 0
-206 -288 0
-206 -321 0
-206 -350 0
-206 -411 0
-206 -418 0
-206 -452 0
-206 -456 0
-245 -288 0
-245 -321 0
-245 -350 0
-245 -411 0
-245 -418 0
-245 -452 0
-245 -456 0
-288 -321 0
-288 -350 0
-288 -411 0
-288 -418 0
-288 -452 0
-288 -456 0
-321 -350 0
-321 -411 0
-321 -418 0
-321 -452 0
-321 -456 0
-350 -411 0
-350 -418 0
-350 -452 0
-350 -456 0
-411 -418 0
-411 -452 0
-411 -456 0
-418 -452 0
-418 -456 0
-452 -456 0
68 98 216 235 255 297 333 339 406 423 442 0
-68 -98 0
-68 -216 0
-68 -235 0
-68 -255 0
-68 -297 0
-68 -333 0
-68 -339 0
-68 -406 0
-68 -423 0
-68 -442 0
-98 -216 0
-98 -235 0
-98 -255 0
-98 -297 0
-98 -333 0
-98 -339 0
-98 -406 0
-98 -423 0
-98 -442 0
-216 -235 0
-216 -255 0
-216 -297 0
-216 -333 0
-216 -339 0
-216 -406 0
-216 -423 0
-216 -442 0
-235 -255 0
-235 -297 0
-235 -333 0
-235 -339 0
-235 -406 0
-235 -423 0
-235 -442 0
-255 -297 0
-255 -333 0
-255 -339 0
-255 -406 0
-255 -423 0
-255 -442 0
-297 -333 0
-297 -339 0
-297 -406 0
-297 -423 0
-297 -442 0
-333 -339 0
-333 -406 0
-333 -423 0
-333 -442 0
-339 -406 0
-339 -423 0
-339 -442 0
-406 -423 0
-406 -442 0
-423 -442 0
69 81 87 98 223 228 245 310 328 344 396 0
-69 -81 0
-69 -87 0
-69 -98 0
-69 -223 0
-69 -228 0
-69 -245 0
-69 -310 0
-69 -328 0
-69 -344 0
-69 -396 0
-81 -87 0
-81 -98 0
-81 -223 0
-81 -228 0
-81 -245 0
-81 -310 0
-81 -328 0
-81 -344 0
-81 -396 0
-87 -98 0
-87 -223 0
-87 -228 0
-87 -245 0
-87 -310 0
-87 -328 0
-87 -344 0
-87 -396 0
-98 -223 0
-98 -228 0
-98 -245 0
-98 -310 0
-98 -328 0
-98 -344 0
-98 -396 0
-223 -228 0
-223 -245 0
-223 -310 0
-223 -328 0
-223 -344 0
-223 -396 0
-228 -245 0
-228 -310 0
-228 -328 0
-228 -344 0
-228 -396 0
-245 -310 0
-245 -328 0
-245 -344 0
-245 -396 0
-310 -328 0
-310 -344 0
-310 -396 0
-328 -344 0
-328 -396 0
-344 -396 0
75 82 87 92 235 240 317 323 350 356 386 0
-75 -82 0
-75 -87 0
-75 -92 0
-75 -235 0
-75 -240 0
-75 -317 0
-75 -323 0
-75 -350 0
-75 -356 0
-75 -386 0
-82 -87 0
-82 -92 0
-82 -235 0
-82 -240 0
-82 -317 0
-82 -323 0
-82 -350 0
-82 -356 0
-82 -386 0
-87 -92 0
-87 -235 0
-87 -240 0
-87 -317 0
-87 -323 0
-87 -350 0
-87 -356 0
-87 -386 0
-92 -235 0
-92 -240 0
-92 -317 0
-92 -323 0
-92 -350 0
-92 -356 0
-92 -386 0
-235 -240 0
-235 -317 0
-235 -323 0
-235 -350 0
-235 -356 0
-235 -386 0
-240 -317 0
-240 -323 0
-240 -350 0
-240 -356 0
-240 -386 0
-317 -323 0
-317 -350 0
-317 -356 0
-317 -386 0
-323 -350 0
-323 -356 0
-323 -386 0
-350 -356 0
-350 -386 0
-356 -386 0
64 75 93 202 223 251 304 335 339 367 418 437 0
-64 -75 0
-64 -93 0
-64 -202 0
-64 -223 0
-64 -251 0
-64 -304 0
-64 -335 0
-64 -339 0
-64 -367 0
-64 -418 0
-64 -437 0
-75 -93 0
-75 -202 0
-75 -223 0
-75 -251 0
-75 -304 0
-75 -335 0
-75 -339 0
-75 -367 0
-75 -418 0
-75 -437 0
-93 -202 0
-93 -223 0
-93 -251 0
-93 -304 0
-93 -335 0
-93 -339 0
-93 -367 0
-93 -418 0
-93 -437 0
-202 -223 0
-202 -251 0
-202 -304 0
-202 -335 0
-202 -339 0
-202 -367 0
-202 -418 0
-202 -437 0
-223 -251 0
-223 -304 0
-223 -335 0
-223 -339 0
-223 -367 0
-223 -418 0
-223 -437 0
-251 -304 0
-251 -335 0
-251 -339 0
-251 -367 0
-251 -418 0
-251 -437 0
-304 -335 0
-304 -339 0
-304 -367 0
-304 -418 0
-304 -437 0
-335 -339 0
-335 -367 0
-335 -418 0
-335 -437 0
-339 -367 0
-339 -418 0
-339 -437 0
-367 -418 0
-367 -437 0
-418 -437 0
54 64 104 114 191 262 295 328 345 406 447 452 0
-54 -64 0
-54 -104 0
-54 -114 0
-54 -191 0
-54 -262 0
-54 -295 0
-54 -328 0
-54 -345 0
-54 -406 0
-54 -447 0
-54 -452 0
-64 -104 0
-64 -114 0
-64 -191 0
-64 -262 0
-64 -295 0
-64 -328 0
-64 -345 0
-64 -406 0
-64 -447 0
-64 -452 0
-104 -114 0
-104 -191 0
-104 -262 0
-104 -295 0
-104 -328 0
-104 -345 0
-104 -406 0
-104 -447 0
-104 -452 0
-114 -191 0
-114 -262 0
-114 -295 0
-114 -328 0
-114 -345 0
-114 -406 0
-114 -447 0
-114 -452 0
-191 -262 0
-191 -295 0
-191 -328 0
-191 -345 0
-191 -406 0
-191 -447 0
-191 -452 0
-262 -295 0
-262 -328 0
-262 -345 0
-262 -406 0
-262 -447 0
-262 -452 0
-295 -328 0
-295 -345 0
-295 -406 0
-295 -447 0
-295 -452 0
-328 -345 0
-328 -406 0
-328 -447 0
-328 -452 0
-345 -406 0
-345 -447 0
-345 -452 0
-406 -447 0
-406 -452 0
-447 -452 0
54 115 127 182 202 275 317 396 442 444 456 0
-54 -115 0
-54 -127 0
-54 -182 0
-54 -202 0
-54 -275 0
-54 -317 0
-54 -396 0
-54 -442 0
-54 -444 0
-54 -456 0
-115 -127 0
-115 -182 0
-115 -202 0
-115 -275 0
-115 -317 0
-115 -396 0
-115 -442 0
-115 -444 0
-115 -456 0
-127 -182 0
-127 -202 0
-127 -275 0
-127 -317 0
-127 -396 0
-127 -442 0
-127 -444 0
-127 -456 0
-182 -202 0
-182 -275 0
-182 -317 0
-182 -396 0
-182 -442 0
-182 -444 0
-182 -456 0
-202 -275 0
-202 -317 0
-202 -396 0
-202 -442 0
-202 -444 0
-202 -456 0
-275 -317 0
-275 -396 0
-275 -442 0
-275 -444 0
-275 -456 0
-317 -396 0
-317 -442 0
-317 -444 0
-317 -456 0
-396 -442 0
-396 -444 0
-396 -456 0
-442 -444 0
-442 -456 0
-444 -456 0
33 128 139 171 191 304 369 386 399 411 423 0
-33 -128 0
-33 -139 0
-33 -171 0
-33 -191 0
-33 -304 0
-33 -369 0
-33 -386 0
-33 -399 0
-33 -411 0
-33 -423 0
-128 -139 0
-128 -171 0
-128 -191 0
-128 -304 0
-128 -369 0
-128 -386 0
-128 -399 0
-128 -411 0
-128 -423 0
-139 -171 0
-139 -191 0
-139 -304 0
-139 -369 0
-139 -386 0
-139 -399 0
-139 -411 0
-139 -423 0
-171 -191 0
-171 -304 0
-171 -369 0
-171 -386 0
-171 -399 0
-171 -411 0
-171 -423 0
-191 -304 0
-191 -369 0
-191 -386 0
-191 -399 0
-191 -411 0
-191 -423 0
-304 -369 0
-304 -386 0
-304 -399 0
-304 -411 0
-304 -423 0
-369 -386 0
-369 -399 0
-369 -411 0
-369 -423 0
-386 -399 0
-386 -411 0
-386 -423 0
-399 -411 0
-399 -423 0
-411 -423 0
4 14 25 36 58 70 94 105 116 129 152 0
-4 -14 0
-4 -25 0
-4 -36 0
-4 -58 0
-4 -70 0
-4 -94 0
-4 -105 0
-4 -116 0
-4 -129 0
-4 -152 0
-14 -25 0
-14 -36 0
-14 -58 0
-14 -70 0
-14 -94 0
-14 -105 0
-14 -116 0
-14 -129 0
-14 -152 0
-25 -36 0
-25 -58 0
-25 -70 0
-25 -94 0
-25 -105 0
-25 -116 0
-25 -129 0
-25 -152 0
-36 -58 0
-36 -70 0
-36 -94 0
-36 -105 0
-36 -116 0
-36 -129 0
-36 -152 0
-58 -70 0
-58 -94 0
-58 -105 0
-58 -116 0
-58 -129 0
-58 -152 0
-70 -94 0
-70 -105 0
-70 -116 0
-70 -129 0
-70 -152 0
-94 -105 0
-94 -116 0
-94 -129 0
-94 -152 0
-105 -116 0
-105 -129 0
-105 -152 0
-116 -129 0
-116 -152 0
-129 -152 0
4 13 153 161 162 174 196 207 218 230 253 264 0
-4 -13 0
-4 -153 0
-4 -161 0
-4 -162 0
-4 -174 0
-4 -196 0
-4 -207 0
-4 -218 0
-4 -230 0
-4 -253 0
-4 -264 0
-13 -153 0
-13 -161 0
-13 -162 0
-13 -174 0
-13 -196 0
-13 -207 0
-13 -218 0
-13 -230 0
-13 -253 0
-13 -264 0
-153 -161 0
-153 -162 0
-153 -174 0
-153 -196 0
-153 -207 0
-153 -218 0
-153 -230 0
-153 -253 0
-153 -264 0
-161 -162 0
-161 -174 0
-161 -196 0
-161 -207 0
-161 -218 0
-161 -230 0
-161 -253 0
-161 -264 0
-162 -174 0
-162 -196 0
-162 -207 0
-162 -218 0
-162 -230 0
-162 -253 0
-162 -264 0
-174 -196 0
-174 -207 0
-174 -218 0
-174 -230 0
-174 -253 0
-174 -264 0
-196 -207 0
-196 -218 0
-196 -230 0
-196 -253 0
-196 -264 0
-207 -218 0
-207 -230 0
-207 -253 0
-207 -264 0
-218 -230 0
-218 -253 0
-218 -264 0
-230 -253 0
-230 -264 0
-253 -264 0
14 142 153 173 279 298 311 324 346 358 370 0
-14 -142 0
-14 -153 0
-14 -173 0
-14 -279 0
-14 -298 0
-14 -311 0
-14 -324 0
-14 -346 0
-14 -358 0
-14 -370 0
-142 -153 0
-142 -173 0
-142 -279 0
-142 -298 0
-142 -311 0
-142 -324 0
-142 -346 0
-142 -358 0
-142 -370 0
-153 -173 0
-153 -279 0
-153 -298 0
-153 -311 0
-153 -324 0
-153 -346 0
-153 -358 0
-153 -370 0
-173 -279 0
-173 -298 0
-173 -311 0
-173 -324 0
-173 -346 0
-173 -358 0
-173 -370 0
-279 -298 0
-279 -311 0
-279 -324 0
-279 -346 0
-279 -358 0
-279 -370 0
-298 -311 0
-298 -324 0
-298 -346 0
-298 -358 0
-298 -370 0
-311 -324 0
-311 -346 0
-311 -358 0
-311 -370 0
-324 -346 0
-324 -358 0
-324 -370 0
-346 -358 0
-346 -370 0
-358 -370 0
25 35 131 142 162 184 378 392 402 414 426 0
-25 -35 0
-25 -131 0
-25 -142 0
-25 -162 0
-25 -184 0
-25 -378 0
-25 -392 0
-25 -402 0
-25 -414 0
-25 -426 0
-35 -131 0
-35 -142 0
-35 -162 0
-35 -184 0
-35 -378 0
-35 -392 0
-35 -402 0
-35 -414 0
-35 -426 0
-131 -142 0
-131 -162 0
-131 -184 0
-131 -378 0
-131 -392 0
-131 -402 0
-131 -414 0
-131 -426 0
-142 -162 0
-142 -184 0
-142 -378 0
-142 -392 0
-142 -402 0
-142 -414 0
-142 -426 0
-162 -184 0
-162 -378 0
-162 -392 0
-162 -402 0
-162 -414 0
-162 -426 0
-184 -378 0
-184 -392 0
-184 -402 0
-184 -414 0
-184 -426 0
-378 -392 0
-378 -402 0
-378 -414 0
-378 -426 0
-392 -402 0
-392 -414 0
-392 -426 0
-402 -414 0
-402 -426 0
-414 -426 0
36 47 131 174 256 279 361 389 429 438 445 448 0
-36 -47 0
-36 -131 0
-36 -174 0
-36 -256 0
-36 -279 0
-36 -361 0
-36 -389 0
-36 -429 0
-36 -438 0
-36 -445 0
-36 -448 0
-47 -131 0
-47 -174 0
-47 -256 0
-47 -279 0
-47 -361 0
-47 -389 0
-47 -429 0
-47 -438 0
-47 -445 0
-47 -448 0
-131 -174 0
-131 -256 0
-131 -279 0
-131 -361 0
-131 -389 0
-131 -429 0
-131 -438 0
-131 -445 0
-131 -448 0
-174 -256 0
-174 -279 0
-174 -361 0
-174 -389 0
-174 -429 0
-174 -438 0
-174 -445 0
-174 -448 0
-256 -279 0
-256 -361 0
-256 -389 0
-256 -429 0
-256 -438 0
-256 -445 0
-256 -448 0
-279 -361 0
-279 -389 0
-279 -429 0
-279 -438 0
-279 -445 0
-279 -448 0
-361 -389 0
-361 -429 0
-361 -438 0
-361 -445 0
-361 -448 0
-389 -429 0
-389 -438 0
-389 -445 0
-389 -448 0
-429 -438 0
-429 -445 0
-429 -448 0
-438 -445 0
-438 -448 0
-445 -448 0
58 69 99 196 217 236 256 298 340 407 412 0
-58 -69 0
-58 -99 0
-58 -196 0
-58 -217 0
-58 -236 0
-58 -256 0
-58 -298 0
-58 -340 0
-58 -407 0
-58 -412 0
-69 -99 0
-69 -196 0
-69 -217 0
-69 -236 0
-69 -256 0
-69 -298 0
-69 -340 0
-69 -407 0
-69 -412 0
-99 -196 0
-99 -217 0
-99 -236 0
-99 -256 0
-99 -298 0
-99 -340 0
-99 -407 0
-99 -412 0
-196 -217 0
-196 -236 0
-196 -256 0
-196 -298 0
-196 -340 0
-196 -407 0
-196 -412 0
-217 -236 0
-217 -256 0
-217 -298 0
-217 -340 0
-217 -407 0
-217 -412 0
-236 -256 0
-236 -298 0
-236 -340 0
-236 -407 0
-236 -412 0
-256 -298 0
-256 -340 0
-256 -407 0
-256 -412 0
-298 -340 0
-298 -407 0
-298 -412 0
-340 -407 0
-340 -412 0
-407 -412 0
70 82 88 99 207 229 311 329 361 397 424 0
-70 -82 0
-70 -88 0
-70 -99 0
-70 -207 0
-70 -229 0
-70 -311 0
-70 -329 0
-70 -361 0
-70 -397 0
-70 -424 0
-82 -88 0
-82 -99 0
-82 -207 0
-82 -229 0
-82 -311 0
-82 -329 0
-82 -361 0
-82 -397 0
-82 -424 0
-88 -99 0
-88 -207 0
-88 -229 0
-88 -311 0
-88 -329 0
-88 -361 0
-88 -397 0
-88 -424 0
-99 -207 0
-99 -229 0
-99 -311 0
-99 -329 0
-99 -361 0
-99 -397 0
-99 -424 0
-207 -229 0
-207 -311 0
-207 -329 0
-207 -361 0
-207 -397 0
-207 -424 0
-229 -311 0
-229 -329 0
-229 -361 0
-229 -397 0
-229 -424 0
-311 -329 0
-311 -361 0
-311 -397 0
-311 -424 0
-329 -361 0
-329 -397 0
-329 -424 0
-361 -397 0
-361 -424 0
-397 -424 0
76 88 93 213 218 236 318 324 387 392 429 0
-76 -88 0
-76 -93 0
-76 -213 0
-76 -218 0
-76 -236 0
-76 -318 0
-76 -324 0
-76 -387 0
-76 -392 0
-76 -429 0
-88 -93 0
-88 -213 0
-88 -218 0
-88 -236 0
-88 -318 0
-88 -324 0
-88 -387 0
-88 -392 0
-88 -429 0
-93 -213 0
-93 -218 0
-93 -236 0
-93 -318 0
-93 -324 0
-93 -387 0
-93 -392 0
-93 -429 0
-213 -218 0
-213 -236 0
-213 -318 0
-213 -324 0
-213 -387 0
-213 -392 0
-213 -429 0
-218 -236 0
-218 -318 0
-218 -324 0
-218 -387 0
-218 -392 0
-218 -429 0
-236 -318 0
-236 -324 0
-236 -387 0
-236 -392 0
-236 -429 0
-318 -324 0
-318 -387 0
-318 -392 0
-318 -429 0
-324 -387 0
-324 -392 0
-324 -429 0
-387 -392 0
-387 -429 0
-392 -429 0
65 76 94 104 203 230 252 305 340 402 438 0
-65 -76 0
-65 -94 0
-65 -104 0
-65 -203 0
-65 -230 0
-65 -252 0
-65 -305 0
-65 -340 0
-65 -402 0
-65 -438 0
-76 -94 0
-76 -104 0
-76 -203 0
-76 -230 0
-76 -252 0
-76 -305 0
-76 -340 0
-76 -402 0
-76 -438 0
-94 -104 0
-94 -203 0
-94 -230 0
-94 -252 0
-94 -305 0
-94 -340 0
-94 -402 0
-94 -438 0
-104 -203 0
-104 -230 0
-104 -252 0
-104 -305 0
-104 -340 0
-104 -402 0
-104 -438 0
-203 -230 0
-203 -252 0
-203 -305 0
-203 -340 0
-203 -402 0
-203 -438 0
-230 -252 0
-230 -305 0
-230 -340 0
-230 -402 0
-230 -438 0
-252 -305 0
-252 -340 0
-252 -402 0
-252 -438 0
-305 -340 0
-305 -402 0
-305 -438 0
-340 -402 0
-340 -438 0
-402 -438 0
65 105 115 192 213 263 329 346 407 414 448 0
-65 -105 0
-65 -115 0
-65 -192 0
-65 -213 0
-65 -263 0
-65 -329 0
-65 -346 0
-65 -407 0
-65 -414 0
-65 -448 0
-105 -115 0
-105 -192 0
-105 -213 0
-105 -263 0
-105 -329 0
-105 -346 0
-105 -407 0
-105 -414 0
-105 -448 0
-115 -192 0
-115 -213 0
-115 -263 0
-115 -329 0
-115 -346 0
-115 -407 0
-115 -414 0
-115 -448 0
-192 -213 0
-192 -263 0
-192 -329 0
-192 -346 0
-192 -407 0
-192 -414 0
-192 -448 0
-213 -263 0
-213 -329 0
-213 -346 0
-213 -407 0
-213 -414 0
-213 -448 0
-263 -329 0
-263 -346 0
-263 -407 0
-263 -414 0
-263 -448 0
-329 -346 0
-329 -407 0
-329 -414 0
-329 -448 0
-346 -407 0
-346 -414 0
-346 -448 0
-407 -414 0
-407 -448 0
-414 -448 0
44 116 128 203 253 276 318 358 397 426 445 0
-44 -116 0
-44 -128 0
-44 -203 0
-44 -253 0
-44 -276 0
-44 -318 0
-44 -358 0
-44 -397 0
-44 -426 0
-44 -445 0
-116 -128 0
-116 -203 0
-116 -253 0
-116 -276 0
-116 -318 0
-116 -358 0
-116 -397 0
-116 -426 0
-116 -445 0
-128 -203 0
-128 -253 0
-128 -276 0
-128 -318 0
-128 -358 0
-128 -397 0
-128 -426 0
-128 -445 0
-203 -253 0
-203 -276 0
-203 -318 0
-203 -358 0
-203 -397 0
-203 -426 0
-203 -445 0
-253 -276 0
-253 -318 0
-253 -358 0
-253 -397 0
-253 -426 0
-253 -445 0
-276 -318 0
-276 -358 0
-276 -397 0
-276 -426 0
-276 -445 0
-318 -358 0
-318 -397 0
-318 -426 0
-318 -445 0
-358 -397 0
-358 -426 0
-358 -445 0
-397 -426 0
-397 -445 0
-426 -445 0
4 5 15 26 37 48 59 83 106 117 141 0
-4 -5 0
-4 -15 0
-4 -26 0
-4 -37 0
-4 -48 0
-4 -59 0
-4 -83 0
-4 -106 0
-4 -117 0
-4 -141 0
-5 -15 0
-5 -26 0
-5 -37 0
-5 -48 0
-5 -59 0
-5 -83 0
-5 -106 0
-5 -117 0
-5 -141 0
-15 -26 0
-15 -37 0
-15 -48 0
-15 -59 0
-15 -83 0
-15 -106 0
-15 -117 0
-15 -141 0
-26 -37 0
-26 -48 0
-26 -59 0
-26 -83 0
-26 -106 0
-26 -117 0
-26 -141 0
-37 -48 0
-37 -59 0
-37 -83 0
-37 -106 0
-37 -117 0
-37 -141 0
-48 -59 0
-48 -83 0
-48 -106 0
-48 -117 0
-48 -141 0
-59 -83 0
-59 -106 0
-59 -117 0
-59 -141 0
-83 -106 0
-83 -117 0
-83 -141 0
-106 -117 0
-106 -141 0
-117 -141 0
5 14 154 163 175 185 197 231 241 254 265 277 0
-5 -14 0
-5 -154 0
-5 -163 0
-5 -175 0
-5 -185 0
-5 -197 0
-5 -231 0
-5 -241 0
-5 -254 0
-5 -265 0
-5 -277 0
-14 -154 0
-14 -163 0
-14 -175 0
-14 -185 0
-14 -197 0
-14 -231 0
-14 -241 0
-14 -254 0
-14 -265 0
-14 -277 0
-154 -163 0
-154 -175 0
-154 -185 0
-154 -197 0
-154 -231 0
-154 -241 0
-154 -254 0
-154 -265 0
-154 -277 0
-163 -175 0
-163 -185 0
-163 -197 0
-163 -231 0
-163 -241 0
-163 -254 0
-163 -265 0
-163 -277 0
-175 -185 0
-175 -197 0
-175 -231 0
-175 -241 0
-175 -254 0
-175 -265 0
-175 -277 0
-185 -197 0
-185 -231 0
-185 -241 0
-185 -254 0
-185 -265 0
-185 -277 0
-197 -231 0
-197 -241 0
-197 -254 0
-197 -265 0
-197 -277 0
-231 -241 0
-231 -254 0
-231 -265 0
-231 -277 0
-241 -254 0
-241 -265 0
-241 -277 0
-254 -265 0
-254 -277 0
-265 -277 0
15 25 143 154 280 287 325 336 347 359 371 0
-15 -25 0
-15 -143 0
-15 -154 0
-15 -280 0
-15 -287 0
-15 -325 0
-15 -336 0
-15 -347 0
-15 -359 0
-15 -371 0
-25 -143 0
-25 -154 0
-25 -280 0
-25 -287 0
-25 -325 0
-25 -336 0
-25 -347 0
-25 -359 0
-25 -371 0
-143 -154 0
-143 -280 0
-143 -287 0
-143 -325 0
-143 -336 0
-143 -347 0
-143 -359 0
-143 -371 0
-154 -280 0
-154 -287 0
-154 -325 0
-154 -336 0
-154 -347 0
-154 -359 0
-154 -371 0
-280 -287 0
-280 -325 0
-280 -336 0
-280 -347 0
-280 -359 0
-280 -371 0
-287 -325 0
-287 -336 0
-287 -347 0
-287 -359 0
-287 -371 0
-325 -336 0
-325 -347 0
-325 -359 0
-325 -371 0
-336 -347 0
-336 -359 0
-336 -371 0
-347 -359 0
-347 -371 0
-359 -371 0
26 36 143 163 267 372 379 393 403 415 427 0
-26 -36 0
-26 -143 0
-26 -163 0
-26 -267 0
-26 -372 0
-26 -379 0
-26 -393 0
-26 -403 0
-26 -415 0
-26 -427 0
-36 -143 0
-36 -163 0
-36 -267 0
-36 -372 0
-36 -379 0
-36 -393 0
-36 -403 0
-36 -415 0
-36 -427 0
-143 -163 0
-143 -267 0
-143 -372 0
-143 -379 0
-143 -393 0
-143 -403 0
-143 -415 0
-143 -427 0
-163 -267 0
-163 -372 0
-163 -379 0
-163 -393 0
-163 -403 0
-163 -415 0
-163 -427 0
-267 -372 0
-267 -379 0
-267 -393 0
-267 -403 0
-267 -415 0
-267 -427 0
-372 -379 0
-372 -393 0
-372 -403 0
-372 -415 0
-372 -427 0
-379 -393 0
-379 -403 0
-379 -415 0
-379 -427 0
-393 -403 0
-393 -415 0
-393 -427 0
-403 -415 0
-403 -427 0
-415 -427 0
37 120 175 257 280 309 390 430 435 439 449 0
-37 -120 0
-37 -175 0
-37 -257 0
-37 -280 0
-37 -309 0
-37 -390 0
-37 -430 0
-37 -435 0
-37 -439 0
-37 -449 0
-120 -175 0
-120 -257 0
-120 -280 0
-120 -309 0
-120 -390 0
-120 -430 0
-120 -435 0
-120 -439 0
-120 -449 0
-175 -257 0
-175 -280 0
-175 -309 0
-175 -390 0
-175 -430 0
-175 -435 0
-175 -439 0
-175 -449 0
-257 -280 0
-257 -309 0
-257 -390 0
-257 -430 0
-257 -435 0
-257 -439 0
-257 -449 0
-280 -309 0
-280 -390 0
-280 -430 0
-280 -435 0
-280 -439 0
-280 -449 0
-309 -390 0
-309 -430 0
-309 -435 0
-309 -439 0
-309 -449 0
-390 -430 0
-390 -435 0
-390 -439 0
-390 -449 0
-430 -435 0
-430 -439 0
-430 -449 0
-435 -439 0
-435 -449 0
-439 -449 0
48 58 109 120 185 267 322 351 400 419 446 0
-48 -58 0
-48 -109 0
-48 -120 0
-48 -185 0
-48 -267 0
-48 -322 0
-48 -351 0
-48 -400 0
-48 -419 0
-48 -446 0
-58 -109 0
-58 -120 0
-58 -185 0
-58 -267 0
-58 -322 0
-58 -351 0
-58 -400 0
-58 -419 0
-58 -446 0
-109 -120 0
-109 -185 0
-109 -267 0
-109 -322 0
-109 -351 0
-109 -400 0
-109 -419 0
-109 -446 0
-120 -185 0
-120 -267 0
-120 -322 0
-120 -351 0
-120 -400 0
-120 -419 0
-120 -446 0
-185 -267 0
-185 -322 0
-185 -351 0
-185 -400 0
-185 -419 0
-185 -446 0
-267 -322 0
-267 -351 0
-267 -400 0
-267 -419 0
-267 -446 0
-322 -351 0
-322 -400 0
-322 -419 0
-322 -446 0
-351 -400 0
-351 -419 0
-351 -446 0
-400 -419 0
-400 -446 0
-419 -446 0
59 70 109 197 257 334 341 372 408 413 443 0
-59 -70 0
-59 -109 0
-59 -197 0
-59 -257 0
-59 -334 0
-59 -341 0
-59 -372 0
-59 -408 0
-59 -413 0
-59 -443 0
-70 -109 0
-70 -197 0
-70 -257 0
-70 -334 0
-70 -341 0
-70 -372 0
-70 -408 0
-70 -413 0
-70 -443 0
-109 -197 0
-109 -257 0
-109 -334 0
-109 -341 0
-109 -372 0
-109 -408 0
-109 -413 0
-109 -443 0
-197 -257 0
-197 -334 0
-197 -341 0
-197 -372 0
-197 -408 0
-197 -413 0
-197 -443 0
-257 -334 0
-257 -341 0
-257 -372 0
-257 -408 0
-257 -413 0
-257 -443 0
-334 -341 0
-334 -372 0
-334 -408 0
-334 -413 0
-334 -443 0
-341 -372 0
-341 -408 0
-341 -413 0
-341 -443 0
-372 -408 0
-372 -413 0
-372 -443 0
-408 -413 0
-408 -443 0
-413 -443 0
77 83 94 214 319 325 351 357 388 393 430 0
-77 -83 0
-77 -94 0
-77 -214 0
-77 -319 0
-77 -325 0
-77 -351 0
-77 -357 0
-77 -388 0
-77 -393 0
-77 -430 0
-83 -94 0
-83 -214 0
-83 -319 0
-83 -325 0
-83 -351 0
-83 -357 0
-83 -388 0
-83 -393 0
-83 -430 0
-94 -214 0
-94 -319 0
-94 -325 0
-94 -351 0
-94 -357 0
-94 -388 0
-94 -393 0
-94 -430 0
-214 -319 0
-214 -325 0
-214 -351 0
-214 -357 0
-214 -388 0
-214 -393 0
-214 -430 0
-319 -325 0
-319 -351 0
-319 -357 0
-319 -388 0
-319 -393 0
-319 -430 0
-325 -351 0
-325 -357 0
-325 -388 0
-325 -393 0
-325 -430 0
-351 -357 0
-351 -388 0
-351 -393 0
-351 -430 0
-357 -388 0
-357 -393 0
-357 -430 0
-388 -393 0
-388 -430 0
-393 -430 0
77 105 204 231 306 336 341 368 403 419 439 0
-77 -105 0
-77 -204 0
-77 -231 0
-77 -306 0
-77 -336 0
-77 -341 0
-77 -368 0
-77 -403 0
-77 -419 0
-77 -439 0
-105 -204 0
-105 -231 0
-105 -306 0
-105 -336 0
-105 -341 0
-105 -368 0
-105 -403 0
-105 -419 0
-105 -439 0
-204 -231 0
-204 -306 0
-204 -336 0
-204 -341 0
-204 -368 0
-204 -403 0
-204 -419 0
-204 -439 0
-231 -306 0
-231 -336 0
-231 -341 0
-231 -368 0
-231 -403 0
-231 -419 0
-231 -439 0
-306 -336 0
-306 -341 0
-306 -368 0
-306 -403 0
-306 -419 0
-306 -439 0
-336 -341 0
-336 -368 0
-336 -403 0
-336 -419 0
-336 -439 0
-341 -368 0
-341 -403 0
-341 -419 0
-341 -439 0
-368 -403 0
-368 -419 0
-368 -439 0
-403 -419 0
-403 -439 0
-419 -439 0
55 106 116 193 214 241 296 347 408 415 449 0
-55 -106 0
-55 -116 0
-55 -193 0
-55 -214 0
-55 -241 0
-55 -296 0
-55 -347 0
-55 -408 0
-55 -415 0
-55 -449 0
-106 -116 0
-106 -193 0
-106 -214 0
-106 -241 0
-106 -296 0
-106 -347 0
-106 -408 0
-106 -415 0
-106 -449 0
-116 -193 0
-116 -214 0
-116 -241 0
-116 -296 0
-116 -347 0
-116 -408 0
-116 -415 0
-116 -449 0
-193 -214 0
-193 -241 0
-193 -296 0
-193 -347 0
-193 -408 0
-193 -415 0
-193 -449 0
-214 -241 0
-214 -296 0
-214 -347 0
-214 -408 0
-214 -415 0
-214 -449 0
-241 -296 0
-241 -347 0
-241 -408 0
-241 -415 0
-241 -449 0
-296 -347 0
-296 -408 0
-296 -415 0
-296 -449 0
-347 -408 0
-347 -415 0
-347 -449 0
-408 -415 0
-408 -449 0
-415 -449 0
5 6 16 27 38 49 60 95 107 130 153 0
-5 -6 0
-5 -16 0
-5 -27 0
-5 -38 0
-5 -49 0
-5 -60 0
-5 -95 0
-5 -107 0
-5 -130 0
-5 -153 0
-6 -16 0
-6 -27 0
-6 -38 0
-6 -49 0
-6 -60 0
-6 -95 0
-6 -107 0
-6 -130 0
-6 -153 0
-16 -27 0
-16 -38 0
-16 -49 0
-16 -60 0
-16 -95 0
-16 -107 0
-16 -130 0
-16 -153 0
-27 -38 0
-27 -49 0
-27 -60 0
-27 -95 0
-27 -107 0
-27 -130 0
-27 -153 0
-38 -49 0
-38 -60 0
-38 -95 0
-38 -107 0
-38 -130 0
-38 -153 0
-49 -60 0
-49 -95 0
-49 -107 0
-49 -130 0
-49 -153 0
-60 -95 0
-60 -107 0
-60 -130 0
-60 -153 0
-95 -107 0
-95 -130 0
-95 -153 0
-107 -130 0
-107 -153 0
-130 -153 0
6 15 155 162 164 198 208 232 242 266 278 0
-6 -15 0
-6 -155 0
-6 -162 0
-6 -164 0
-6 -198 0
-6 -208 0
-6 -232 0
-6 -242 0
-6 -266 0
-6 -278 0
-15 -155 0
-15 -162 0
-15 -164 0
-15 -198 0
-15 -208 0
-15 -232 0
-15 -242 0
-15 -266 0
-15 -278 0
-155 -162 0
-155 -164 0
-155 -198 0
-155 -208 0
-155 -232 0
-155 -242 0
-155 -266 0
-155 -278 0
-162 -164 0
-162 -198 0
-162 -208 0
-162 -232 0
-162 -242 0
-162 -266 0
-162 -278 0
-164 -198 0
-164 -208 0
-164 -232 0
-164 -242 0
-164 -266 0
-164 -278 0
-198 -208 0
-198 -232 0
-198 -242 0
-198 -266 0
-198 -278 0
-208 -232 0
-208 -242 0
-208 -266 0
-208 -278 0
-232 -242 0
-232 -266 0
-232 -278 0
-242 -266 0
-242 -278 0
-266 -278 0
16 26 155 174 281 288 289 299 312 337 348 0
-16 -26 0
-16 -155 0
-16 -174 0
-16 -281 0
-16 -288 0
-16 -289 0
-16 -299 0
-16 -312 0
-16 -337 0
-16 -348 0
-26 -155 0
-26 -174 0
-26 -281 0
-26 -288 0
-26 -289 0
-26 -299 0
-26 -312 0
-26 -337 0
-26 -348 0
-155 -174 0
-155 -281 0
-155 -288 0
-155 -289 0
-155 -299 0
-155 -312 0
-155 -337 0
-155 -348 0
-174 -281 0
-174 -288 0
-174 -289 0
-174 -299 0
-174 -312 0
-174 -337 0
-174 -348 0
-281 -288 0
-281 -289 0
-281 -299 0
-281 -312 0
-281 -337 0
-281 -348 0
-288 -289 0
-288 -299 0
-288 -312 0
-288 -337 0
-288 -348 0
-289 -299 0
-289 -312 0
-289 -337 0
-289 -348 0
-299 -312 0
-299 -337 0
-299 -348 0
-312 -337 0
-312 -348 0
-337 -348 0
27 37 132 164 268 297 373 380 381 404 416 0
-27 -37 0
-27 -132 0
-27 -164 0
-27 -268 0
-27 -297 0
-27 -373 0
-27 -380 0
-27 -381 0
-27 -404 0
-27 -416 0
-37 -132 0
-37 -164 0
-37 -268 0
-37 -297 0
-37 -373 0
-37 -380 0
-37 -381 0
-37 -404 0
-37 -416 0
-132 -164 0
-132 -268 0
-132 -297 0
-132 -373 0
-132 -380 0
-132 -381 0
-132 -404 0
-132 -416 0
-164 -268 0
-164 -297 0
-164 -373 0
-164 -380 0
-164 -381 0
-164 -404 0
-164 -416 0
-268 -297 0
-268 -373 0
-268 -380 0
-268 -381 0
-268 -404 0
-268 -416 0
-297 -373 0
-297 -380 0
-297 -381 0
-297 -404 0
-297 -416 0
-373 -380 0
-373 -381 0
-373 -404 0
-373 -416 0
-380 -381 0
-380 -404 0
-380 -416 0
-381 -404 0
-381 -416 0
-404 -416 0
38 48 121 132 196 258 281 310 362 391 450 0
-38 -48 0
-38 -121 0
-38 -132 0
-38 -196 0
-38 -258 0
-38 -281 0
-38 -310 0
-38 -362 0
-38 -391 0
-38 -450 0
-48 -121 0
-48 -132 0
-48 -196 0
-48 -258 0
-48 -281 0
-48 -310 0
-48 -362 0
-48 -391 0
-48 -450 0
-121 -132 0
-121 -196 0
-121 -258 0
-121 -281 0
-121 -310 0
-121 -362 0
-121 -391 0
-121 -450 0
-132 -196 0
-132 -258 0
-132 -281 0
-132 -310 0
-132 -362 0
-132 -391 0
-132 -450 0
-196 -258 0
-196 -281 0
-196 -310 0
-196 -362 0
-196 -391 0
-196 -450 0
-258 -281 0
-258 -310 0
-258 -362 0
-258 -391 0
-258 -450 0
-281 -310 0
-281 -362 0
-281 -391 0
-281 -450 0
-310 -362 0
-310 -391 0
-310 -450 0
-362 -391 0
-362 -450 0
-391 -450 0
49 59 110 121 207 268 289 323 401 420 453 0
-49 -59 0
-49 -110 0
-49 -121 0
-49 -207 0
-49 -268 0
-49 -289 0
-49 -323 0
-49 -401 0
-49 -420 0
-49 -453 0
-59 -110 0
-59 -121 0
-59 -207 0
-59 -268 0
-59 -289 0
-59 -323 0
-59 -401 0
-59 -420 0
-59 -453 0
-110 -121 0
-110 -207 0
-110 -268 0
-110 -289 0
-110 -323 0
-110 -401 0
-110 -420 0
-110 -453 0
-121 -207 0
-121 -268 0
-121 -289 0
-121 -323 0
-121 -401 0
-121 -420 0
-121 -453 0
-207 -268 0
-207 -289 0
-207 -323 0
-207 -401 0
-207 -420 0
-207 -453 0
-268 -289 0
-268 -323 0
-268 -401 0
-268 -420 0
-268 -453 0
-289 -323 0
-289 -401 0
-289 -420 0
-289 -453 0
-323 -401 0
-323 -420 0
-323 -453 0
-401 -420 0
-401 -453 0
-420 -453 0
60 100 110 198 218 258 299 335 342 373 409 0
-60 -100 0
-60 -110 0
-60 -198 0
-60 -218 0
-60 -258 0
-60 -299 0
-60 -335 0
-60 -342 0
-60 -373 0
-60 -409 0
-100 -110 0
-100 -198 0
-100 -218 0
-100 -258 0
-100 -299 0
-100 -335 0
-100 -342 0
-100 -373 0
-100 -409 0
-110 -198 0
-110 -218 0
-110 -258 0
-110 -299 0
-110 -335 0
-110 -342 0
-110 -373 0
-110 -409 0
-198 -218 0
-198 -258 0
-198 -299 0
-198 -335 0
-198 -342 0
-198 -373 0
-198 -409 0
-218 -258 0
-218 -299 0
-218 -335 0
-218 -342 0
-218 -373 0
-218 -409 0
-258 -299 0
-258 -335 0
-258 -342 0
-258 -373 0
-258 -409 0
-299 -335 0
-299 -342 0
-299 -373 0
-299 -409 0
-335 -342 0
-335 -373 0
-335 -409 0
-342 -373 0
-342 -409 0
-373 -409 0
83 100 208 224 230 312 330 345 362 381 425 0
-83 -100 0
-83 -208 0
-83 -224 0
-83 -230 0
-83 -312 0
-83 -330 0
-83 -345 0
-83 -362 0
-83 -381 0
-83 -425 0
-100 -208 0
-100 -224 0
-100 -230 0
-100 -312 0
-100 -330 0
-100 -345 0
-100 -362 0
-100 -381 0
-100 -425 0
-208 -224 0
-208 -230 0
-208 -312 0
-208 -330 0
-208 -345 0
-208 -362 0
-208 -381 0
-208 -425 0
-224 -230 0
-224 -312 0
-224 -330 0
-224 -345 0
-224 -362 0
-224 -381 0
-224 -425 0
-230 -312 0
-230 -330 0
-230 -345 0
-230 -362 0
-230 -381 0
-230 -425 0
-312 -330 0
-312 -345 0
-312 -362 0
-312 -381 0
-312 -425 0
-330 -345 0
-330 -362 0
-330 -381 0
-330 -425 0
-345 -362 0
-345 -381 0
-345 -425 0
-362 -381 0
-362 -425 0
-381 -425 0
66 95 106 224 232 253 307 337 342 369 404 420 0
-66 -95 0
-66 -106 0
-66 -224 0
-66 -232 0
-66 -253 0
-66 -307 0
-66 -337 0
-66 -342 0
-66 -369 0
-66 -404 0
-66 -420 0
-95 -106 0
-95 -224 0
-95 -232 0
-95 -253 0
-95 -307 0
-95 -337 0
-95 -342 0
-95 -369 0
-95 -404 0
-95 -420 0
-106 -224 0
-106 -232 0
-106 -253 0
-106 -307 0
-106 -337 0
-106 -342 0
-106 -369 0
-106 -404 0
-106 -420 0
-224 -232 0
-224 -253 0
-224 -307 0
-224 -337 0
-224 -342 0
-224 -369 0
-224 -404 0
-224 -420 0
-232 -253 0
-232 -307 0
-232 -337 0
-232 -342 0
-232 -369 0
-232 -404 0
-232 -420 0
-253 -307 0
-253 -337 0
-253 -342 0
-253 -369 0
-253 -404 0
-253 -420 0
-307 -337 0
-307 -342 0
-307 -369 0
-307 -404 0
-307 -420 0
-337 -342 0
-337 -369 0
-337 -404 0
-337 -420 0
-342 -369 0
-342 -404 0
-342 -420 0
-369 -404 0
-369 -420 0
-404 -420 0
6 7 17 50 71 84 96 108 118 142 154 0
-6 -7 0
-6 -17 0
-6 -50 0
-6 -71 0
-6 -84 0
-6 -96 0
-6 -108 0
-6 -118 0
-6 -142 0
-6 -154 0
-7 -17 0
-7 -50 0
-7 -71 0
-7 -84 0
-7 -96 0
-7 -108 0
-7 -118 0
-7 -142 0
-7 -154 0
-17 -50 0
-17 -71 0
-17 -84 0
-17 -96 0
-17 -108 0
-17 -118 0
-17 -142 0
-17 -154 0
-50 -71 0
-50 -84 0
-50 -96 0
-50 -108 0
-50 -118 0
-50 -142 0
-50 -154 0
-71 -84 0
-71 -96 0
-71 -108 0
-71 -118 0
-71 -142 0
-71 -154 0
-84 -96 0
-84 -108 0
-84 -118 0
-84 -142 0
-84 -154 0
-96 -108 0
-96 -118 0
-96 -142 0
-96 -154 0
-108 -118 0
-108 -142 0
-108 -154 0
-118 -142 0
-118 -154 0
-142 -154 0
7 16 163 165 176 186 209 219 233 243 279 0
-7 -16 0
-7 -163 0
-7 -165 0
-7 -176 0
-7 -186 0
-7 -209 0
-7 -219 0
-7 -233 0
-7 -243 0
-7 -279 0
-16 -163 0
-16 -165 0
-16 -176 0
-16 -186 0
-16 -209 0
-16 -219 0
-16 -233 0
-16 -243 0
-16 -279 0
-163 -165 0
-163 -176 0
-163 -186 0
-163 -209 0
-163 -219 0
-163 -233 0
-163 -243 0
-163 -279 0
-165 -176 0
-165 -186 0
-165 -209 0
-165 -219 0
-165 -233 0
-165 -243 0
-165 -279 0
-176 -186 0
-176 -209 0
-176 -219 0
-176 -233 0
-176 -243 0
-176 -279 0
-186 -209 0
-186 -219 0
-186 -233 0
-186 -243 0
-186 -279 0
-209 -219 0
-209 -233 0
-209 -243 0
-209 -279 0
-219 -233 0
-219 -243 0
-219 -279 0
-233 -243 0
-233 -279 0
-243 -279 0
17 27 144 175 282 290 313 326 338 349 360 0
-17 -27 0
-17 -144 0
-17 -175 0
-17 -282 0
-17 -290 0
-17 -313 0
-17 -326 0
-17 -338 0
-17 -349 0
-17 -360 0
-27 -144 0
-27 -175 0
-27 -282 0
-27 -290 0
-27 -313 0
-27 -326 0
-27 -338 0
-27 -349 0
-27 -360 0
-144 -175 0
-144 -282 0
-144 -290 0
-144 -313 0
-144 -326 0
-144 -338 0
-144 -349 0
-144 -360 0
-175 -282 0
-175 -290 0
-175 -313 0
-175 -326 0
-175 -338 0
-175 -349 0
-175 -360 0
-282 -290 0
-282 -313 0
-282 -326 0
-282 -338 0
-282 -349 0
-282 -360 0
-290 -313 0
-290 -326 0
-290 -338 0
-290 -349 0
-290 -360 0
-313 -326 0
-313 -338 0
-313 -349 0
-313 -360 0
-326 -338 0
-326 -349 0
-326 -360 0
-338 -349 0
-338 -360 0
-349 -360 0
38 133 144 165 185 269 298 382 405 417 428 0
-38 -133 0
-38 -144 0
-38 -165 0
-38 -185 0
-38 -269 0
-38 -298 0
-38 -382 0
-38 -405 0
-38 -417 0
-38 -428 0
-133 -144 0
-133 -165 0
-133 -185 0
-133 -269 0
-133 -298 0
-133 -382 0
-133 -405 0
-133 -417 0
-133 -428 0
-144 -165 0
-144 -185 0
-144 -269 0
-144 -298 0
-144 -382 0
-144 -405 0
-144 -417 0
-144 -428 0
-165 -185 0
-165 -269 0
-165 -298 0
-165 -382 0
-165 -405 0
-165 -417 0
-165 -428 0
-185 -269 0
-185 -298 0
-185 -382 0
-185 -405 0
-185 -417 0
-185 -428 0
-269 -298 0
-269 -382 0
-269 -405 0
-269 -417 0
-269 -428 0
-298 -382 0
-298 -405 0
-298 -417 0
-298 -428 0
-382 -405 0
-382 -417 0
-382 -428 0
-405 -417 0
-405 -428 0
-417 -428 0
49 122 133 176 197 282 311 363 431 436 440 451 0
-49 -122 0
-49 -133 0
-49 -176 0
-49 -197 0
-49 -282 0
-49 -311 0
-49 -363 0
-49 -431 0
-49 -436 0
-49 -440 0
-49 -451 0
-122 -133 0
-122 -176 0
-122 -197 0
-122 -282 0
-122 -311 0
-122 -363 0
-122 -431 0
-122 -436 0
-122 -440 0
-122 -451 0
-133 -176 0
-133 -197 0
-133 -282 0
-133 -311 0
-133 -363 0
-133 -431 0
-133 -436 0
-133 -440 0
-133 -451 0
-176 -197 0
-176 -282 0
-176 -311 0
-176 -363 0
-176 -431 0
-176 -436 0
-176 -440 0
-176 -451 0
-197 -282 0
-197 -311 0
-197 -363 0
-197 -431 0
-197 -436 0
-197 -440 0
-197 -451 0
-282 -311 0
-282 -363 0
-282 -431 0
-282 -436 0
-282 -440 0
-282 -451 0
-311 -363 0
-311 -431 0
-311 -436 0
-311 -440 0
-311 -451 0
-363 -431 0
-363 -436 0
-363 -440 0
-363 -451 0
-431 -436 0
-431 -440 0
-431 -451 0
-436 -440 0
-436 -451 0
-440 -451 0
50 60 122 186 246 269 290 324 352 421 454 0
-50 -60 0
-50 -122 0
-50 -186 0
-50 -246 0
-50 -269 0
-50 -290 0
-50 -324 0
-50 -352 0
-50 -421 0
-50 -454 0
-60 -122 0
-60 -186 0
-60 -246 0
-60 -269 0
-60 -290 0
-60 -324 0
-60 -352 0
-60 -421 0
-60 -454 0
-122 -186 0
-122 -246 0
-122 -269 0
-122 -290 0
-122 -324 0
-122 -352 0
-122 -421 0
-122 -454 0
-186 -246 0
-186 -269 0
-186 -290 0
-186 -324 0
-186 -352 0
-186 -421 0
-186 -454 0
-246 -269 0
-246 -290 0
-246 -324 0
-246 -352 0
-246 -421 0
-246 -454 0
-269 -290 0
-269 -324 0
-269 -352 0
-269 -421 0
-269 -454 0
-290 -324 0
-290 -352 0
-290 -421 0
-290 -454 0
-324 -352 0
-324 -421 0
-324 -454 0
-352 -421 0
-352 -454 0
-421 -454 0
71 209 225 231 246 313 331 346 363 382 398 0
-71 -209 0
-71 -225 0
-71 -231 0
-71 -246 0
-71 -313 0
-71 -331 0
-71 -346 0
-71 -363 0
-71 -382 0
-71 -398 0
-209 -225 0
-209 -231 0
-209 -246 0
-209 -313 0
-209 -331 0
-209 -346 0
-209 -363 0
-209 -382 0
-209 -398 0
-225 -231 0
-225 -246 0
-225 -313 0
-225 -331 0
-225 -346 0
-225 -363 0
-225 -382 0
-225 -398 0
-231 -246 0
-231 -313 0
-231 -331 0
-231 -346 0
-231 -363 0
-231 -382 0
-231 -398 0
-246 -313 0
-246 -331 0
-246 -346 0
-246 -363 0
-246 -382 0
-246 -398 0
-313 -331 0
-313 -346 0
-313 -363 0
-313 -382 0
-313 -398 0
-331 -346 0
-331 -363 0
-331 -382 0
-331 -398 0
-346 -363 0
-346 -382 0
-346 -398 0
-363 -382 0
-363 -398 0
-382 -398 0
78 84 95 215 219 241 320 326 352 358 431 0
-78 -84 0
-78 -95 0
-78 -215 0
-78 -219 0
-78 -241 0
-78 -320 0
-78 -326 0
-78 -352 0
-78 -358 0
-78 -431 0
-84 -95 0
-84 -215 0
-84 -219 0
-84 -241 0
-84 -320 0
-84 -326 0
-84 -352 0
-84 -358 0
-84 -431 0
-95 -215 0
-95 -219 0
-95 -241 0
-95 -320 0
-95 -326 0
-95 -352 0
-95 -358 0
-95 -431 0
-215 -219 0
-215 -241 0
-215 -320 0
-215 -326 0
-215 -352 0
-215 -358 0
-215 -431 0
-219 -241 0
-219 -320 0
-219 -326 0
-219 -352 0
-219 -358 0
-219 -431 0
-241 -320 0
-241 -326 0
-241 -352 0
-241 -358 0
-241 -431 0
-320 -326 0
-320 -352 0
-320 -358 0
-320 -431 0
-326 -352 0
-326 -358 0
-326 -431 0
-352 -358 0
-352 -431 0
-358 -431 0
7 39 51 61 72 85 97 119 131 143 155 0
-7 -39 0
-7 -51 0
-7 -61 0
-7 -72 0
-7 -85 0
-7 -97 0
-7 -119 0
-7 -131 0
-7 -143 0
-7 -155 0
-39 -51 0
-39 -61 0
-39 -72 0
-39 -85 0
-39 -97 0
-39 -119 0
-39 -131 0
-39 -143 0
-39 -155 0
-51 -61 0
-51 -72 0
-51 -85 0
-51 -97 0
-51 -119 0
-51 -131 0
-51 -143 0
-51 -155 0
-61 -72 0
-61 -85 0
-61 -97 0
-61 -119 0
-61 -131 0
-61 -143 0
-61 -155 0
-72 -85 0
-72 -97 0
-72 -119 0
-72 -131 0
-72 -143 0
-72 -155 0
-85 -97 0
-85 -119 0
-85 -131 0
-85 -143 0
-85 -155 0
-97 -119 0
-97 -131 0
-97 -143 0
-97 -155 0
-119 -131 0
-119 -143 0
-119 -155 0
-131 -143 0
-131 -155 0
-143 -155 0
17 164 177 187 199 210 220 234 244 255 280 0
-17 -164 0
-17 -177 0
-17 -187 0
-17 -199 0
-17 -210 0
-17 -220 0
-17 -234 0
-17 -244 0
-17 -255 0
-17 -280 0
-164 -177 0
-164 -187 0
-164 -199 0
-164 -210 0
-164 -220 0
-164 -234 0
-164 -244 0
-164 -255 0
-164 -280 0
-177 -187 0
-177 -199 0
-177 -210 0
-177 -220 0
-177 -234 0
-177 -244 0
-177 -255 0
-177 -280 0
-187 -199 0
-187 -210 0
-187 -220 0
-187 -234 0
-187 -244 0
-187 -255 0
-187 -280 0
-199 -210 0
-199 -220 0
-199 -234 0
-199 -244 0
-199 -255 0
-199 -280 0
-210 -220 0
-210 -234 0
-210 -244 0
-210 -255 0
-210 -280 0
-220 -234 0
-220 -244 0
-220 -255 0
-220 -280 0
-234 -244 0
-234 -255 0
-234 -280 0
-244 -255 0
-244 -280 0
-255 -280 0
39 50 123 177 198 259 364 392 432 437 441 0
-39 -50 0
-39 -123 0
-39 -177 0
-39 -198 0
-39 -259 0
-39 -364 0
-39 -392 0
-39 -432 0
-39 -437 0
-39 -441 0
-50 -123 0
-50 -177 0
-50 -198 0
-50 -259 0
-50 -364 0
-50 -392 0
-50 -432 0
-50 -437 0
-50 -441 0
-123 -177 0
-123 -198 0
-123 -259 0
-123 -364 0
-123 -392 0
-123 -432 0
-123 -437 0
-123 -441 0
-177 -198 0
-177 -259 0
-177 -364 0
-177 -392 0
-177 -432 0
-177 -437 0
-177 -441 0
-198 -259 0
-198 -364 0
-198 -392 0
-198 -432 0
-198 -437 0
-198 -441 0
-259 -364 0
-259 -392 0
-259 -432 0
-259 -437 0
-259 -441 0
-364 -392 0
-364 -432 0
-364 -437 0
-364 -441 0
-392 -432 0
-392 -437 0
-392 -441 0
-432 -437 0
-432 -441 0
-437 -441 0
51 111 123 187 208 247 325 353 402 422 447 455 0
-51 -111 0
-51 -123 0
-51 -187 0
-51 -208 0
-51 -247 0
-51 -325 0
-51 -353 0
-51 -402 0
-51 -422 0
-51 -447 0
-51 -455 0
-111 -123 0
-111 -187 0
-111 -208 0
-111 -247 0
-111 -325 0
-111 -353 0
-111 -402 0
-111 -422 0
-111 -447 0
-111 -455 0
-123 -187 0
-123 -208 0
-123 -247 0
-123 -325 0
-123 -353 0
-123 -402 0
-123 -422 0
-123 -447 0
-123 -455 0
-187 -208 0
-187 -247 0
-187 -325 0
-187 -353 0
-187 -402 0
-187 -422 0
-187 -447 0
-187 -455 0
-208 -247 0
-208 -325 0
-208 -353 0
-208 -402 0
-208 -422 0
-208 -447 0
-208 -455 0
-247 -325 0
-247 -353 0
-247 -402 0
-247 -422 0
-247 -447 0
-247 -455 0
-325 -353 0
-325 -402 0
-325 -422 0
-325 -447 0
-325 -455 0
-353 -402 0
-353 -422 0
-353 -447 0
-353 -455 0
-402 -422 0
-402 -447 0
-402 -455 0
-422 -447 0
-422 -455 0
-447 -455 0
61 71 111 199 237 259 336 343 410 414 444 0
-61 -71 0
-61 -111 0
-61 -199 0
-61 -237 0
-61 -259 0
-61 -336 0
-61 -343 0
-61 -410 0
-61 -414 0
-61 -444 0
-71 -111 0
-71 -199 0
-71 -237 0
-71 -259 0
-71 -336 0
-71 -343 0
-71 -410 0
-71 -414 0
-71 -444 0
-111 -199 0
-111 -237 0
-111 -259 0
-111 -336 0
-111 -343 0
-111 -410 0
-111 -414 0
-111 -444 0
-199 -237 0
-199 -259 0
-199 -336 0
-199 -343 0
-199 -410 0
-199 -414 0
-199 -444 0
-237 -259 0
-237 -336 0
-237 -343 0
-237 -410 0
-237 -414 0
-237 -444 0
-259 -336 0
-259 -343 0
-259 -410 0
-259 -414 0
-259 -444 0
-336 -343 0
-336 -410 0
-336 -414 0
-336 -444 0
-343 -410 0
-343 -414 0
-343 -444 0
-410 -414 0
-410 -444 0
-414 -444 0
72 84 89 210 226 232 247 332 347 364 399 426 0
-72 -84 0
-72 -89 0
-72 -210 0
-72 -226 0
-72 -232 0
-72 -247 0
-72 -332 0
-72 -347 0
-72 -364 0
-72 -399 0
-72 -426 0
-84 -89 0
-84 -210 0
-84 -226 0
-84 -232 0
-84 -247 0
-84 -332 0
-84 -347 0
-84 -364 0
-84 -399 0
-84 -426 0
-89 -210 0
-89 -226 0
-89 -232 0
-89 -247 0
-89 -332 0
-89 -347 0
-89 -364 0
-89 -399 0
-89 -426 0
-210 -226 0
-210 -232 0
-210 -247 0
-210 -332 0
-210 -347 0
-210 -364 0
-210 -399 0
-210 -426 0
-226 -232 0
-226 -247 0
-226 -332 0
-226 -347 0
-226 -364 0
-226 -399 0
-226 -426 0
-232 -247 0
-232 -332 0
-232 -347 0
-232 -364 0
-232 -399 0
-232 -426 0
-247 -332 0
-247 -347 0
-247 -364 0
-247 -399 0
-247 -426 0
-332 -347 0
-332 -364 0
-332 -399 0
-332 -426 0
-347 -364 0
-347 -399 0
-347 -426 0
-364 -399 0
-364 -426 0
-399 -426 0
156 165 166 178 188 211 221 245 256 267 281 0
-156 -165 0
-156 -166 0
-156 -178 0
-156 -188 0
-156 -211 0
-156 -221 0
-156 -245 0
-156 -256 0
-156 -267 0
-156 -281 0
-165 -166 0
-165 -178 0
-165 -188 0
-165 -211 0
-165 -221 0
-165 -245 0
-165 -256 0
-165 -267 0
-165 -281 0
-166 -178 0
-166 -188 0
-166 -211 0
-166 -221 0
-166 -245 0
-166 -256 0
-166 -267 0
-166 -281 0
-178 -188 0
-178 -211 0
-178 -221 0
-178 -245 0
-178 -256 0
-178 -267 0
-178 -281 0
-188 -211 0
-188 -221 0
-188 -245 0
-188 -256 0
-188 -267 0
-188 -281 0
-211 -221 0
-211 -245 0
-211 -256 0
-211 -267 0
-211 -281 0
-221 -245 0
-221 -256 0
-221 -267 0
-221 -281 0
-245 -256 0
-245 -267 0
-245 -281 0
-256 -267 0
-256 -281 0
-267 -281 0
145 156 176 289 291 300 314 327 350 361 372 0
-145 -156 0
-145 -176 0
-145 -289 0
-145 -291 0
-145 -300 0
-145 -314 0
-145 -327 0
-145 -350 0
-145 -361 0
-145 -372 0
-156 -176 0
-156 -289 0
-156 -291 0
-156 -300 0
-156 -314 0
-156 -327 0
-156 -350 0
-156 -361 0
-156 -372 0
-176 -289 0
-176 -291 0
-176 -300 0
-176 -314 0
-176 -327 0
-176 -350 0
-176 -361 0
-176 -372 0
-289 -291 0
-289 -300 0
-289 -314 0
-289 -327 0
-289 -350 0
-289 -361 0
-289 -372 0
-291 -300 0
-291 -314 0
-291 -327 0
-291 -350 0
-291 -361 0
-291 -372 0
-300 -314 0
-300 -327 0
-300 -350 0
-300 -361 0
-300 -372 0
-314 -327 0
-314 -350 0
-314 -361 0
-314 -372 0
-327 -350 0
-327 -361 0
-327 -372 0
-350 -361 0
-350 -372 0
-361 -372 0
39 134 145 166 186 270 299 374 383 394 418 429 0
-39 -134 0
-39 -145 0
-39 -166 0
-39 -186 0
-39 -270 0
-39 -299 0
-39 -374 0
-39 -383 0
-39 -394 0
-39 -418 0
-39 -429 0
-134 -145 0
-134 -166 0
-134 -186 0
-134 -270 0
-134 -299 0
-134 -374 0
-134 -383 0
-134 -394 0
-134 -418 0
-134 -429 0
-145 -166 0
-145 -186 0
-145 -270 0
-145 -299 0
-145 -374 0
-145 -383 0
-145 -394 0
-145 -418 0
-145 -429 0
-166 -186 0
-166 -270 0
-166 -299 0
-166 -374 0
-166 -383 0
-166 -394 0
-166 -418 0
-166 -429 0
-186 -270 0
-186 -299 0
-186 -374 0
-186 -383 0
-186 -394 0
-186 -418 0
-186 -429 0
-270 -299 0
-270 -374 0
-270 -383 0
-270 -394 0
-270 -418 0
-270 -429 0
-299 -374 0
-299 -383 0
-299 -394 0
-299 -418 0
-299 -429 0
-374 -383 0
-374 -394 0
-374 -418 0
-374 -429 0
-383 -394 0
-383 -418 0
-383 -429 0
-394 -418 0
-394 -429 0
-418 -429 0
51 124 134 178 260 312 365 393 433 438 452 0
-51 -124 0
-51 -134 0
-51 -178 0
-51 -260 0
-51 -312 0
-51 -365 0
-51 -393 0
-51 -433 0
-51 -438 0
-51 -452 0
-124 -134 0
-124 -178 0
-124 -260 0
-124 -312 0
-124 -365 0
-124 -393 0
-124 -433 0
-124 -438 0
-124 -452 0
-134 -178 0
-134 -260 0
-134 -312 0
-134 -365 0
-134 -393 0
-134 -433 0
-134 -438 0
-134 -452 0
-178 -260 0
-178 -312 0
-178 -365 0
-178 -393 0
-178 -433 0
-178 -438 0
-178 -452 0
-260 -312 0
-260 -365 0
-260 -393 0
-260 -433 0
-260 -438 0
-260 -452 0
-312 -365 0
-312 -393 0
-312 -433 0
-312 -438 0
-312 -452 0
-365 -393 0
-365 -433 0
-365 -438 0
-365 -452 0
-393 -433 0
-393 -438 0
-393 -452 0
-433 -438 0
-433 -452 0
-438 -452 0
61 124 188 209 248 270 291 354 403 448 456 0
-61 -124 0
-61 -188 0
-61 -209 0
-61 -248 0
-61 -270 0
-61 -291 0
-61 -354 0
-61 -403 0
-61 -448 0
-61 -456 0
-124 -188 0
-124 -209 0
-124 -248 0
-124 -270 0
-124 -291 0
-124 -354 0
-124 -403 0
-124 -448 0
-124 -456 0
-188 -209 0
-188 -248 0
-188 -270 0
-188 -291 0
-188 -354 0
-188 -403 0
-188 -448 0
-188 -456 0
-209 -248 0
-209 -270 0
-209 -291 0
-209 -354 0
-209 -403 0
-209 -448 0
-209 -456 0
-248 -270 0
-248 -291 0
-248 -354 0
-248 -403 0
-248 -448 0
-248 -456 0
-270 -291 0
-270 -354 0
-270 -403 0
-270 -448 0
-270 -456 0
-291 -354 0
-291 -403 0
-291 -448 0
-291 -456 0
-354 -403 0
-354 -448 0
-354 -456 0
-403 -448 0
-403 -456 0
-448 -456 0
72 101 219 238 260 300 337 374 411 415 445 0
-72 -101 0
-72 -219 0
-72 -238 0
-72 -260 0
-72 -300 0
-72 -337 0
-72 -374 0
-72 -411 0
-72 -415 0
-72 -445 0
-101 -219 0
-101 -238 0
-101 -260 0
-101 -300 0
-101 -337 0
-101 -374 0
-101 -411 0
-101 -415 0
-101 -445 0
-219 -238 0
-219 -260 0
-219 -300 0
-219 -337 0
-219 -374 0
-219 -411 0
-219 -415 0
-219 -445 0
-238 -260 0
-238 -300 0
-238 -337 0
-238 -374 0
-238 -411 0
-238 -415 0
-238 -445 0
-260 -300 0
-260 -337 0
-260 -374 0
-260 -411 0
-260 -415 0
-260 -445 0
-300 -337 0
-300 -374 0
-300 -411 0
-300 -415 0
-300 -445 0
-337 -374 0
-337 -411 0
-337 -415 0
-337 -445 0
-374 -411 0
-374 -415 0
-374 -445 0
-411 -415 0
-411 -445 0
-415 -445 0
8 18 28 40 62 73 86 98 120 132 144 0
-8 -18 0
-8 -28 0
-8 -40 0
-8 -62 0
-8 -73 0
-8 -86 0
-8 -98 0
-8 -120 0
-8 -132 0
-8 -144 0
-18 -28 0
-18 -40 0
-18 -62 0
-18 -73 0
-18 -86 0
-18 -98 0
-18 -120 0
-18 -132 0
-18 -144 0
-28 -40 0
-28 -62 0
-28 -73 0
-28 -86 0
-28 -98 0
-28 -120 0
-28 -132 0
-28 -144 0
-40 -62 0
-40 -73 0
-40 -86 0
-40 -98 0
-40 -120 0
-40 -132 0
-40 -144 0
-62 -73 0
-62 -86 0
-62 -98 0
-62 -120 0
-62 -132 0
-62 -144 0
-73 -86 0
-73 -98 0
-73 -120 0
-73 -132 0
-73 -144 0
-86 -98 0
-86 -120 0
-86 -132 0
-86 -144 0
-98 -120 0
-98 -132 0
-98 -144 0
-120 -132 0
-120 -144 0
-132 -144 0
8 157 179 189 200 212 222 235 257 268 282 0
-8 -157 0
-8 -179 0
-8 -189 0
-8 -200 0
-8 -212 0
-8 -222 0
-8 -235 0
-8 -257 0
-8 -268 0
-8 -282 0
-157 -179 0
-157 -189 0
-157 -200 0
-157 -212 0
-157 -222 0
-157 -235 0
-157 -257 0
-157 -268 0
-157 -282 0
-179 -189 0
-179 -200 0
-179 -212 0
-179 -222 0
-179 -235 0
-179 -257 0
-179 -268 0
-179 -282 0
-189 -200 0
-189 -212 0
-189 -222 0
-189 -235 0
-189 -257 0
-189 -268 0
-189 -282 0
-200 -212 0
-200 -222 0
-200 -235 0
-200 -257 0
-200 -268 0
-200 -282 0
-212 -222 0
-212 -235 0
-212 -257 0
-212 -268 0
-212 -282 0
-222 -235 0
-222 -257 0
-222 -268 0
-222 -282 0
-235 -257 0
-235 -268 0
-235 -282 0
-257 -268 0
-257 -282 0
-268 -282 0
18 146 157 177 283 290 292 301 315 339 373 0
-18 -146 0
-18 -157 0
-18 -177 0
-18 -283 0
-18 -290 0
-18 -292 0
-18 -301 0
-18 -315 0
-18 -339 0
-18 -373 0
-146 -157 0
-146 -177 0
-146 -283 0
-146 -290 0
-146 -292 0
-146 -301 0
-146 -315 0
-146 -339 0
-146 -373 0
-157 -177 0
-157 -283 0
-157 -290 0
-157 -292 0
-157 -301 0
-157 -315 0
-157 -339 0
-157 -373 0
-177 -283 0
-177 -290 0
-177 -292 0
-177 -301 0
-177 -315 0
-177 -339 0
-177 -373 0
-283 -290 0
-283 -292 0
-283 -301 0
-283 -315 0
-283 -339 0
-283 -373 0
-290 -292 0
-290 -301 0
-290 -315 0
-290 -339 0
-290 -373 0
-292 -301 0
-292 -315 0
-292 -339 0
-292 -373 0
-301 -315 0
-301 -339 0
-301 -373 0
-315 -339 0
-315 -373 0
-339 -373 0
28 135 146 187 271 375 381 384 395 406 430 0
-28 -135 0
-28 -146 0
-28 -187 0
-28 -271 0
-28 -375 0
-28 -381 0
-28 -384 0
-28 -395 0
-28 -406 0
-28 -430 0
-135 -146 0
-135 -187 0
-135 -271 0
-135 -375 0
-135 -381 0
-135 -384 0
-135 -395 0
-135 -406 0
-135 -430 0
-146 -187 0
-146 -271 0
-146 -375 0
-146 -381 0
-146 -384 0
-146 -395 0
-146 -406 0
-146 -430 0
-187 -271 0
-187 -375 0
-187 -381 0
-187 -384 0
-187 -395 0
-187 -406 0
-187 -430 0
-271 -375 0
-271 -381 0
-271 -384 0
-271 -395 0
-271 -406 0
-271 -430 0
-375 -381 0
-375 -384 0
-375 -395 0
-375 -406 0
-375 -430 0
-381 -384 0
-381 -395 0
-381 -406 0
-381 -430 0
-384 -395 0
-384 -406 0
-384 -430 0
-395 -406 0
-395 -430 0
-406 -430 0
40 135 179 199 261 283 313 366 434 439 442 0
-40 -135 0
-40 -179 0
-40 -199 0
-40 -261 0
-40 -283 0
-40 -313 0
-40 -366 0
-40 -434 0
-40 -439 0
-40 -442 0
-135 -179 0
-135 -199 0
-135 -261 0
-135 -283 0
-135 -313 0
-135 -366 0
-135 -434 0
-135 -439 0
-135 -442 0
-179 -199 0
-179 -261 0
-179 -283 0
-179 -313 0
-179 -366 0
-179 -434 0
-179 -439 0
-179 -442 0
-199 -261 0
-199 -283 0
-199 -313 0
-199 -366 0
-199 -434 0
-199 -439 0
-199 -442 0
-261 -283 0
-261 -313 0
-261 -366 0
-261 -434 0
-261 -439 0
-261 -442 0
-283 -313 0
-283 -366 0
-283 -434 0
-283 -439 0
-283 -442 0
-313 -366 0
-313 -434 0
-313 -439 0
-313 -442 0
-366 -434 0
-366 -439 0
-366 -442 0
-434 -439 0
-434 -442 0
-439 -442 0
112 189 210 249 271 292 326 355 404 423 449 0
-112 -189 0
-112 -210 0
-112 -249 0
-112 -271 0
-112 -292 0
-112 -326 0
-112 -355 0
-112 -404 0
-112 -423 0
-112 -449 0
-189 -210 0
-189 -249 0
-189 -271 0
-189 -292 0
-189 -326 0
-189 -355 0
-189 -404 0
-189 -423 0
-189 -449 0
-210 -249 0
-210 -271 0
-210 -292 0
-210 -326 0
-210 -355 0
-210 -404 0
-210 -423 0
-210 -449 0
-249 -271 0
-249 -292 0
-249 -326 0
-249 -355 0
-249 -404 0
-249 -423 0
-249 -449 0
-271 -292 0
-271 -326 0
-271 -355 0
-271 -404 0
-271 -423 0
-271 -449 0
-292 -326 0
-292 -355 0
-292 -404 0
-292 -423 0
-292 -449 0
-326 -355 0
-326 -404 0
-326 -423 0
-326 -449 0
-355 -404 0
-355 -423 0
-355 -449 0
-404 -423 0
-404 -449 0
-423 -449 0
8 9 29 52 63 74 87 99 109 121 133 156 0
-8 -9 0
-8 -29 0
-8 -52 0
-8 -63 0
-8 -74 0
-8 -87 0
-8 -99 0
-8 -109 0
-8 -121 0
-8 -133 0
-8 -156 0
-9 -29 0
-9 -52 0
-9 -63 0
-9 -74 0
-9 -87 0
-9 -99 0
-9 -109 0
-9 -121 0
-9 -133 0
-9 -156 0
-29 -52 0
-29 -63 0
-29 -74 0
-29 -87 0
-29 -99 0
-29 -109 0
-29 -121 0
-29 -133 0
-29 -156 0
-52 -63 0
-52 -74 0
-52 -87 0
-52 -99 0
-52 -109 0
-52 -121 0
-52 -133 0
-52 -156 0
-63 -74 0
-63 -87 0
-63 -99 0
-63 -109 0
-63 -121 0
-63 -133 0
-63 -156 0
-74 -87 0
-74 -99 0
-74 -109 0
-74 -121 0
-74 -133 0
-74 -156 0
-87 -99 0
-87 -109 0
-87 -121 0
-87 -133 0
-87 -156 0
-99 -109 0
-99 -121 0
-99 -133 0
-99 -156 0
-109 -121 0
-109 -133 0
-109 -156 0
-121 -133 0
-121 -156 0
-133 -156 0
9 18 158 166 167 190 201 223 236 258 269 0
-9 -18 0
-9 -158 0
-9 -166 0
-9 -167 0
-9 -190 0
-9 -201 0
-9 -223 0
-9 -236 0
-9 -258 0
-9 -269 0
-18 -158 0
-18 -166 0
-18 -167 0
-18 -190 0
-18 -201 0
-18 -223 0
-18 -236 0
-18 -258 0
-18 -269 0
-158 -166 0
-158 -167 0
-158 -190 0
-158 -201 0
-158 -223 0
-158 -236 0
-158 -258 0
-158 -269 0
-166 -167 0
-166 -190 0
-166 -201 0
-166 -223 0
-166 -236 0
-166 -258 0
-166 -269 0
-167 -190 0
-167 -201 0
-167 -223 0
-167 -236 0
-167 -258 0
-167 -269 0
-190 -201 0
-190 -223 0
-190 -236 0
-190 -258 0
-190 -269 0
-201 -223 0
-201 -236 0
-201 -258 0
-201 -269 0
-223 -236 0
-223 -258 0
-223 -269 0
-236 -258 0
-236 -269 0
-258 -269 0
28 147 158 178 293 302 316 328 340 351 362 0
-28 -147 0
-28 -158 0
-28 -178 0
-28 -293 0
-28 -302 0
-28 -316 0
-28 -328 0
-28 -340 0
-28 -351 0
-28 -362 0
-147 -158 0
-147 -178 0
-147 -293 0
-147 -302 0
-147 -316 0
-147 -328 0
-147 -340 0
-147 -351 0
-147 -362 0
-158 -178 0
-158 -293 0
-158 -302 0
-158 -316 0
-158 -328 0
-158 -340 0
-158 -351 0
-158 -362 0
-178 -293 0
-178 -302 0
-178 -316 0
-178 -328 0
-178 -340 0
-178 -351 0
-178 -362 0
-293 -302 0
-293 -316 0
-293 -328 0
-293 -340 0
-293 -351 0
-293 -362 0
-302 -316 0
-302 -328 0
-302 -340 0
-302 -351 0
-302 -362 0
-316 -328 0
-316 -340 0
-316 -351 0
-316 -362 0
-328 -340 0
-328 -351 0
-328 -362 0
-340 -351 0
-340 -362 0
-351 -362 0
29 40 147 167 188 272 376 382 385 396 407 419 0
-29 -40 0
-29 -147 0
-29 -167 0
-29 -188 0
-29 -272 0
-29 -376 0
-29 -382 0
-29 -385 0
-29 -396 0
-29 -407 0
-29 -419 0
-40 -147 0
-40 -167 0
-40 -188 0
-40 -272 0
-40 -376 0
-40 -382 0
-40 -385 0
-40 -396 0
-40 -407 0
-40 -419 0
-147 -167 0
-147 -188 0
-147 -272 0
-147 -376 0
-147 -382 0
-147 -385 0
-147 -396 0
-147 -407 0
-147 -419 0
-167 -188 0
-167 -272 0
-167 -376 0
-167 -382 0
-167 -385 0
-167 -396 0
-167 -407 0
-167 -419 0
-188 -272 0
-188 -376 0
-188 -382 0
-188 -385 0
-188 -396 0
-188 -407 0
-188 -419 0
-272 -376 0
-272 -382 0
-272 -385 0
-272 -396 0
-272 -407 0
-272 -419 0
-376 -382 0
-376 -385 0
-376 -396 0
-376 -407 0
-376 -419 0
-382 -385 0
-382 -396 0
-382 -407 0
-382 -419 0
-385 -396 0
-385 -407 0
-385 -419 0
-396 -407 0
-396 -419 0
-407 -419 0
9 19 30 41 53 75 88 110 122 145 157 0
-9 -19 0
-9 -30 0
-9 -41 0
-9 -53 0
-9 -75 0
-9 -88 0
-9 -110 0
-9 -122 0
-9 -145 0
-9 -157 0
-19 -30 0
-19 -41 0
-19 -53 0
-19 -75 0
-19 -88 0
-19 -110 0
-19 -122 0
-19 -145 0
-19 -157 0
-30 -41 0
-30 -53 0
-30 -75 0
-30 -88 0
-30 -110 0
-30 -122 0
-30 -145 0
-30 -157 0
-41 -53 0
-41 -75 0
-41 -88 0
-41 -110 0
-41 -122 0
-41 -145 0
-41 -157 0
-53 -75 0
-53 -88 0
-53 -110 0
-53 -122 0
-53 -145 0
-53 -157 0
-75 -88 0
-75 -110 0
-75 -122 0
-75 -145 0
-75 -157 0
-88 -110 0
-88 -122 0
-88 -145 0
-88 -157 0
-110 -122 0
-110 -145 0
-110 -157 0
-122 -145 0
-122 -157 0
-145 -157 0
19 29 179 284 291 294 303 317 329 341 363 0
-19 -29 0
-19 -179 0
-19 -284 0
-19 -291 0
-19 -294 0
-19 -303 0
-19 -317 0
-19 -329 0
-19 -341 0
-19 -363 0
-29 -179 0
-29 -284 0
-29 -291 0
-29 -294 0
-29 -303 0
-29 -317 0
-29 -329 0
-29 -341 0
-29 -363 0
-179 -284 0
-179 -291 0
-179 -294 0
-179 -303 0
-179 -317 0
-179 -329 0
-179 -341 0
-179 -363 0
-284 -291 0
-284 -294 0
-284 -303 0
-284 -317 0
-284 -329 0
-284 -341 0
-284 -363 0
-291 -294 0
-291 -303 0
-291 -317 0
-291 -329 0
-291 -341 0
-291 -363 0
-294 -303 0
-294 -317 0
-294 -329 0
-294 -341 0
-294 -363 0
-303 -317 0
-303 -329 0
-303 -341 0
-303 -363 0
-317 -329 0
-317 -341 0
-317 -363 0
-329 -341 0
-329 -363 0
-341 -363 0
30 136 189 273 300 377 386 397 408 420 431 0
-30 -136 0
-30 -189 0
-30 -273 0
-30 -300 0
-30 -377 0
-30 -386 0
-30 -397 0
-30 -408 0
-30 -420 0
-30 -431 0
-136 -189 0
-136 -273 0
-136 -300 0
-136 -377 0
-136 -386 0
-136 -397 0
-136 -408 0
-136 -420 0
-136 -431 0
-189 -273 0
-189 -300 0
-189 -377 0
-189 -386 0
-189 -397 0
-189 -408 0
-189 -420 0
-189 -431 0
-273 -300 0
-273 -377 0
-273 -386 0
-273 -397 0
-273 -408 0
-273 -420 0
-273 -431 0
-300 -377 0
-300 -386 0
-300 -397 0
-300 -408 0
-300 -420 0
-300 -431 0
-377 -386 0
-377 -397 0
-377 -408 0
-377 -420 0
-377 -431 0
-386 -397 0
-386 -408 0
-386 -420 0
-386 -431 0
-397 -408 0
-397 -420 0
-397 -431 0
-408 -420 0
-408 -431 0
-420 -431 0
10 20 31 42 64 76 100 123 134 146 158 0
-10 -20 0
-10 -31 0
-10 -42 0
-10 -64 0
-10 -76 0
-10 -100 0
-10 -123 0
-10 -134 0
-10 -146 0
-10 -158 0
-20 -31 0
-20 -42 0
-20 -64 0
-20 -76 0
-20 -100 0
-20 -123 0
-20 -134 0
-20 -146 0
-20 -158 0
-31 -42 0
-31 -64 0
-31 -76 0
-31 -100 0
-31 -123 0
-31 -134 0
-31 -146 0
-31 -158 0
-42 -64 0
-42 -76 0
-42 -100 0
-42 -123 0
-42 -134 0
-42 -146 0
-42 -158 0
-64 -76 0
-64 -100 0
-64 -123 0
-64 -134 0
-64 -146 0
-64 -158 0
-76 -100 0
-76 -123 0
-76 -134 0
-76 -146 0
-76 -158 0
-100 -123 0
-100 -134 0
-100 -146 0
-100 -158 0
-123 -134 0
-123 -146 0
-123 -158 0
-134 -146 0
-134 -158 0
-146 -158 0
10 19 167 168 180 202 213 246 259 270 283 0
-10 -19 0
-10 -167 0
-10 -168 0
-10 -180 0
-10 -202 0
-10 -213 0
-10 -246 0
-10 -259 0
-10 -270 0
-10 -283 0
-19 -167 0
-19 -168 0
-19 -180 0
-19 -202 0
-19 -213 0
-19 -246 0
-19 -259 0
-19 -270 0
-19 -283 0
-167 -168 0
-167 -180 0
-167 -202 0
-167 -213 0
-167 -246 0
-167 -259 0
-167 -270 0
-167 -283 0
-168 -180 0
-168 -202 0
-168 -213 0
-168 -246 0
-168 -259 0
-168 -270 0
-168 -283 0
-180 -202 0
-180 -213 0
-180 -246 0
-180 -259 0
-180 -270 0
-180 -283 0
-202 -213 0
-202 -246 0
-202 -259 0
-202 -270 0
-202 -283 0
-213 -246 0
-213 -259 0
-213 -270 0
-213 -283 0
-246 -259 0
-246 -270 0
-246 -283 0
-259 -270 0
-259 -283 0
-270 -283 0
20 30 148 285 292 304 318 342 352 364 374 0
-20 -30 0
-20 -148 0
-20 -285 0
-20 -292 0
-20 -304 0
-20 -318 0
-20 -342 0
-20 -352 0
-20 -364 0
-20 -374 0
-30 -148 0
-30 -285 0
-30 -292 0
-30 -304 0
-30 -318 0
-30 -342 0
-30 -352 0
-30 -364 0
-30 -374 0
-148 -285 0
-148 -292 0
-148 -304 0
-148 -318 0
-148 -342 0
-148 -352 0
-148 -364 0
-148 -374 0
-285 -292 0
-285 -304 0
-285 -318 0
-285 -342 0
-285 -352 0
-285 -364 0
-285 -374 0
-292 -304 0
-292 -318 0
-292 -342 0
-292 -352 0
-292 -364 0
-292 -374 0
-304 -318 0
-304 -342 0
-304 -352 0
-304 -364 0
-304 -374 0
-318 -342 0
-318 -352 0
-318 -364 0
-318 -374 0
-342 -352 0
-342 -364 0
-342 -374 0
-352 -364 0
-352 -374 0
-364 -374 0
10 21 32 43 54 65 77 111 124 135 147 0
-10 -21 0
-10 -32 0
-10 -43 0
-10 -54 0
-10 -65 0
-10 -77 0
-10 -111 0
-10 -124 0
-10 -135 0
-10 -147 0
-21 -32 0
-21 -43 0
-21 -54 0
-21 -65 0
-21 -77 0
-21 -111 0
-21 -124 0
-21 -135 0
-21 -147 0
-32 -43 0
-32 -54 0
-32 -65 0
-32 -77 0
-32 -111 0
-32 -124 0
-32 -135 0
-32 -147 0
-43 -54 0
-43 -65 0
-43 -77 0
-43 -111 0
-43 -124 0
-43 -135 0
-43 -147 0
-54 -65 0
-54 -77 0
-54 -111 0
-54 -124 0
-54 -135 0
-54 -147 0
-65 -77 0
-65 -111 0
-65 -124 0
-65 -135 0
-65 -147 0
-77 -111 0
-77 -124 0
-77 -135 0
-77 -147 0
-111 -124 0
-111 -135 0
-111 -147 0
-124 -135 0
-124 -147 0
-135 -147 0
20 159 169 181 191 203 214 224 247 260 271 0
-20 -159 0
-20 -169 0
-20 -181 0
-20 -191 0
-20 -203 0
-20 -214 0
-20 -224 0
-20 -247 0
-20 -260 0
-20 -271 0
-159 -169 0
-159 -181 0
-159 -191 0
-159 -203 0
-159 -214 0
-159 -224 0
-159 -247 0
-159 -260 0
-159 -271 0
-169 -181 0
-169 -191 0
-169 -203 0
-169 -214 0
-169 -224 0
-169 -247 0
-169 -260 0
-169 -271 0
-181 -191 0
-181 -203 0
-181 -214 0
-181 -224 0
-181 -247 0
-181 -260 0
-181 -271 0
-191 -203 0
-191 -214 0
-191 -224 0
-191 -247 0
-191 -260 0
-191 -271 0
-203 -214 0
-203 -224 0
-203 -247 0
-203 -260 0
-203 -271 0
-214 -224 0
-214 -247 0
-214 -260 0
-214 -271 0
-224 -247 0
-224 -260 0
-224 -271 0
-247 -260 0
-247 -271 0
-260 -271 0
-1 -20 -28 -35 -50 -63 -77 -88 -101 -106 -114 -130 -143 -152 -166 -176 -185 -196 -208 -226 -237 -244 -251 -268 -283 -288 -305 -317 -331 -338 -344 -358 -377 -385 -390 -409 -423 -433 -443 -448 0
-1 -17 -33 -42 -48 -63 -77 -86 -92 -110 -115 -130 -143 -152 -165 -181 -189 -195 -208 -223 -238 -241 -253 -272 -283 -291 -297 -311 -331 -340 -348 -364 -375 -378 -390 -410 -421 -429 -443 -452 0
-1 -15 -28 -41 -55 -60 -77 -81 -96 -109 -123 -131 -140 -152 -163 -180 -188 -203 -207 -226 -236 -244 -261 -262 -282 -288 -303 -320 -327 -339 -346 -365 -374 -386 -390 -404 -417 -425 -444 -450 0
-1 -20 -26 -39 -49 -63 -75 -81 -101 -108 -124 -132 -140 -152 -165 -180 -190 -200 -206 -218 -237 -249 -254 -266 -280 -290 -303 -320 -330 -340 -346 -361 -369 -388 -395 -408 -419 -426 -442 -447 0
-1 -13 -32 -37 -49 -66 -74 -88 -100 -108 -119 -127 -144 -152 -163 -177 -189 -201 -214 -216 -238 -246 -261 -266 -281 -291 -304 -320 -328 -336 -353 -356 -370 -383 -395 -407 -413 -426 -438 -446 0
-1 -17 -26 -41 -55 -64 -74 -85 -98 -107 -124 -127 -140 -152 -169 -179 -186 -197 -213 -221 -230 -240 -258 -272 -278 -292 -298 -320 -331 -336 -351 -361 -375 -380 -390 -411 -420 -426 -441 -455 0
-1 -15 -30 -44 -46 -62 -71 -85 -99 -107 -115 -134 -147 -152 -168 -181 -187 -197 -212 -226 -230 -245 -258 -262 -279 -289 -303 -319 -326 -339 -354 -356 -369 -380 -392 -400 -415 -428 -439 -454 0
-1 -20 -32 -39 -53 -59 -73 -87 -95 -112 -114 -128 -142 -152 -167 -182 -187 -195 -209 -218 -238 -242 -256 -265 -282 -288 -305 -314 -329 -339 -347 -362 -377 -380 -393 -410 -421 -428 -439 -446 0
-1 -16 -24 -43 -48 -63 -71 -86 -97 -110 -115 -136 -146 -152 -171 -180 -188 -203 -208 -223 -235 -241 -261 -264 -280 -293 -298 -308 -332 -341 -349 -361 -374 -388 -392 -404 -421 -427 -436 -452 0
-1 -20 -25 -40 -50 -61 -77 -87 -101 -110 -114 -128 -141 -153 -165 -182 -190 -195 -213 -217 -232 -244 -254 -273 -282 -288 -303 -320 -331 -339 -353 -362 -372 -384 -394 -400 -416 -424 -438 -449 0
-1 -20 -33 -40 -47 -65 -70 -87 -97 -110 -118 -127 -141 -153 -166 -176 -193 -200 -208 -217 -237 -246 -254 -262 -280 -294 -297 -315 -326 -337 -351 -365 -377 -387 -395 -403 -417 -426 -437 -450 0
-1 -18 -31 -37 -51 -60 -75 -89 -99 -104 -116 -135 -139 -154 -162 -173 -192 -195 -212 -224 -233 -244 -259 -267 -285 -288 -300 -316 -326 -333 -354 -363 -368 -388 -396 -401 -417 -429 -443 -450 0
-1 -18 -30 -42 -55 -60 -72 -81 -93 -105 -121 -135 -141 -154 -162 -182 -191 -200 -215 -221 -233 -240 -255 -270 -276 -288 -303 -311 -330 -343 -351 -360 -372 -382 -390 -404 -412 -432 -438 -455 0
-1 -17 -25 -44 -53 -64 -77 -82 -98 -106 -121 -130 -139 -155 -166 -179 -185 -195 -213 -217 -230 -249 -260 -272 -279 -286 -302 -314 -331 -334 -353 -364 -373 -379 -395 -410 -421 -431 -435 -456 0
-1 -17 -24 -37 -49 -63 -70 -86 -93 -112 -123 -135 -145 -155 -167 -178 -185 -196 -214 -226 -235 -243 -252 -262 -284 -287 -306 -315 -330 -342 -344 -358 -377 -378 -398 -411 -421 -427 -444 -448 0
-1 -17 -29 -35 -54 -58 -78 -86 -92 -106 -123 -130 -145 -155 -169 -178 -190 -197 -212 -218 -237 -246 -251 -263 -279 -292 -305 -310 -332 -333 -354 -357 -371 -381 -397 -411 -417 -427 -439 -453 0
-1 -18 -25 -44 -47 -64 -68 -88 -96 -109 -117 -130 -147 -155 -168 -175 -186 -199 -211 -217 -230 -249 -260 -268 -275 -296 -303 -310 -327 -342 -346 -356 -375 -388 -399 -403 -417 -431 -441 -455 0
-1 -19 -32 -40 -48 -60 -74 -84 -93 -105 -114 -136 -146 -155 -163 -178 -193 -201 -206 -224 -234 -248 -257 -264 -276 -287 -298 -319 -323 -338 -344 -361 -374 -380 -398 -402 -423 -432 -444 -451 0
-1 -19 -33 -35 -50 -65 -68 -83 -95 -109 -116 -132 -146 -155 -165 -181 -190 -200 -210 -217 -237 -240 -254 -264 -285 -287 -300 -311 -328 -335 -349 -365 -376 -379 -398 -401 -422 -429 -439 -456 0
-1 -21 -30 -44 -52 -59 -71 -82 -94 -107 -123 -127 -144 -155 -167 -176 -184 -196 -215 -222 -234 -245 -251 -271 -277 -294 -307 -316 -324 -333 -345 -359 -373 -383 -399 -400 -415 -433 -439 -448 0
-1 -13 -30 -42 -49 -58 -73 -83 -97 -112 -124 -127 -142 -156 -163 -179 -192 -203 -215 -223 -229 -240 -259 -266 -280 -296 -306 -316 -321 -337 -353 -360 -373 -382 -399 -406 -421 -429 -443 -450 0
-1 -21 -30 -37 -50 -58 -73 -81 -101 -104 -119 -130 -146 -156 -167 -181 -193 -199 -207 -222 -231 -242 -251 -263 -279 -287 -299 -317 -326 -333 -354 -362 -369 -387 -393 -405 -422 -426 -443 -451 0
-1 -16 -25 -39 -47 -62 -77 -88 -100 -106 -118 -136 -139 -156 -167 -179 -185 -196 -210 -225 -228 -242 -260 -263 -285 -290 -305 -316 -323 -334 -354 -358 -367 -380 -390 -406 -422 -427 -444 -451 0
-1 -21 -28 -42 -50 -59 -68 -88 -94 -107 -115 -131 -148 -156 -163 -173 -191 -200 -210 -223 -238 -240 -253 -270 -278 -296 -303 -312 -321 -343 -349 -359 -373 -382 -391 -400 -412 -431 -439 -455 0
-1 -21 -28 -41 -51 -58 -76 -83 -96 -112 -114 -130 -140 -156 -169 -174 -184 -197 -209 -223 -234 -240 -259 -268 -278 -290 -306 -309 -329 -342 -347 -358 -377 -385 -394 -411 -417 -427 -442 -450 0
-1 -20 -27 -41 -46 -58 -77 -86 -96 -112 -117 -128 -143 -156 -167 -182 -193 -199 -207 -219 -232 -240 -257 -263 -277 -293 -299 -310 -324 -339 -354 -363 -377 -384 -389 -402 -417 -425 -441 -452 0
-1 -13 -26 -38 -46 -63 -70 -89 -98 -108 -123 -131 -147 -157 -164 -175 -193 -203 -211 -219 -236 -246 -261 -263 -275 -291 -304 -319 -322 -336 -355 -356 -370 -384 -394 -409 -420 -425 -436 -452 0
-1 -14 -31 -37 -50 -62 -77 -82 -97 -107 -121 -136 -139 -157 -161 -182 -193 -203 -210 -219 -236 -245 -251 -270 -278 -294 -302 -312 -322 -342 -349 -359 -372 -382 -389 -406 -414 -434 -436 -455 0
-1 -16 -25 -39 -52 -64 -78 -86 -92 -111 -118 -128 -141 -157 -168 -181 -185 -195 -207 -220 -232 -245 -258 -263 -285 -286 -300 -319 -324 -340 -349 -363 -376 -381 -389 -403 -413 -433 -442 -449 0
-1 -20 -26 -43 -49 -66 -74 -82 -94 -108 -119 -132 -139 -157 -161 -178 -186 -201 -208 -225 -238 -244 -259 -262 -277 -294 -298 -314 -326 -335 -344 -359 -375 -387 -390 -408 -419 -426 -442 -448 0
-1 -15 -27 -40 -46 -63 -69 -85 -94 -110 -124 -136 -142 -158 -169 -176 -187 -204 -213 -216 -229 -241 -257 -264 -281 -295 -301 -317 -322 -343 -355 -364 -369 -379 -398 -405 -418 -425 -445 -454 0
-1 -17 -26 -38 -52 -58 -75 -86 -97 -112 -124 -127 -140 -158 -161 -181 -193 -198 -212 -219 -237 -245 -254 -262 -283 -287 -297 -318 -330 -341 -346 -361 -376 -383 -399 -402 -420 -430 -436 -454 0
-1 -19 -25 -40 -50 -63 -68 -85 -93 -106 -124 -130 -148 -158 -164 -176 -185 -204 -215 -217 -230 -245 -257 -271 -275 -295 -299 -315 -323 -338 -346 -357 -377 -379 -399 -410 -422 -424 -445 -450 0
-1 -21 -29 -35 -49 -58 -73 -89 -97 -106 -118 -127 -145 -158 -163 -180 -187 -198 -215 -222 -230 -245 -260 -262 -276 -292 -297 -313 -324 -336 -348 -357 -367 -386 -391 -405 -413 -424 -435 -448 0
-1 -13 -25 -40 -50 -59 -76 -85 -95 -111 -114 -133 -145 -159 -164 -180 -193 -195 -212 -223 -229 -243 -254 -267 -284 -292 -302 -312 -332 -333 -346 -360 -368 -386 -391 -409 -412 -430 -445 -456 0
-1 -13 -26 -42 -51 -60 -71 -86 -94 -109 -114 -135 -145 -159 -168 -177 -184 -195 -211 -223 -238 -242 -254 -268 -279 -294 -307 -318 -326 -333 -347 -362 -368 -386 -390 -407 -417 -424 -436 -456 0
-1 -14 -30 -43 -49 -61 -76 -87 -96 -106 -115 -132 -139 -159 -166 -174 -187 -204 -206 -219 -229 -249 -257 -266 -283 -294 -302 -314 -322 -333 -345 -360 -371 -382 -393 -409 -412 -426 -437 -454 0
-1 -18 -29 -38 -51 -58 -76 -83 -92 -110 -115 -135 -142 -159 -168 -174 -193 -197 -212 -221 -233 -242 -255 -262 -276 -287 -300 -316 -326 -343 -344 -364 -369 -380 -398 -403 -418 -424 -435 -454 0
-2 -16 -31 -35 -51 -65 -67 -83 -99 -112 -118 -132 -145 -152 -169 -182 -183 -201 -212 -218 -232 -245 -259 -265 -280 -290 -304 -316 -323 -341 -354 -358 -377 -382 -389 -406 -415 -434 -440 -446 0
-2 -18 -27 -34 -52 -59 -78 -82 -97 -105 -122 -134 -147 -154 -169 -180 -183 -198 -212 -217 -230 -244 -261 -267 -279 -291 -304 -310 -321 -337 -353 -357 -377 -387 -398 -406 -417 -426 -444 -449 0
-2 -18 -26 -34 -51 -58 -77 -88 -100 -108 -115 -133 -148 -153 -169 -180 -186 -194 -212 -221 -237 -241 -252 -266 -280 -291 -297 -313 -328 -334 -355 -356 -375 -385 -389 -411 -420 -426 -437 -450 0
-2 -16 -25 -40 -50 -61 -77 -82 -101 -106 -121 -125 -145 -158 -169 -182 -189 -197 -213 -217 -234 -245 -250 -264 -278 -294 -304 -309 -332 -338 -353 -358 -373 -379 -398 -406 -417 -425 -438 -446 0
-2 -15 -28 -34 -50 -63 -72 -82 -100 -111 -116 -130 -148 -157 -169 -175 -184 -196 -213 -223 -234 -248 -250 -267 -279 -289 -305 -308 -331 -341 -355 -357 -369 -385 -394 -405 -416 -431 -442 -452 0
-2 -14 -29 -38 -50 -64 -77 -82 -90 -106 -120 -136 -143 -157 -169 -172 -187 -201 -213 -225 -230 -243 -256 -266 -276 -289 -297 -316 -326 -343 -344 -365 -374 -378 -399 -409 -413 -434 -436 -456 0
-2 -14 -29 -43 -49 -64 -69 -79 -96 -106 -119 -132 -148 -157 -169 -178 -192 -201 -210 -219 -230 -246 -250 -266 -276 -286 -299 -309 -325 -343 -349 -361 -375 -386 -392 -403 -413 -428 -442 -446 0
-2 -21 -29 -38 -51 -62 -78 -79 -94 -110 -117 -128 -146 -154 -169 -174 -186 -201 -213 -217 -235 -244 -250 -267 -278 -296 -300 -311 -328 -343 -349 -364 -367 -378 -398 -404 -413 -425 -439 -456 0
-2 -13 -30 -37 -49 -65 -71 -89 -100 -109 -116 -131 -144 -149 -169 -178 -187 -201 -212 -217 -227 -243 -254 -266 -283 -295 -303 -320 -324 -337 -350 -357 -371 -383 -396 -403 -423 -424 -437 -450 0
-2 -19 -28 -37 -49 -56 -70 -87 -100 -111 -115 -131 -148 -154 -169 -173 -186 -204 -212 -220 -236 -239 -253 -266 -281 -286 -305 -314 -326 -339 -354 -357 -377 -382 -399 -400 -415 -434 -441 -452 0
-2 -21 -30 -35 -49 -66 -67 -84 -99 -105 -123 -132 -141 -155 -160 -181 -193 -201 -211 -222 -230 -243 -254 -270 -280 -294 -301 -313 -324 -335 -351 -356 -372 -384 -396 -410 -423 -428 -445 -452 0
-2 -14 -27 -44 -53 -65 -69 -86 -90 -108 -117 -133 -146 -155 -161 -181 -193 -194 -210 -219 -235 -246 -258 -267 -284 -293 -304 -308 -325 -334 -345 -361 -376 -383 -392 -410 -420 -433 -439 -456 0
-2 -14 -30 -42 -49 -63 -72 -83 -90 -108 -120 -135 -140 -159 -165 -177 -193 -196 -213 -223 -235 -242 -250 -272 -276 -287 -299 -316 -326 -341 -354 -361 -369 -380 -398 -402 -421 -427 -444 -452 0
-2 -13 -29 -43 -51 -58 -76 -83 -95 -108 -122 -132 -148 -149 -165 -173 -193 -198 -212 -223 -231 -239 -255 -271 -283 -295 -302 -309 -332 -338 -348 -359 -372 -386 -394 -401 -414 -424 -445 -456 0
-2 -15 -33 -43 -50 -63 -75 -86 -100 -104 -119 -130 -137 -152 -167 -178 -193 -197 -205 -219 -234 -247 -253 -268 -284 -292 -298 -310 -331 -338 -348 -361 -377 -387 -394 -403 -414 -430 -442 -446 0
-2 -21 -26 -42 -51 -66 -70 -87 -90 -110 -118 -132 -140 -153 -167 -179 -193 -203 -210 -219 -231 -239 -256 -263 -278 -290 -304 -309 -327 -343 -351 -359 -377 -383 -392 -406 -417 -425 -440 -456 0
-2 -13 -33 -38 -54 -56 -75 -83 -98 -109 -119 -129 -142 -158 -163 -180 -193 -198 -212 -221 -237 -239 -252 -271 -280 -291 -301 -313 -332 -337 -352 -365 -368 -380 -397 -407 -422 -429 -436 -453 0
-2 -13 -30 -36 -49 -64 -73 -83 -99 -112 -113 -135 -142 -155 -160 -182 -193 -203 -213 -219 -235 -245 -254 -269 -280 -291 -307 -316 -331 -334 -353 -360 -373 -383 -399 -410 -419 -433 -441 -450 0
-2 -17 -25 -41 -49 -63 -69 -83 -97 -112 -120 -135 -137 -158 -160 -181 -186 -202 -215 -218 -235 -242 -254 -272 -281 -291 -306 -315 -321 -334 -346 -364 -369 -380 -397 -410 -415 -428 -438 -447 0
-2 -13 -30 -37 -49 -63 -70 -79 -100 -112 -118 -135 -144 -155 -163 -178 -191 -204 -215 -222 -236 -246 -255 -263 -274 -291 -307 -315 -322 -343 -347 -356 -370 -388 -396 -402 -418 -432 -445 -450 0
-2 -13 -33 -42 -48 -60 -73 -88 -97 -111 -113 -129 -142 -156 -170 -175 -190 -203 -215 -217 -233 -242 -255 -268 -283 -287 -306 -317 -328 -337 -355 -364 -375 -382 -393 -408 -418 -425 -436 -448 0
-2 -19 -32 -34 -50 -58 -72 -82 -100 -106 -121 -136 -144 -153 -163 -178 -191 -201 -215 -225 -234 -239 -257 -266 -276 -292 -297 -308 -327 -336 -348 -357 -375 -387 -396 -402 -418 -434 -436 -448 0
-2 -17 -30 -43 -52 -60 -69 -86 -97 -112 -116 -125 -141 -158 -162 -176 -185 -194 -215 -224 -229 -248 -259 -268 -281 -286 -305 -317 -332 -339 -346 -359 -376 -384 -393 -411 -413 -429 -439 -447 0
-2 -18 -27 -43 -47 -61 -74 -79 -94 -110 -118 -134 -141 -159 -165 -180 -189 -196 -208 -226 -227 -241 -255 -272 -276 -286 -304 -317 -328 -337 -346 -359 -372 -384 -392 -400 -421 -424 -439 -451 0
-2 -18 -27 -43 -47 -61 -74 -79 -94 -110 -118 -134 -141 -159 -168 -176 -189 -196 -208 -226 -227 -241 -255 -267 -276 -286 -304 -317 -328 -337 -346 -359 -376 -384 -392 -405 -413 -424 -439 -454 0
-2 -17 -33 -43 -53 -61 -74 -82 -100 -106 -120 -130 -137 -152 -162 -178 -192 -203 -205 -226 -236 -246 -254 -268 -279 -288 -301 -314 -325 -341 -355 -366 -374 -379 -396 -406 -417 -431 -437 -450 0
-2 -14 -28 -37 -50 -63 -76 -82 -95 -110 -124 -136 -137 -155 -170 -179 -190 -202 -214 -226 -233 -244 -256 -264 -276 -292 -306 -310 -322 -333 -349 -359 -372 -382 -394 -411 -414 -425 -436 -447 0
-2 -16 -30 -37 -51 -65 -78 -82 -100 -102 -121 -129 -144 -154 -162 -173 -183 -200 -214 -226 -236 -248 -255 -267 -283 -295 -306 -316 -327 -334 -355 -363 -369 -384 -396 -410 -418 -432 -445 -454 0
-2 -20 -28 -36 -54 -56 -74 -83 -95 -112 -122 -128 -142 -155 -165 -175 -183 -201 -207 -226 -235 -244 -252 -270 -284 -296 -300 -310 -321 -336 -353 -366 -373 -387 -398 -407 -413 -433 -437 -446 0
-2 -15 -29 -42 -51 -65 -70 -86 -95 -102 -122 -128 -142 -159 -161 -182 -185 -194 -212 -226 -236 -243 -255 -270 -281 -292 -306 -313 -328 -335 -350 -357 -377 -381 -389 -410 -415 -432 -435 -453 0
-2 -22 -29 -34 -53 -58 -77 -86 -93 -106 -119 -130 -142 -158 -163 -182 -191 -198 -211 -226 -235 -246 -252 -264 -280 -289 -301 -310 -326 -334 -353 -366 -374 -381 -397 -410 -417 -433 -440 -448 0
-2 -18 -30 -44 -50 -61 -70 -87 -100 -106 -115 -135 -137 -153 -163 -180 -184 -204 -211 -226 -227 -242 -260 -268 -280 -288 -303 -320 -327 -340 -349 -357 -367 -382 -391 -400 -423 -429 -440 -447 0
-2 -15 -32 -40 -53 -60 -67 -87 -93 -105 -118 -131 -148 -158 -163 -177 -183 -196 -211 -225 -238 -247 -252 -270 -282 -289 -303 -319 -322 -333 -355 -358 -369 -381 -390 -408 -417 -424 -444 -452 0
-2 -22 -30 -37 -52 -65 -73 -84 -93 -107 -116 -134 -137 -155 -168 -176 -184 -199 -207 -222 -238 -245 -258 -271 -277 -290 -298 -317 -331 -333 -351 -359 -369 -385 -389 -403 -413 -425 -441 -447 0
-2 -13 -29 -43 -55 -59 -71 -88 -98 -105 -113 -130 -143 -158 -164 -175 -186 -202 -205 -222 -238 -248 -256 -271 -276 -295 -301 -312 -322 -342 -350 -366 -370 -388 -399 -402 -417 -431 -441 -450 0
-2 -20 -32 -40 -52 -60 -78 -79 -93 -108 -116 -131 -141 -157 -170 -176 -185 -201 -207 -217 -232 -249 -255 -270 -281 -286 -305 -317 -328 -336 -346 -360 -377 -381 -393 -411 -413 -432 -435 -455 0
-2 -20 -28 -44 -47 -65 -70 -87 -95 -108 -122 -125 -141 -155 -166 -177 -184 -202 -209 -218 -237 -249 -254 -268 -274 -294 -298 -314 -325 -333 -345 -360 -377 -385 -399 -400 -415 -433 -439 -450 0
-2 -13 -27 -36 -55 -59 -75 -85 -99 -111 -120 -125 -142 -158 -160 -177 -186 -203 -213 -222 -231 -249 -261 -266 -281 -294 -300 -320 -330 -342 -344 -357 -371 -385 -399 -406 -417 -433 -440 -456 0
-2 -22 -25 -37 -49 -64 -69 -88 -96 -102 -119 -135 -144 -156 -167 -174 -192 -198 -209 -222 -234 -247 -252 -273 -277 -292 -306 -317 -330 -333 -351 -358 -369 -383 -391 -410 -415 -433 -443 -454 0
-2 -14 -27 -43 -55 -64 -73 -83 -96 -109 -115 -131 -145 -149 -160 -179 -187 -203 -207 -219 -236 -245 -259 -273 -278 -293 -301 -309 -332 -342 -348 -356 -371 -382 -391 -403 -423 -433 -436 -454 0
-2 -16 -29 -43 -51 -58 -76 -84 -90 -110 -117 -128 -144 -159 -162 -173 -192 -197 -211 -223 -235 -244 -250 -273 -283 -296 -302 -308 -331 -336 -345 -361 -374 -379 -391 -404 -421 -430 -441 -456 0
-2 -18 -25 -42 -50 -56 -77 -87 -97 -110 -117 -130 -140 -159 -168 -178 -185 -196 -209 -220 -232 -239 -252 -273 -282 -288 -304 -314 -329 -334 -355 -358 -376 -381 -390 -410 -415 -429 -442 -447 0
-2 -20 -25 -41 -49 -61 -77 -87 -101 -108 -117 -132 -140 -149 -165 -174 -187 -198 -205 -222 -236 -246 -252 -273 -277 -293 -307 -315 -329 -338 -345 -358 -372 -385 -399 -400 -418 -433 -442 -449 0
-2 -16 -31 -36 -48 -56 -77 -85 -99 -104 -122 -136 -144 -154 -166 -172 -184 -198 -213 -222 -234 -247 -261 -264 -285 -291 -307 -316 -323 -339 -344 -358 -376 -381 -398 -411 -413 -433 -444 -449 0
-2 -21 -26 -38 -55 -58 -75 -79 -98 -104 -118 -131 -146 -156 -167 -179 -186 -198 -207 -220 -231 -239 -260 -263 -285 -286 -302 -309 -325 -343 -349 -358 -377 -387 -399 -404 -413 -425 -440 -456 0
-2 -19 -31 -37 -52 -65 -73 -85 -93 -112 -116 -130 -142 -149 -160 -177 -191 -196 -208 -219 -235 -245 -254 -269 -285 -286 -299 -313 -332 -334 -351 -361 -371 -385 -395 -403 -420 -433 -444 -451 0
-2 -17 -26 -43 -47 -64 -78 -85 -98 -105 -121 -130 -145 -149 -167 -179 -185 -198 -209 -221 -229 -239 -260 -264 -285 -287 -301 -319 -324 -340 -355 -356 -369 -381 -390 -408 -422 -426 -444 -451 0
-3 -17 -31 -44 -45 -65 -70 -83 -95 -102 -122 -132 -143 -156 -162 -179 -185 -195 -205 -225 -236 -247 -259 -273 -279 -296 -306 -315 -328 -335 -348 -356 -374 -385 -395 -401 -423 -433 -435 -456 0
-3 -17 -28 -43 -45 -64 -67 -83 -99 -107 -122 -129 -143 -159 -171 -174 -185 -201 -212 -219 -227 -245 -259 -272 -278 -291 -306 -318 -332 -334 -346 -356 -373 -383 -391 -402 -420 -433 -442 -449 0
-3 -17 -26 -41 -45 -63 -76 -85 -98 -112 -124 -129 -137 -153 -167 -176 -185 -198 -214 -225 -238 -239 -256 -268 -275 -286 -307 -315 -329 -334 -352 -362 -371 -386 -395 -410 -418 -426 -439 -447 0
-3 -22 -27 -39 -45 -64 -71 -86 -90 -105 -121 -135 -141 -157 -165 -180 -190 -195 -214 -218 -232 -248 -254 -273 -280 -288 -303 -311 -330 -340 -352 -356 -372 -378 -396 -400 -423 -433 -445 -455 0
-3 -14 -27 -39 -45 -63 -67 -84 -100 -112 -120 -135 -141 -157 -170 -180 -193 -203 -207 -216 -233 -244 -256 -269 -278 -295 -304 -316 -325 -337 -350 -363 -377 -387 -396 -403 -414 -433 -443 -450 0
-3 -20 -25 -44 -45 -65 -73 -83 -96 -110 -119 -133 -137 -153 -164 -178 -183 -200 -209 -226 -236 -241 -259 -272 -275 -290 -303 -310 -322 -337 -355 -361 -367 -386 -394 -406 -413 -427 -439 -455 0
-3 -16 -25 -39 -45 -59 -77 -87 -96 -102 -122 -136 -144 -158 -170 -181 -188 -196 -210 -222 -238 -241 -251 -266 -283 -294 -305 -318 -322 -333 -346 -361 -369 -381 -390 -409 -422 -427 -444 -452 0
-3 -19 -26 -40 -49 -61 -77 -87 -100 -108 -116 -125 -138 -159 -171 -182 -183 -196 -211 -219 -232 -244 -257 -269 -277 -292 -297 -316 -327 -338 -346 -359 -377 -384 -392 -400 -418 -424 -438 -447 0
-3 -15 -29 -41 -49 -58 -77 -89 -90 -103 -119 -132 -142 -158 -165 -177 -193 -203 -213 -225 -228 -239 -257 -264 -277 -295 -307 -312 -326 -335 -354 -361 -374 -386 -395 -410 -422 -427 -442 -454 0
-3 -21 -25 -39 -49 -63 -76 -83 -101 -108 -120 -125 -138 -157 -165 -174 -193 -199 -205 -216 -232 -246 -258 -271 -277 -286 -304 -316 -329 -338 -350 -358 -377 -380 -396 -403 -412 -433 -443 -447 0
-3 -12 -23 -43 -49 -64 -78 -83 -98 -109 -119 -129 -145 -154 -168 -174 -188 -198 -212 -220 -236 -243 -250 -271 -285 -290 -302 -317 -332 -343 -346 -365 -369 -380 -397 -402 -415 -428 -439 -450 0
-3 -17 -32 -34 -49 -57 -73 -83 -101 -109 -116 -134 -143 -157 -168 -181 -188 -194 -215 -218 -231 -242 -251 -269 -279 -288 -303 -309 -327 -340 -344 -364 -375 -386 -391 -404 -414 -424 -442 -447 0
-3 -14 -26 -40 -49 -56 -77 -84 -101 -109 -119 -134 -138 -157 -168 -172 -193 -203 -209 -218 -228 -242 -256 -269 -280 -293 -304 -317 -327 -333 -345 -360 -377 -384 -391 -404 -414 -424 -441 -455 0
-3 -18 -33 -42 -50 -57 -75 -79 -99 -111 -116 -131 -141 -153 -163 -181 -188 -200 -213 -225 -232 -239 -255 -273 -275 -289 -305 -310 -326 -341 -351 -359 -374 -381 -390 -409 -417 -434 -436 -452 0
-3 -12 -27 -43 -50 -59 -76 -89 -98 -103 -116 -133 -143 -157 -162 -180 -190 -194 -215 -221 -231 -244 -261 -271 -279 -291 -307 -319 -322 -335 -348 -362 -374 -386 -390 -407 -422 -424 -444 -452 0
-3 -22 -29 -38 -50 -58 -77 -86 -100 -103 -119 -125 -141 -157 -166 -176 -191 -202 -207 -226 -228 -242 -261 -265 -280 -293 -297 -318 -326 -337 -354 -356 -370 -384 -398 -408 -414 -427 -438 -455 0
-3 -16 -33 -43 -50 -59 -72 -88 -91 -105 -120 -133 -137 -158 -162 -179 -188 -202 -214 -216 -237 -244 -250 -273 -277 -292 -307 -310 -331 -338 -350 -358 -371 -381 -394 -409 -412 -427 -438 -447 0
-3 -12 -26 -42 -50 -58 -75 -89 -98 -103 -121 -131 -147 -153 -166 -181 -193 -204 -213 -219 -234 -239 -257 -266 -277 -292 -305 -314 -325 -338 -354 -363 -369 -381 -397 -409 -417 -434 -444 -452 0
-3 -18 -27 -36 -50 -65 -72 -79 -100 -106 -121 -126 -145 -159 -162 -178 -183 -202 -209 -222 -234 -240 -261 -265 -285 -288 -298 -320 -322 -341 -344 -359 -376 -387 -397 -410 -423 -430 -440 -447 0
-3 -22 -28 -36 -50 -64 -74 -88 -90 -107 -124 -126 -141 -155 -167 -176 -192 -195 -214 -221 -230 -244 -257 -265 -285 -294 -298 -310 -326 -336 -353 -356 -373 -383 -398 -411 -420 -426 -442 -446 0
-3 -19 -33 -36 -51 -57 -76 -84 -98 -106 -113 -130 -147 -156 -162 -181 -192 -197 -209 -222 -238 -239 -258 -262 -280 -292 -298 -319 -323 -338 -348 -366 -368 -381 -397 -400 -418 -432 -444 -454 0
-3 -18 -32 -38 -51 -57 -76 -83 -99 -110 -116 -125 -142 -159 -164 -179 -186 -202 -211 -225 -238 -240 -250 -264 -277 -288 -307 -308 -328 -336 -349 -364 -372 -385 -395 -400 -423 -431 -435 -448 0
-3 -12 -26 -42 -51 -65 -73 -84 -99 -110 -116 -130 -148 -150 -162 -175 -191 -204 -211 -220 -235 -243 -250 -269 -283 -287 -300 -310 -330 -343 -351 -363 -370 -385 -395 -404 -413 -429 -437 -456 0
-3 -22 -32 -34 -51 -59 -76 -80 -99 -108 -116 -132 -145 -153 -163 -182 -189 -201 -211 -224 -238 -240 -259 -266 -280 -288 -303 -313 -328 -339 -352 -357 -375 -378 -399 -409 -419 -428 -440 -448 0
-3 -22 -26 -42 -51 -58 -67 -87 -91 -107 -118 -132 -147 -157 -162 -182 -193 -203 -211 -216 -231 -243 -259 -269 -280 -294 -300 -311 -326 -342 -345 -357 -375 -387 -399 -401 -418 -434 -443 -448 0
-3 -14 -31 -37 -51 -56 -77 -86 -95 -112 -118 -133 -138 -157 -169 -172 -186 -201 -206 -218 -234 -248 -259 -267 -278 -289 -304 -313 -329 -340 -347 -356 -377 -378 -396 -406 -413 -425 -445 -450 0
-3 -14 -27 -40 -51 -65 -74 -88 -100 -106 -118 -125 -138 -159 -166 -177 -183 -196 -206 -219 -237 -246 -257 -273 -278 -289 -304 -317 -328 -333 -355 -357 -371 -384 -389 -403 -417 -426 -440 -446 0
-3 -17 -26 -41 -51 -64 -67 -87 -94 -107 -120 -126 -147 -159 -171 -176 -189 -204 -207 -221 -227 -246 -258 -265 -278 -294 -307 -315 -321 -334 -347 -358 -374 -381 -392 -410 -412 -428 -442 -448 0
-3 -19 -25 -38 -51 -64 -71 -79 -99 -106 -120 -135 -138 -159 -166 -176 -192 -195 -210 -222 -230 -239 -254 -266 -285 -288 -302 -320 -324 -333 -349 -357 -373 -386 -396 -403 -413 -432 -445 -453 0
-3 -14 -31 -37 -51 -60 -77 -84 -101 -102 -121 -126 -144 -157 -167 -174 -193 -194 -209 -224 -234 -245 -261 -266 -275 -286 -303 -318 -322 -340 -355 -359 -372 -386 -394 -406 -414 -424 -437 -451 0
-3 -15 -32 -38 -51 -56 -76 -86 -99 -103 -122 -129 -142 -159 -171 -175 -189 -201 -205 -219 -234 -245 -253 -272 -283 -296 -299 -314 -323 -341 -351 -364 -367 -379 -398 -406 -416 -425 -444 -448 0
-3 -16 -32 -39 -52 -66 -71 -79 -91 -110 -120 -129 -141 -158 -162 -182 -188 -203 -213 -220 -235 -241 -251 -273 -274 -292 -298 -310 -332 -341 -349 -361 -371 -381 -393 -411 -421 -434 -436 -447 0
-3 -14 -31 -44 -52 -60 -77 -79 -91 -108 -117 -132 -145 -155 -169 -180 -187 -194 -207 -219 -236 -240 -261 -267 -282 -287 -303 -308 -328 -339 -355 -364 -369 -382 -390 -408 -414 -425 -438 -456 0
-3 -15 -30 -34 -52 -60 -73 -84 -101 -111 -116 -131 -146 -150 -165 -175 -191 -194 -207 -223 -235 -244 -261 -270 -275 -288 -303 -308 -330 -340 -346 -357 -372 -387 -391 -404 -419 -433 -441 -451 0
-3 -14 -26 -44 -53 -57 -72 -86 -96 -109 -124 -130 -146 -149 -165 -181 -193 -199 -206 -223 -230 -246 -250 -268 -278 -295 -302 -317 -325 -342 -349 -361 -368 -383 -392 -407 -423 -431 -435 -450 0
-3 -15 -28 -34 -53 -58 -77 -85 -100 -108 -121 -126 -148 -153 -171 -177 -183 -202 -209 -221 -235 -241 -260 -269 -284 -288 -305 -309 -332 -338 -344 -366 -372 -385 -397 -404 -414 -429 -436 -447 0
-3 -14 -32 -34 -53 -61 -73 -83 -101 -108 -121 -130 -146 -150 -162 -176 -192 -202 -206 -222 -236 -247 -255 -267 -274 -287 -299 -313 -328 -341 -352 -356 -369 -385 -397 -405 -416 -432 -438 -449 0
-3 -15 -31 -39 -53 -56 -74 -84 -101 -111 -116 -130 -144 -150 -170 -176 -189 -195 -207 -224 -231 -244 -258 -267 -283 -288 -304 -317 -324 -340 -344 -357 -376 -378 -390 -406 -416 -433 -443 -448 0
-3 -12 -32 -44 -53 -60 -76 -87 -97 -105 -117 -132 -142 -150 -163 -177 -190 -194 -207 -222 -237 -247 -256 -270 -278 -287 -304 -314 -326 -337 -351 -363 -375 -385 -390 -408 -417 -425 -442 -452 0
-3 -18 -31 -43 -53 -60 -70 -89 -90 -108 -117 -133 -143 -150 -162 -175 -189 -194 -214 -219 -228 -244 -259 -272 -281 -291 -306 -318 -322 -340 -346 -356 -369 -381 -389 -401 -418 -433 -442 -447 0
-3 -14 -28 -34 -53 -60 -77 -89 -99 -106 -118 -134 -143 -150 -167 -174 -192 -203 -208 -219 -234 -245 -257 -262 -274 -292 -297 -314 -322 -338 -354 -363 -367 -386 -392 -401 -417 -434 -444 -450 0
-3 -18 -26 -41 -54 -60 -76 -89 -99 -108 -119 -129 -137 -150 -162 -178 -183 -197 -214 -222 -233 -240 -259 -272 -280 -291 -304 -310 -326 -333 -346 -366 -368 -381 -394 -400 -420 -428 -445 -455 0
-3 -22 -25 -37 -54 -56 -74 -84 -97 -110 -123 -126 -144 -153 -171 -176 -188 -201 -212 -224 -237 -246 -255 -266 -277 -292 -306 -310 -329 -340 -348 -356 -375 -387 -393 -408 -418 -434 -445 -446 0
-3 -12 -29 -39 -54 -58 -76 -84 -91 -110 -117 -132 -148 -153 -169 -180 -187 -197 -205 -222 -233 -245 -261 -269 -278 -293 -307 -312 -327 -339 -349 -357 -371 -386 -398 -403 -414 -424 -445 -449 0
-3 -17 -29 -34 -54 -57 -78 -88 -94 -106 -120 -130 -143 -158 -162 -181 -192 -197 -209 -222 -228 -239 -259 -273 -281 -292 -298 -314 -323 -333 -353 -366 -368 -381 -399 -409 -418 -433 -445 -454 0
-3 -15 -23 -42 -54 -63 -72 -88 -90 -108 -120 -129 -148 -153 -171 -176 -187 -203 -205 -225 -235 -241 -256 -269 -283 -293 -299 -310 -321 -341 -354 -360 -377 -385 -393 -404 -414 -425 -437 -453 0
-3 -22 -26 -41 -54 -62 -72 -87 -91 -107 -116 -134 -137 -154 -164 -179 -188 -204 -213 -216 -230 -243 -258 -271 -285 -290 -298 -309 -321 -343 -351 -361 -369 -378 -398 -401 -413 -431 -437 -455 0
-3 -18 -33 -42 -54 -60 -70 -84 -97 -106 -113 -133 -145 -150 -168 -174 -189 -199 -208 -216 -233 -245 -260 -265 -274 -287 -303 -318 -323 -340 -346 -360 -376 -378 -391 -403 -416 -430 -437 -446 0
-3 -15 -30 -43 -55 -57 -71 -79 -99 -105 -123 -131 -144 -153 -167 -182 -186 -203 -215 -220 -235 -239 -251 -267 -277 -291 -302 -310 -330 -337 -355 -366 -373 -387 -399 -401 -413 -430 -440 -452 0
-3 -18 -29 -36 -55 -59 -76 -79 -95 -108 -124 -126 -145 -155 -165 -175 -192 -196 -212 -220 -228 -239 -259 -271 -285 -287 -306 -311 -330 -335 -351 -356 -377 -380 -398 -411 -421 -426 -442 -447 0
-3 -20 -28 -41 -55 -58 -74 -83 -96 -102 -124 -130 -138 -155 -165 -175 -192 -199 -207 -226 -235 -246 -258 -262 -274 -287 -300 -315 -321 -341 -355 -358 -369 -379 -396 -402 -416 -429 -437 -451 0
-3 -18 -29 -42 -55 -65 -70 -83 -91 -108 -122 -130 -143 -149 -164 -178 -185 -196 -209 -222 -238 -240 -259 -271 -274 -288 -304 -314 -332 -338 -344 -358 -368 -378 -390 -409 -420 -429 -442 -447 0
-3 -19 -25 -40 -55 -65 -74 -80 -96 -102 -119 -134 -141 -153 -164 -182 -185 -200 -209 -223 -238 -247 -256 -262 -274 -290 -306 -320 -323 -342 -348 -362 -372 -387 -397 -410 -423 -430 -441 -451 0
-3 -19 -28 -43 -55 -60 -72 -79 -91 -105 -121 -134 -141 -154 -171 -174 -190 -194 -209 -224 -237 -244 -257 -267 -278 -295 -298 -318 -326 -339 -350 -366 -377 -388 -396 -402 -416 -424 -441 -451 0
-4 -12 -24 -43 -53 -62 -74 -82 -95 -108 -119 -136 -146 -150 -160 -176 -191 -198 -210 -223 -237 -246 -254 -268 -281 -287 -298 -318 -330 -341 -351 -360 -376 -383 -390 -402 -415 -433 -442 -448 0
-4 -12 -23 -44 -49 -63 -75 -81 -97 -111 -115 -134 -144 -154 -167 -173 -191 -200 -205 -219 -232 -248 -255 -267 -285 -288 -303 -319 -331 -340 -355 -361 -373 -384 -392 -408 -421 -425 -439 -450 0
-4 -12 -23 -42 -55 -65 -74 -82 -95 -110 -120 -127 -142 -155 -167 -179 -186 -197 -205 -225 -234 -247 -256 -273 -276 -292 -297 -314 -328 -336 -354 -360 -375 -387 -393 -411 -417 -425 -437 -450 0
-4 -12 -23 -39 -49 -63 -76 -82 -98 -108 -114 -136 -147 -157 -165 -175 -187 -202 -214 -217 -227 -248 -258 -266 -285 -288 -303 -320 -330 -336 -346 -366 -372 -378 -399 -404 -421 -433 -445 -446 0
-4 -12 -30 -40 -54 -60 -68 -87 -93 -108 -119 -126 -146 -159 -164 -173 -192 -201 -205 -219 -231 -249 -259 -267 -282 -296 -303 -312 -325 -340 -354 -361 -369 -383 -391 -405 -413 -426 -435 -453 0
-4 -16 -24 -42 -47 -66 -71 -85 -90 -110 -124 -132 -138 -156 -168 -177 -191 -195 -208 -223 -229 -239 -254 -273 -282 -287 -305 -320 -324 -341 -351 -356 -374 -379 -395 -407 -417 -426 -442 -449 0
-4 -16 -33 -35 -50 -56 -73 -81 -97 -111 -121 -126 -145 -158 -160 -179 -185 -203 -213 -220 -232 -240 -256 -272 -285 -287 -306 -311 -326 -339 -345 -365 -377 -380 -398 -409 -415 -430 -443 -456 0
-4 -16 -33 -35 -45 -65 -73 -87 -96 -110 -113 -127 -143 -158 -169 -172 -185 -199 -206 -222 -232 -246 -256 -272 -276 -291 -306 -311 -326 -339 -345 -365 -374 -387 -391 -408 -416 -430 -441 -455 0
-4 -16 -33 -40 -51 -63 -77 -80 -100 -104 -118 -127 -137 -157 -160 -180 -185 -195 -215 -223 -232 -248 -256 -271 -280 -296 -297 -316 -324 -338 -350 -363 -374 -379 -397 -401 -414 -432 -443 -450 0
-4 -16 -28 -42 -51 -56 -77 -84 -99 -110 -114 -136 -140 -150 -167 -173 -185 -203 -212 -221 -237 -239 -255 -266 -275 -290 -304 -310 -330 -334 -350 -363 -371 -383 -392 -404 -415 -434 -435 -448 0
-4 -16 -31 -34 -50 -65 -69 -89 -91 -110 -114 -131 -144 -156 -167 -173 -189 -197 -215 -225 -227 -240 -260 -266 -280 -296 -303 -318 -321 -339 -351 -366 -369 -381 -394 -403 -422 -424 -444 -450 0
-4 -16 -33 -34 -47 -65 -73 -84 -92 -109 -123 -126 -143 -157 -166 -175 -184 -194 -214 -220 -238 -246 -251 -272 -278 -291 -298 -318 -328 -343 -355 -365 -368 -381 -391 -409 -420 -424 -442 -451 0
-4 -16 -23 -42 -51 -56 -75 -84 -98 -104 -121 -135 -139 -159 -166 -182 -184 -197 -206 -222 -234 -239 -259 -273 -278 -290 -298 -314 -329 -342 -351 -359 -376 -387 -398 -403 -416 -425 -445 -449 0
-4 -17 -31 -38 -46 -63 -69 -89 -90 -110 -120 -126 -147 -155 -166 -173 -192 -203 -209 -222 -238 -239 -251 -265 -283 -286 -307 -317 -325 -343 -352 -361 -368 -381 -392 -408 -423 -427 -440 -452 0
-4 -17 -28 -43 -49 -57 -68 -87 -90 -104 -123 -131 -145 -159 -163 -179 -190 -194 -213 -221 -232 -248 -251 -273 -276 -286 -298 -312 -331 -334 -352 -359 -373 -388 -391 -411 -419 -424 -444 -449 0
-4 -17 -32 -39 -49 -57 -68 -89 -100 -109 -113 -132 -140 -157 -168 -173 -183 -203 -209 -221 -236 -249 -251 -265 -278 -296 -303 -316 -325 -337 -352 -361 -375 -386 -396 -405 -414 -427 -439 -452 0
-4 -17 -24 -35 -55 -60 -76 -79 -91 -109 -124 -132 -145 -155 -163 -179 -190 -202 -215 -224 -237 -240 -256 -263 -274 -287 -306 -315 -328 -333 -355 -364 -370 -382 -397 -411 -422 -430 -436 -453 0
-4 -18 -24 -41 -54 -60 -71 -82 -97 -112 -123 -133 -137 -150 -170 -180 -184 -203 -212 -219 -228 -242 -255 -265 -281 -291 -304 -316 -321 -334 -347 -360 -370 -381 -393 -407 -420 -429 -439 -446 0
-4 -18 -27 -35 -54 -56 -71 -80 -99 -112 -122 -134 -143 -151 -165 -173 -187 -203 -213 -226 -235 -241 -251 -266 -284 -289 -302 -310 -330 -342 -354 -357 -377 -385 -389 -411 -413 -432 -439 -446 0
-4 -18 -31 -44 -45 -63 -69 -88 -90 -107 -119 -135 -142 -151 -164 -175 -186 -202 -211 -222 -238 -247 -252 -262 -284 -296 -306 -312 -323 -342 -351 -359 -372 -382 -391 -410 -423 -431 -441 -448 0
-4 -18 -24 -38 -53 -66 -74 -79 -100 -104 -124 -131 -138 -154 -164 -173 -186 -195 -215 -225 -227 -245 -259 -271 -282 -289 -302 -318 -332 -341 -353 -357 -367 -386 -390 -407 -415 -424 -442 -446 0
-4 -18 -23 -38 -53 -56 -74 -85 -100 -111 -114 -128 -148 -154 -170 -173 -186 -202 -206 -226 -235 -244 -260 -267 -278 -289 -307 -319 -326 -340 -344 -363 -376 -384 -392 -408 -416 -424 -439 -448 0
-4 -18 -27 -42 -52 -57 -68 -89 -90 -110 -124 -128 -142 -155 -170 -179 -187 -197 -213 -224 -229 -243 -256 -273 -275 -286 -305 -320 -328 -336 -350 -357 -374 -382 -391 -400 -421 -427 -437 -449 0
-4 -19 -27 -40 -46 -64 -67 -84 -99 -111 -115 -131 -138 -159 -166 -176 -183 -198 -206 -222 -231 -248 -252 -273 -280 -296 -301 -318 -323 -337 -344 -362 -370 -384 -393 -400 -423 -428 -443 -454 0
-4 -19 -27 -40 -50 -64 -68 -82 -101 -111 -113 -126 -143 -156 -171 -172 -185 -201 -214 -225 -234 -243 -257 -263 -278 -292 -306 -312 -332 -340 -344 -358 -375 -378 -391 -409 -420 -429 -436 -456 0
-4 -19 -28 -38 -52 -65 -78 -82 -90 -103 -114 -134 -142 -155 -171 -182 -183 -197 -209 -224 -236 -245 -255 -268 -276 -292 -300 -319 -322 -335 -347 -360 -376 -379 -389 -410 -422 -432 -439 -454 0
-4 -20 -23 -43 -49 -63 -78 -86 -92 -104 -118 -125 -145 -155 -163 -179 -183 -202 -210 -216 -238 -245 -258 -272 -276 -290 -298 -308 -331 -336 -351 -365 -369 -381 -392 -408 -422 -424 -435 -448 0
-4 -20 -23 -44 -54 -60 -69 -85 -92 -108 -120 -133 -137 -157 -170 -173 -188 -201 -206 -219 -231 -244 -259 -273 -278 -289 -307 -316 -329 -338 -347 -366 -367 -381 -393 -402 -423 -429 -443 -450 0
-4 -20 -27 -40 -50 -56 -77 -89 -93 -103 -114 -133 -143 -157 -170 -180 -187 -195 -209 -217 -238 -245 -258 -266 -277 -289 -302 -317 -330 -333 -355 -358 -369 -383 -390 -408 -414 -424 -438 -446 0
-4 -20 -27 -34 -46 -61 -78 -82 -91 -108 -120 -133 -147 -157 -163 -173 -192 -198 -211 -220 -236 -246 -250 -273 -275 -289 -307 -310 -330 -341 -347 -357 -367 -384 -394 -402 -423 -434 -445 -452 0
-4 -20 -27 -40 -53 -66 -77 -80 -96 -109 -115 -131 -139 -149 -165 -172 -189 -198 -206 -226 -236 -246 -252 -265 -280 -291 -302 -312 -323 -339 -344 -358 -375 -383 -391 -410 -415 -424 -436 -447 0
-4 -20 -27 -34 -53 -62 -78 -80 -92 -104 -119 -135 -142 -156 -171 -182 -189 -197 -205 -217 -232 -243 -259 -269 -280 -296 -299 -310 -329 -339 -351 -365 -376 -387 -398 -403 -422 -425 -445 -453 0
-4 -20 -28 -34 -45 -65 -69 -88 -95 -112 -119 -133 -139 -154 -164 -182 -184 -201 -209 -226 -235 -239 -259 -262 -281 -290 -303 -309 -327 -335 -353 -366 -370 -383 -393 -408 -419 -425 -445 -453 0
-4 -20 -29 -35 -54 -60 -75 -89 -97 -103 -118 -125 -144 -151 -171 -177 -192 -200 -208 -219 -236 -245 -254 -270 -276 -293 -297 -311 -331 -336 -348 -357 -372 -384 -391 -400 -420 -434 -438 -449 0
-4 -20 -29 -34 -49 -66 -68 -88 -91 -104 -120 -135 -142 -155 -171 -180 -192 -194 -212 -220 -231 -243 -256 -269 -276 -293 -300 -310 -326 -334 -347 -356 -373 -383 -393 -410 -422 -425 -437 -456 0
-4 -20 -33 -38 -52 -57 -75 -85 -98 -104 -124 -127 -142 -149 -160 -179 -187 -201 -206 -219 -231 -249 -259 -267 -278 -289 -307 -316 -330 -334 -347 -360 -373 -388 -397 -407 -421 -429 -435 -451 0
-4 -21 -24 -44 -49 -63 -75 -80 -98 -108 -115 -125 -146 -155 -171 -175 -189 -199 -205 -224 -229 -246 -258 -267 -279 -291 -306 -320 -321 -340 -347 -357 -374 -385 -392 -405 -416 -433 -443 -447 0
-4 -21 -24 -44 -53 -62 -67 -84 -99 -107 -115 -126 -146 -155 -167 -173 -186 -197 -214 -216 -238 -245 -250 -268 -280 -291 -306 -313 -322 -342 -355 -362 -367 -386 -392 -410 -417 -427 -438 -447 0
-4 -21 -29 -34 -49 -57 -71 -86 -100 -112 -114 -131 -140 -157 -164 -175 -186 -194 -213 -223 -229 -240 -260 -267 -285 -288 -307 -314 -325 -340 -354 -358 -368 -384 -399 -408 -417 -432 -442 -450 0
-4 -21 -30 -42 -49 -56 -74 -80 -101 -104 -119 -132 -142 -151 -163 -178 -187 -200 -214 -226 -228 -242 -259 -269 -276 -287 -299 -317 -326 -339 -354 -361 -369 -387 -398 -407 -413 -425 -439 -446 0
-4 -22 -32 -40 -47 -60 -68 -88 -97 -103 -118 -125 -146 -156 -171 -182 -189 -203 -209 -223 -232 -241 -259 -263 -280 -293 -298 -312 -323 -341 -349 -357 -374 -378 -391 -400 -416 -427 -440 -447 0
-5 -12 -30 -40 -50 -66 -77 -82 -97 -109 -114 -134 -138 -152 -168 -174 -193 -203 -208 -219 -236 -245 -250 -268 -280 -291 -302 -315 -332 -335 -346 -360 -375 -378 -391 -405 -423 -427 -444 -451 0
-5 -12 -24 -40 -52 -66 -77 -82 -96 -110 -116 -134 -138 -155 -168 -173 -191 -196 -210 -219 -227 -245 -257 -269 -285 -287 -305 -316 -327 -339 -349 -363 -377 -381 -392 -400 -422 -427 -444 -448 0
-5 -12 -29 -41 -45 -66 -69 -84 -94 -111 -119 -127 -144 -158 -162 -176 -191 -204 -211 -220 -229 -246 -257 -273 -274 -287 -299 -318 -323 -339 -355 -366 -370 -381 -391 -400 -415 -433 -441 -448 0
-5 -12 -30 -44 -52 -58 -68 -84 -93 -111 -119 -132 -138 -158 -162 -179 -191 -204 -205 -221 -233 -249 -252 -270 -280 -290 -307 -312 -323 -334 -346 -361 -375 -388 -396 -409 -415 -428 -441 -451 0
-5 -13 -32 -40 -52 -56 -71 -88 -101 -103 -119 -129 -139 -158 -168 -176 -183 -198 -214 -220 -228 -249 -257 -263 -281 -295 -298 -317 -322 -339 -352 -360 -371 -381 -394 -403 -420 -426 -438 -455 0
-5 -13 -33 -43 -50 -57 -68 -87 -94 -110 -119 -125 -144 -158 -164 -172 -188 -202 -215 -217 -233 -247 -257 -262 -284 -292 -307 -312 -327 -336 -346 -366 -375 -378 -397 -400 -415 -429 -436 -450 0
-5 -13 -31 -34 -50 -63 -70 -89 -97 -110 -120 -126 -147 -151 -164 -176 -184 -203 -215 -222 -236 -245 -251 -270 -284 -292 -307 -312 -325 -338 -346 -366 -368 -386 -389 -406 -415 -428 -444 -450 0
-5 -13 -23 -44 -50 -63 -76 -81 -97 -105 -124 -125 -144 -157 -167 -181 -184 -194 -208 -219 -237 -249 -256 -262 -280 -289 -303 -311 -331 -342 -351 -356 -375 -380 -399 -408 -418 -427 -442 -450 0
-5 -13 -31 -34 -52 -66 -70 -80 -98 -110 -118 -127 -147 -155 -160 -177 -191 -201 -213 -226 -233 -240 -261 -267 -282 -291 -298 -308 -331 -336 -352 -357 -377 -381 -391 -402 -418 -433 -445 -449 0
-5 -13 -23 -43 -53 -62 -78 -85 -99 -108 -123 -129 -139 -149 -164 -176 -184 -203 -206 -223 -235 -249 -250 -267 -283 -295 -302 -312 -324 -341 -347 -360 -374 -382 -391 -409 -420 -430 -444 -448 0
-5 -13 -31 -43 -45 -66 -68 -84 -94 -109 -113 -131 -144 -157 -164 -176 -188 -201 -205 -217 -238 -246 -261 -271 -275 -296 -299 -318 -329 -336 -344 -362 -370 -386 -390 -401 -422 -427 -437 -452 0
-5 -17 -25 -41 -55 -63 -68 -79 -93 -111 -120 -134 -138 -155 -165 -173 -191 -195 -205 -225 -230 -249 -258 -268 -283 -286 -307 -316 -329 -334 -350 -364 -375 -388 -396 -403 -412 -431 -445 -454 0
-5 -17 -28 -35 -52 -65 -75 -81 -100 -103 -116 -125 -143 -159 -161 -182 -186 -194 -215 -216 -236 -242 -259 -268 -281 -292 -300 -311 -332 -341 -354 -357 -369 -382 -389 -400 -422 -434 -435 -452 0
-5 -17 -24 -39 -52 -64 -67 -82 -98 -110 -116 -135 -148 -150 -162 -182 -188 -194 -206 -222 -236 -246 -260 -263 -279 -294 -305 -315 -322 -336 -348 -362 -372 -388 -399 -404 -417 -431 -435 -455 0
-5 -17 -25 -34 -46 -64 -77 -85 -99 -103 -122 -132 -140 -159 -171 -178 -183 -201 -208 -218 -235 -243 -252 -270 -284 -288 -301 -320 -322 -343 -346 -364 -372 -384 -396 -405 -420 -434 -445 -449 0
-5 -17 -32 -35 -53 -57 -72 -81 -90 -109 -116 -132 -148 -158 -171 -179 -186 -204 -211 -218 -229 -242 -259 -271 -274 -289 -307 -309 -325 -339 -345 -356 -370 -379 -398 -407 -417 -431 -438 -456 0
-5 -17 -33 -43 -47 -63 -70 -80 -92 -110 -123 -132 -143 -149 -161 -178 -189 -203 -205 -226 -236 -243 -251 -270 -278 -296 -301 -314 -330 -337 -352 -363 -370 -388 -396 -406 -414 -428 -439 -446 0
-5 -18 -24 -43 -55 -58 -76 -87 -91 -110 -113 -128 -142 -155 -169 -180 -187 -194 -211 -216 -229 -243 -261 -264 -282 -295 -300 -309 -332 -341 -352 -362 -371 -382 -393 -404 -418 -432 -444 -448 0
-5 -18 -25 -34 -52 -64 -71 -82 -97 -112 -124 -127 -145 -150 -168 -174 -183 -198 -214 -219 -228 -244 -252 -267 -282 -294 -297 -318 -321 -334 -353 -362 -370 -384 -399 -407 -420 -428 -439 -454 0
-5 -18 -29 -43 -50 -57 -76 -79 -92 -110 -115 -129 -148 -155 -169 -173 -183 -196 -212 -219 -237 -245 -251 -270 -280 -293 -306 -313 -322 -333 -355 -361 -369 -381 -393 -408 -417 -426 -440 -447 0
-5 -18 -33 -42 -47 -56 -75 -85 -99 -105 -124 -127 -142 -150 -168 -179 -186 -198 -210 -224 -228 -239 -252 -264 -281 -287 -297 -318 -327 -343 -351 -360 -375 -382 -390 -401 -415 -431 -443 -447 0
-5 -19 -23 -43 -52 -66 -70 -79 -98 -108 -115 -134 -143 -151 -162 -173 -187 -203 -209 -222 -237 -240 -256 -269 -285 -289 -302 -319 -332 -338 -345 -366 -373 -387 -391 -411 -419 -431 -437 -449 0
-5 -19 -24 -43 -47 -57 -71 -87 -94 -102 -120 -136 -143 -158 -160 -176 -187 -204 -207 -222 -232 -249 -260 -262 -281 -296 -304 -308 -330 -338 -354 -358 -373 -383 -392 -407 -413 -428 -442 -454 0
-5 -19 -24 -34 -45 -64 -71 -85 -94 -109 -124 -128 -144 -159 -170 -174 -186 -201 -208 -226 -229 -245 -255 -268 -275 -287 -301 -316 -327 -342 -355 -356 -370 -384 -392 -407 -415 -431 -439 -450 0
-5 -19 -25 -44 -46 -56 -69 -84 -97 -111 -120 -126 -146 -156 -164 -172 -186 -201 -214 -218 -235 -249 -261 -263 -275 -293 -304 -311 -321 -337 -345 -360 -377 -382 -391 -403 -413 -432 -438 -453 0
-5 -19 -28 -42 -54 -56 -72 -87 -93 -103 -118 -129 -139 -159 -162 -177 -193 -195 -209 -221 -237 -239 -258 -263 -282 -288 -298 -309 -325 -333 -352 -366 -372 -383 -397 -404 -419 -425 -438 -453 0
-5 -19 -28 -39 -55 -64 -69 -80 -92 -108 -124 -133 -137 -152 -162 -182 -189 -203 -206 -220 -233 -239 -258 -267 -285 -290 -297 -320 -325 -337 -346 -361 -376 -387 -399 -410 -413 -425 -439 -453 0
-5 -19 -28 -43 -47 -56 -76 -87 -97 -103 -118 -136 -139 -152 -169 -177 -188 -204 -207 -219 -227 -242 -251 -269 -282 -295 -297 -312 -325 -342 -346 -366 -372 -383 -391 -400 -412 -426 -444 -449 0
-5 -19 -28 -34 -46 -65 -72 -82 -96 -109 -123 -126 -148 -152 -162 -182 -186 -200 -214 -221 -236 -239 -251 -273 -280 -289 -307 -310 -330 -343 -349 -358 -373 -382 -389 -403 -423 -434 -436 -452 0
-5 -19 -32 -34 -52 -61 -68 -82 -91 -105 -118 -132 -148 -158 -170 -177 -191 -195 -208 -218 -233 -249 -257 -267 -276 -286 -298 -313 -327 -337 -347 -357 -375 -378 -396 -401 -418 -431 -438 -454 0
-5 -20 -23 -43 -50 -56 -68 -82 -97 -109 -116 -136 -144 -157 -171 -176 -184 -201 -210 -218 -237 -239 -256 -270 -278 -294 -305 -320 -325 -337 -346 -362 -367 -384 -396 -401 -416 -427 -439 -452 0
-5 -20 -24 -34 -53 -62 -78 -87 -94 -111 -119 -128 -142 -150 -167 -174 -186 -198 -205 -217 -234 -248 -257 -267 -275 -295 -300 -313 -329 -339 -347 -362 -368 -387 -395 -404 -417 -433 -436 -453 0
-5 -20 -24 -44 -53 -58 -67 -80 -93 -111 -119 -132 -142 -156 -171 -177 -190 -194 -207 -219 -232 -246 -261 -263 -282 -287 -299 -316 -330 -341 -354 -356 -377 -388 -396 -406 -417 -427 -438 -449 0
-5 -20 -29 -35 -55 -65 -70 -84 -92 -110 -113 -132 -143 -150 -165 -177 -190 -202 -206 -217 -227 -248 -253 -266 -282 -286 -300 -312 -328 -343 -353 -357 -370 -384 -398 -400 -423 -429 -439 -454 0
-5 -20 -33 -39 -46 -63 -75 -79 -96 -104 -124 -126 -144 -152 -162 -176 -193 -204 -210 -216 -236 -239 -257 -267 -283 -288 -303 -320 -325 -343 -346 -362 -375 -380 -396 -409 -420 -424 -445 -454 0
-5 -20 -33 -39 -47 -65 -70 -81 -90 -108 -122 -126 -144 -156 -167 -172 -184 -196 -210 -222 -233 -242 -251 -273 -284 -293 -307 -312 -323 -336 -354 -358 -373 -387 -398 -400 -415 -430 -442 -447 0
-5 -20 -33 -36 -45 -65 -72 -82 -98 -110 -114 -125 -142 -156 -160 -177 -186 -202 -206 -222 -236 -248 -253 -273 -278 -296 -302 -312 -326 -341 -353 -366 -371 -382 -391 -410 -416 -430 -440 -446 0
-5 -21 -24 -40 -55 -64 -70 -87 -96 -102 -122 -126 -140 -155 -166 -177 -184 -195 -213 -219 -227 -247 -253 -268 -285 -294 -298 -314 -322 -336 -349 -362 -377 -379 -398 -409 -423 -430 -438 -456 0
-5 -21 -25 -34 -45 -62 -71 -89 -92 -104 -123 -133 -145 -155 -167 -181 -183 -195 -212 -218 -233 -244 -256 -263 -285 -290 -302 -310 -322 -341 -354 -358 -367 -381 -393 -411 -420 -424 -442 -449 0
-5 -21 -25 -34 -52 -61 -78 -81 -93 -108 -122 -134 -144 -150 -164 -180 -189 -203 -205 -221 -229 -240 -258 -264 -279 -289 -301 -309 -321 -341 -351 -364 -369 -384 -398 -407 -415 -425 -442 -447 0
-5 -21 -25 -44 -51 -62 -74 -79 -96 -104 -122 -126 -139 -158 -161 -172 -189 -195 -214 -219 -232 -244 -259 -267 -285 -289 -298 -310 -329 -339 -349 -356 -376 -381 -398 -409 -413 -429 -439 -456 0
-5 -21 -28 -35 -51 -63 -76 -79 -96 -105 -122 -126 -148 -151 -171 -174 -189 -199 -214 -219 -232 -245 -258 -270 -276 -287 -298 -317 -331 -339 -345 -360 -372 -385 -390 -401 -416 -424 -441 -446 0
-5 -21 -30 -44 -45 -64 -74 -82 -96 -105 -113 -131 -144 -151 -167 -177 -193 -196 -211 -219 -228 -247 -252 -268 -278 -287 -307 -312 -324 -343 -351 -363 -372 -384 -394 -409 -423 -434 -435 -456 0
-5 -21 -33 -40 -51 -57 -68 -79 -93 -109 -122 -129 -142 -158 -161 -180 -193 -203 -212 -219 -232 -239 -256 -262 -280 -292 -299 -310 -329 -338 -350 -357 -377 -381 -398 -403 -417 -432 -444 -453 0
-5 -22 -31 -34 -46 -65 -71 -85 -99 -110 -120 -128 -138 -152 -162 -177 -188 -202 -212 -224 -228 -243 -261 -269 -285 -288 -300 -316 -326 -341 -347 -356 -370 -380 -393 -406 -422 -429 -436 -450 0
-5 -22 -24 -42 -45 -58 -72 -87 -96 -111 -113 -132 -140 -157 -168 -176 -184 -198 -214 -221 -230 -249 -255 -269 -275 -293 -304 -313 -329 -334 -348 -358 -371 -385 -395 -403 -420 -429 -435 -452 0
-5 -22 -29 -36 -51 -56 -77 -82 -100 -103 -118 -127 -144 -157 -162 -176 -192 -199 -211 -216 -236 -246 -252 -271 -285 -295 -302 -310 -322 -337 -354 -358 -371 -380 -399 -408 -418 -432 -435 -453 0
-5 -22 -23 -43 -52 -61 -73 -84 -92 -104 -123 -129 -137 -157 -168 -176 -184 -195 -207 -223 -238 -242 -256 -271 -280 -294 -299 -318 -321 -338 -346 -362 -369 -380 -393 -408 -419 -428 -442 -454 0
-6 -12 -24 -36 -52 -65 -73 -88 -97 -106 -123 -128 -148 -150 -165 -175 -184 -196 -210 -223 -227 -248 -260 -268 -283 -294 -299 -316 -330 -334 -350 -359 -370 -388 -398 -406 -419 -431 -444 -454 0
-6 -12 -31 -35 -53 -66 -73 -83 -92 -109 -116 -135 -143 -150 -166 -177 -189 -202 -205 -218 -233 -247 -252 -265 -284 -289 -297 -311 -328 -343 -352 -360 -368 -382 -391 -411 -412 -433 -435 -448 0
-6 -12 -30 -35 -54 -61 -73 -83 -101 -103 -121 -134 -139 -152 -165 -180 -183 -197 -215 -223 -235 -244 -253 -271 -284 -288 -305 -316 -324 -338 -347 -361 -373 -379 -398 -407 -422 -432 -439 -446 0
-6 -12 -31 -43 -51 -62 -68 -82 -101 -103 -117 -133 -145 -152 -163 -177 -191 -194 -213 -223 -230 -249 -256 -268 -284 -288 -302 -313 -332 -342 -354 -358 -371 -378 -391 -408 -419 -430 -444 -454 0
-6 -12 -31 -36 -46 -61 -77 -88 -98 -103 -115 -136 -141 -156 -170 -179 -191 -197 -215 -220 -233 -246 -258 -264 -276 -292 -298 -316 -323 -337 -347 -360 -376 -381 -390 -402 -418 -433 -441 -446 0
-6 -12 -25 -40 -48 -66 -74 -85 -100 -111 -114 -128 -138 -157 -161 -172 -190 -197 -213 -225 -234 -245 -260 -273 -279 -289 -297 -317 -332 -340 -352 -360 -375 -388 -394 -403 -417 -424 -437 -449 0
-6 -12 -30 -35 -48 -63 -77 -85 -98 -112 -116 -126 -139 -158 -163 -177 -183 -202 -215 -218 -229 -247 -256 -272 -282 -291 -305 -309 -323 -337 -346 -366 -371 -381 -394 -410 -421 -428 -443 -452 0
-6 -12 -30 -43 -52 -59 -78 -80 -92 -105 -120 -128 -143 -158 -160 -179 -193 -202 -209 -218 -237 -245 -255 -271 -277 -290 -298 -319 -332 -337 -345 -361 -376 -383 -391 -402 -416 -433 -441 -451 0
-6 -12 -30 -43 -52 -58 -76 -82 -98 -103 -117 -131 -139 -159 -161 -178 -192 -199 -205 -226 -233 -246 -258 -265 -282 -289 -301 -309 -325 -341 -345 -358 -376 -384 -394 -404 -415 -428 -437 -456 0
-6 -12 -28 -36 -52 -61 -77 -88 -100 -106 -114 -128 -138 -159 -168 -179 -185 -201 -205 -217 -233 -249 -255 -264 -281 -290 -300 -320 -323 -334 -346 -364 -371 -380 -396 -402 -418 -433 -435 -451 0
-6 -12 -26 -35 -52 -64 -72 -81 -94 -111 -120 -126 -145 -159 -170 -178 -193 -196 -212 -220 -229 -243 -254 -269 -283 -287 -307 -318 -323 -341 -346 -360 -376 -381 -389 -409 -423 -431 -441 -456 0
-6 -13 -29 -42 -46 -65 -70 -80 -101 -110 -120 -131 -141 -149 -160 -176 -187 -200 -214 -226 -236 -240 -254 -270 -281 -290 -304 -316 -330 -336 -344 -358 -377 -379 -398 -404 -417 -432 -442 -452 0
-6 -13 -29 -39 -55 -58 -75 -79 -100 -103 -124 -132 -141 -151 -163 -173 -190 -203 -213 -225 -234 -245 -257 -262 -285 -290 -306 -316 -325 -337 -355 -361 -375 -378 -399 -410 -417 -431 -442 -453 0
-6 -13 -28 -43 -55 -58 -75 -81 -100 -102 -121 -131 -141 -150 -166 -173 -191 -195 -213 -219 -237 -244 -250 -265 -282 -294 -305 -315 -325 -333 -348 -364 -372 -382 -397 -404 -421 -433 -439 -456 0
-6 -13 -28 -37 -52 -65 -75 -81 -100 -112 -116 -125 -143 -150 -167 -177 -183 -197 -212 -225 -229 -243 -260 -262 -281 -291 -298 -319 -321 -343 -352 -360 -368 -378 -399 -400 -420 -429 -442 -455 0
-6 -13 -33 -36 -54 -56 -68 -83 -99 -110 -119 -132 -146 -150 -165 -173 -183 -203 -210 -223 -231 -240 -261 -270 -282 -293 -303 -314 -322 -337 -352 -359 -376 -387 -390 -408 -414 -433 -441 -455 0
-6 -13 -30 -43 -45 -58 -78 -81 -97 -106 -121 -125 -144 -158 -163 -177 -183 -202 -211 -222 -237 -249 -260 -262 -276 -287 -299 -319 -324 -333 -350 -363 -376 -381 -399 -402 -413 -424 -439 -448 0
-6 -13 -30 -44 -51 -65 -70 -83 -98 -103 -114 -133 -137 -158 -168 -179 -184 -194 -209 -220 -238 -241 -256 -271 -275 -289 -307 -309 -324 -336 -349 -356 -373 -385 -399 -400 -418 -427 -441 -450 0
-6 -13 -28 -37 -46 -58 -77 -89 -91 -110 -123 -131 -137 -156 -170 -180 -191 -199 -209 -222 -238 -240 -252 -269 -277 -292 -307 -312 -329 -333 -349 -358 -371 -387 -396 -408 -418 -427 -440 -450 0
-6 -13 -30 -39 -55 -59 -76 -87 -91 -111 -113 -127 -144 -152 -168 -179 -191 -195 -205 -219 -231 -249 -258 -267 -280 -293 -307 -312 -321 -339 -354 -361 -370 -388 -395 -407 -416 -426 -436 -454 0
-6 -13 -29 -43 -48 -62 -78 -81 -94 -103 -122 -131 -146 -149 -160 -178 -193 -201 -213 -224 -234 -243 -257 -262 -277 -289 -298 -313 -332 -336 -353 -356 -374 -380 -397 -409 -423 -427 -437 -456 0
-6 -13 -31 -37 -51 -56 -70 -87 -91 -112 -122 -135 -144 -151 -167 -173 -192 -203 -209 -222 -234 -241 -256 -262 -285 -294 -299 -314 -332 -339 -351 -359 -368 -379 -392 -411 -420 -425 -444 -450 0
-6 -13 -23 -36 -46 -59 -77 -87 -97 -102 -120 -136 -145 -158 -160 -180 -187 -203 -209 -222 -237 -249 -254 -262 -281 -290 -298 -320 -329 -342 -347 -365 -367 -385 -392 -411 -416 -425 -442 -451 0
-6 -14 -30 -44 -47 -65 -72 -87 -100 -102 -120 -127 -141 -150 -167 -178 -186 -196 -214 -225 -229 -244 -251 -268 -274 -291 -301 -308 -326 -336 -348 -366 -369 -379 -392 -406 -422 -428 -443 -451 0
-6 -14 -33 -37 -46 -65 -67 -86 -93 -109 -123 -131 -145 -150 -161 -180 -188 -199 -212 -225 -228 -243 -260 -269 -274 -288 -301 -317 -326 -342 -347 -362 -368 -388 -397 -406 -412 -427 -436 -453 0
-6 -14 -32 -41 -45 -64 -78 -79 -99 -106 -119 -128 -144 -151 -167 -177 -186 -204 -212 -218 -228 -247 -252 -267 -285 -293 -300 -312 -323 -334 -355 -363 -371 -378 -391 -410 -416 -430 -442 -448 0
-6 -14 -26 -42 -55 -62 -68 -88 -97 -104 -113 -135 -138 -156 -168 -177 -186 -194 -215 -217 -228 -247 -258 -264 -282 -287 -304 -308 -323 -341 -351 -365 -377 -382 -390 -404 -414 -425 -445 -456 0
-6 -14 -29 -44 -46 -56 -75 -83 -97 -104 -124 -126 -144 -158 -171 -180 -186 -204 -212 -218 -229 -239 -256 -271 -280 -296 -301 -310 -321 -337 -353 -364 -372 -380 -398 -400 -414 -431 -442 -453 0
-6 -18 -33 -42 -51 -58 -75 -83 -91 -104 -121 -127 -147 -149 -161 -179 -186 -195 -215 -220 -231 -245 -259 -271 -274 -287 -297 -311 -327 -342 -348 -360 -377 -387 -390 -405 -415 -426 -443 -448 0
-6 -18 -26 -42 -47 -63 -78 -85 -90 -111 -116 -127 -145 -150 -165 -179 -192 -195 -210 -217 -230 -246 -260 -265 -274 -287 -297 -311 -328 -342 -354 -360 -367 -386 -392 -401 -419 -430 -443 -450 0
-6 -18 -29 -41 -55 -56 -76 -83 -97 -103 -124 -127 -140 -152 -169 -180 -186 -196 -205 -216 -231 -245 -261 -268 -280 -293 -307 -311 -326 -335 -348 -364 -372 -386 -395 -400 -414 -428 -445 -447 0
-6 -18 -29 -43 -47 -61 -70 -81 -90 -103 -122 -134 -141 -159 -160 -175 -189 -204 -213 -221 -233 -244 -253 -262 -285 -289 -298 -320 -331 -335 -351 -356 -371 -381 -399 -402 -415 -432 -442 -450 0
-6 -19 -23 -37 -52 -61 -70 -86 -100 -112 -115 -135 -139 -149 -163 -177 -184 -196 -214 -226 -235 -245 -251 -269 -274 -286 -302 -318 -327 -337 -349 -359 -370 -383 -398 -401 -419 -431 -438 -447 0
-6 -19 -33 -36 -52 -65 -69 -86 -97 -106 -114 -134 -137 -150 -165 -173 -183 -201 -207 -220 -235 -248 -254 -271 -275 -288 -300 -313 -325 -334 -352 -362 -373 -387 -390 -410 -419 -426 -437 -451 0
-6 -19 -26 -40 -45 -58 -76 -82 -97 -112 -124 -125 -139 -156 -161 -175 -193 -204 -212 -224 -233 -239 -255 -269 -275 -295 -302 -310 -325 -334 -346 -364 -373 -378 -395 -410 -418 -431 -445 -453 0
-6 -19 -25 -39 -46 -56 -77 -89 -98 -103 -115 -133 -141 -158 -170 -175 -191 -199 -209 -217 -230 -249 -251 -268 -281 -286 -301 -320 -324 -342 -350 -365 -376 -379 -395 -408 -422 -424 -445 -446 0
-6 -19 -33 -43 -48 -63 -69 -80 -92 -105 -119 -125 -144 -158 -161 -176 -188 -199 -214 -225 -238 -239 -257 -265 -275 -287 -299 -320 -324 -339 -345 -364 -375 -378 -397 -404 -422 -427 -438 -453 0
-6 -19 -24 -43 -52 -61 -67 -83 -98 -103 -115 -129 -146 -159 -166 -175 -193 -196 -210 -225 -227 -243 -251 -268 -276 -287 -302 -311 -321 -337 -352 -366 -372 -386 -392 -409 -419 -428 -438 -447 0
-6 -20 -28 -43 -53 -58 -78 -85 -91 -106 -121 -128 -137 -151 -161 -176 -190 -204 -210 -216 -238 -245 -257 -265 -283 -287 -299 -317 -324 -343 -345 -360 -377 -382 -393 -402 -416 -424 -437 -448 0
-6 -20 -29 -43 -55 -57 -72 -83 -92 -104 -122 -125 -144 -152 -163 -182 -187 -194 -207 -216 -236 -245 -257 -273 -283 -293 -299 -314 -331 -336 -355 -358 -369 -378 -391 -400 -416 -433 -437 -448 0
-6 -21 -29 -35 -55 -59 -67 -88 -100 -105 -114 -132 -143 -150 -161 -180 -187 -203 -209 -222 -228 -239 -256 -269 -277 -286 -301 -314 -326 -337 -351 -364 -370 -386 -390 -410 -418 -433 -442 -451 0
-6 -21 -23 -36 -48 -61 -75 -79 -99 -112 -115 -134 -144 -151 -171 -173 -190 -203 -212 -219 -231 -245 -255 -264 -283 -289 -303 -316 -332 -342 -345 -359 -376 -380 -392 -408 -422 -430 -440 -454 0
-6 -21 -28 -34 -48 -61 -70 -81 -100 -103 -122 -136 -140 -156 -169 -179 -190 -202 -205 -216 -231 -243 -253 -263 -280 -292 -298 -320 -323 -338 -348 -357 -376 -380 -399 -402 -415 -429 -441 -452 0
-6 -21 -33 -36 -46 -64 -69 -85 -91 -106 -121 -125 -144 -157 -167 -178 -186 -197 -215 -218 -234 -240 -250 -271 -276 -288 -300 -309 -329 -336 -354 -364 -370 -388 -398 -402 -416 -425 -442 -446 0
-6 -21 -28 -35 -52 -57 -78 -79 -100 -106 -114 -129 -143 -157 -166 -175 -183 -196 -209 -220 -228 -247 -259 -263 -285 -289 -297 -317 -324 -334 -355 -366 -367 -388 -397 -411 -419 -428 -438 -451 0
-6 -21 -26 -34 -45 -62 -74 -89 -100 -104 -116 -131 -139 -157 -166 -175 -183 -199 -207 -216 -233 -246 -260 -263 -285 -287 -298 -310 -327 -341 -351 -356 -376 -387 -395 -404 -422 -431 -437 -456 0
-6 -21 -30 -34 -47 -58 -78 -85 -92 -106 -121 -126 -144 -158 -163 -177 -188 -200 -213 -226 -228 -239 -260 -264 -276 -287 -299 -311 -327 -341 -345 -366 -367 -380 -398 -402 -423 -430 -444 -454 0
-6 -22 -29 -43 -46 -61 -76 -83 -91 -105 -122 -132 -140 -149 -161 -177 -190 -202 -215 -222 -233 -240 -260 -267 -277 -288 -298 -313 -328 -342 -353 -361 -371 -384 -394 -408 -423 -426 -435 -453 0
-6 -22 -23 -40 -47 -58 -76 -83 -92 -111 -122 -125 -143 -156 -161 -175 -191 -204 -212 -226 -233 -244 -258 -270 -275 -292 -297 -316 -329 -337 -344 -358 -375 -378 -398 -408 -417 -433 -437 -453 0
-6 -22 -28 -42 -48 -57 -75 -81 -94 -102 -124 -128 -143 -156 -168 -177 -193 -200 -206 -218 -229 -247 -254 -269 -279 -295 -297 -309 -326 -341 -348 -366 -374 -378 -398 -407 -420 -425 -444 -451 0
-6 -22 -26 -34 -45 -63 -70 -86 -92 -104 -123 -131 -147 -157 -166 -176 -185 -196 -214 -220 -238 -246 -251 -263 -284 -287 -297 -318 -326 -343 -344 -365 -370 -384 -399 -409 -420 -425 -439 -456 0
-6 -22 -23 -37 -54 -62 -68 -79 -94 -109 -119 -134 -140 -157 -165 -180 -184 -196 -215 -223 -234 -240 -254 -271 -284 -289 -302 -313 -324 -336 -353 -364 -369 -385 -397 -409 -415 -425 -436 -448 0
-6 -22 -26 -40 -51 -58 -77 -87 -93 -110 -114 -125 -138 -158 -169 -177 -184 -195 -212 -221 -237 -246 -253 -265 -279 -286 -305 -314 -329 -334 -347 -360 -374 -381 -391 -405 -423 -431 -435 -456 0
-6 -22 -29 -35 -45 -65 -75 -81 -97 -102 -116 -132 -141 -158 -171 -180 -185 -204 -212 -219 -229 -247 -256 -264 -280 -292 -299 -313 -324 -333 -345 -365 -372 -388 -395 -410 -420 -432 -440 -456 0
-6 -22 -24 -35 -53 -59 -77 -87 -97 -102 -120 -129 -138 -158 -171 -177 -188 -196 -213 -222 -237 -247 -252 -265 -279 -287 -299 -314 -330 -338 -352 -363 -367 -384 -397 -404 -415 -428 -442 -452 0
-7 -21 -27 -36 -53 -56 -68 -83 -91 -104 -120 -133 -148 -158 -171 -172 -189 -198 -211 -220 -229 -241 -260 -264 -283 -289 -307 -310 -324 -341 -354 -356 -371 -384 -398 -407 -418 -426 -444 -455 0
-7 -20 -27 -36 -45 -65 -69 -86 -101 -106 -122 -125 -139 -156 -161 -182 -189 -199 -206 -226 -231 -242 -258 -270 -274 -287 -303 -312 -323 -339 -351 -358 -376 -384 -392 -405 -413 -424 -435 -447 0
-7 -18 -27 -43 -46 -56 -76 -80 -99 -106 -122 -128 -148 -152 -169 -174 -185 -198 -210 -221 -235 -239 -251 -270 -284 -286 -300 -320 -325 -343 -346 -362 -375 -378 -396 -401 -413 -427 -439 -452 0
-7 -12 -27 -35 -53 -57 -73 -81 -101 -111 -116 -133 -141 -158 -170 -173 -191 -200 -215 -218 -232 -246 -254 -267 -280 -292 -305 -312 -323 -341 -354 -361 -377 -388 -395 -407 -418 -432 -442 -450 0
-7 -14 -32 -38 -45 -63 -69 -89 -92 -110 -120 -125 -141 -158 -171 -179 -188 -202 -214 -225 -234 -239 -253 -263 -278 -290 -305 -312 -321 -336 -355 -361 -374 -379 -392 -406 -416 -431 -443 -455 0
-7 -21 -30 -38 -45 -63 -67 -82 -101 -106 -120 -129 -139 -158 -169 -179 -188 -197 -210 -217 -230 -246 -250 -266 -275 -289 -297 -315 -325 -338 -344 -358 -368 -379 -395 -409 -414 -429 -437 -452 0
-7 -15 -32 -38 -45 -66 -73 -79 -99 -104 -122 -134 -139 -152 -170 -179 -190 -195 -214 -218 -231 -244 -259 -267 -285 -288 -300 -316 -326 -339 -353 -356 -370 -381 -396 -401 -413 -426 -435 -448 0
-7 -18 -25 -38 -52 -65 -75 -79 -100 -103 -117 -127 -140 -159 -164 -178 -189 -194 -207 -217 -228 -241 -261 -270 -285 -288 -307 -309 -324 -343 -349 -363 -372 -388 -399 -406 -419 -432 -445 -455 0
-7 -20 -33 -38 -52 -57 -69 -86 -92 -110 -117 -135 -137 -152 -170 -174 -188 -201 -213 -220 -232 -249 -257 -265 -275 -290 -297 -320 -327 -336 -351 -363 -370 -383 -397 -402 -415 -425 -437 -452 0
-7 -21 -30 -38 -52 -64 -70 -89 -98 -103 -115 -125 -141 -151 -169 -177 -184 -195 -208 -221 -236 -246 -253 -265 -282 -291 -299 -320 -323 -336 -351 -366 -370 -385 -395 -411 -416 -427 -438 -449 0
-7 -12 -26 -38 -52 -66 -70 -81 -100 -111 -120 -128 -138 -157 -162 -173 -188 -201 -213 -226 -231 -244 -261 -271 -274 -296 -297 -317 -327 -340 -349 -359 -374 -388 -389 -401 -421 -431 -437 -452 0
-7 -20 -33 -38 -53 -59 -74 -82 -98 -105 -114 -135 -137 -150 -167 -173 -183 -200 -208 -221 -234 -248 -253 -265 -275 -288 -300 -309 -326 -340 -347 -363 -373 -378 -393 -410 -421 -429 -437 -446 0
-7 -15 -30 -38 -55 -58 -74 -82 -98 -102 -123 -127 -147 -150 -166 -174 -183 -195 -213 -224 -237 -244 -252 -268 -277 -295 -301 -314 -326 -335 -354 -363 -370 -384 -393 -411 -413 -426 -439 -454 0
-7 -15 -30 -36 -49 -56 -68 -82 -91 -112 -124 -132 -146 -156 -168 -175 -184 -199 -212 -218 -238 -247 -250 -269 -275 -296 -305 -308 -328 -341 -348 -358 -369 -388 -398 -407 -418 -425 -441 -446 0
-7 -22 -30 -42 -49 -58 -67 -80 -98 -104 -124 -127 -141 -156 -164 -175 -190 -200 -215 -225 -229 -240 -253 -271 -283 -286 -299 -319 -324 -341 -347 -362 -376 -379 -389 -411 -414 -428 -437 -455 0
-7 -19 -33 -43 -49 -63 -70 -86 -92 -106 -115 -134 -137 -150 -162 -173 -183 -200 -206 -223 -237 -247 -255 -265 -281 -287 -300 -318 -326 -340 -345 -366 -373 -382 -389 -403 -421 -430 -441 -446 0
-7 -14 -29 -41 -49 -64 -69 -83 -91 -112 -120 -135 -137 -151 -161 -178 -192 -203 -206 -222 -234 -242 -258 -270 -285 -290 -297 -320 -331 -337 -347 -361 -368 -386 -392 -405 -413 -427 -444 -455 0
-7 -12 -25 -41 -49 -57 -78 -86 -99 -106 -115 -135 -139 -158 -160 -174 -185 -203 -210 -221 -235 -242 -259 -272 -285 -294 -300 -310 -324 -334 -349 -365 -373 -388 -398 -403 -418 -425 -435 -447 0
-7 -14 -28 -44 -45 -60 -76 -83 -92 -111 -115 -133 -137 -157 -167 -181 -184 -195 -207 -225 -232 -239 -256 -273 -280 -291 -304 -310 -326 -333 -348 -366 -368 -380 -394 -400 -415 -432 -443 -452 0
-7 -15 -30 -34 -47 -60 -76 -80 -92 -112 -116 -135 -144 -156 -167 -177 -191 -196 -215 -225 -228 -239 -257 -263 -277 -294 -297 -311 -332 -337 -351 -365 -367 -378 -394 -403 -422 -425 -444 -453 0
-7 -18 -25 -42 -48 -60 -77 -80 -93 -102 -114 -133 -145 -159 -168 -178 -187 -195 -215 -217 -230 -242 -250 -268 -277 -288 -307 -313 -329 -333 -354 -364 -370 -386 -396 -410 -413 -427 -445 -449 0
-7 -18 -32 -44 -47 -60 -76 -79 -91 -109 -117 -127 -145 -152 -162 -181 -188 -200 -205 -225 -234 -240 -259 -265 -285 -293 -298 -310 -329 -337 -347 -360 -367 -381 -393 -401 -423 -431 -439 -447 0
-7 -13 -30 -42 -52 -60 -78 -79 -91 -111 -117 -132 -139 -152 -166 -177 -185 -195 -213 -224 -235 -249 -261 -266 -274 -289 -303 -311 -331 -340 -347 -360 -367 -378 -396 -403 -413 -430 -445 -452 0
-7 -15 -28 -41 -46 -60 -67 -82 -101 -111 -121 -134 -138 -152 -167 -174 -192 -203 -210 -222 -228 -239 -254 -267 -285 -295 -298 -320 -327 -339 -349 -363 -369 -388 -392 -408 -416 -425 -439 -456 0
-7 -15 -30 -35 -55 -60 -76 -80 -98 -109 -113 -127 -147 -152 -166 -175 -191 -196 -210 -225 -238 -239 -251 -268 -283 -286 -307 -312 -329 -343 -350 -358 -375 -388 -389 -403 -417 -432 -436 -455 0
-7 -19 -32 -37 -52 -60 -73 -81 -101 -104 -116 -125 -146 -150 -166 -173 -192 -196 -206 -220 -235 -247 -254 -266 -274 -286 -304 -312 -326 -334 -351 -361 -371 -382 -392 -403 -420 -434 -444 -451 0
-7 -14 -31 -40 -48 -57 -74 -89 -95 -110 -124 -127 -140 -149 -171 -174 -183 -200 -208 -221 -236 -246 -252 -271 -280 -296 -297 -315 -328 -341 -350 -360 -374 -388 -397 -405 -414 -427 -437 -451 0
-7 -13 -26 -43 -46 -64 -70 -80 -95 -112 -121 -125 -144 -157 -166 -173 -183 -198 -214 -226 -228 -246 -254 -272 -280 -291 -306 -318 -322 -340 -353 -356 -377 -381 -389 -411 -414 -433 -442 -451 0
-7 -13 -26 -42 -55 -62 -70 -79 -95 -110 -124 -133 -138 -151 -166 -173 -191 -202 -212 -226 -228 -242 -255 -265 -284 -292 -305 -313 -322 -336 -350 -362 -377 -380 -392 -407 -421 -430 -445 -455 0
-7 -15 -30 -36 -52 -56 -77 -82 -95 -103 -120 -127 -146 -159 -166 -172 -193 -197 -210 -216 -230 -246 -261 -268 -276 -291 -298 -308 -328 -335 -348 -360 -376 -387 -391 -411 -414 -433 -441 -455 0
-7 -15 -23 -35 -55 -58 -67 -87 -95 -111 -122 -132 -139 -158 -169 -175 -189 -194 -211 -218 -229 -244 -261 -270 -275 -288 -305 -315 -327 -341 -346 -364 -367 -385 -393 -406 -417 -425 -445 -453 0
-7 -15 -33 -36 -46 -64 -69 -79 -95 -110 -124 -132 -138 -156 -161 -181 -193 -200 -210 -216 -237 -239 -254 -269 -283 -288 -302 -317 -330 -334 -346 -360 -374 -387 -397 -402 -419 -430 -441 -451 0
-7 -15 -32 -44 -47 -57 -74 -88 -98 -107 -113 -127 -146 -152 -171 -178 -189 -197 -214 -220 -230 -246 -258 -272 -274 -291 -298 -320 -323 -337 -349 -364 -367 -380 -394 -400 -414 -427 -439 -447 0
-7 -19 -25 -44 -54 -59 -73 -87 -93 -107 -113 -126 -146 -151 -171 -178 -190 -198 -214 -222 -230 -248 -255 -263 -277 -288 -298 -313 -332 -343 -353 -361 -374 -379 -391 -404 -419 -431 -435 -454 0
-7 -12 -26 -35 -54 -62 -75 -89 -91 -107 -121 -129 -139 -158 -168 -173 -185 -199 -215 -222 -230 -245 -260 -266 -274 -290 -297 -314 -325 -342 -354 -363 -368 -384 -397 -407 -413 -429 -441 -449 0
-7 -15 -28 -36 -46 -64 -77 -87 -101 -107 -113 -128 -145 -150 -170 -179 -188 -201 -207 -224 -234 -246 -252 -265 -275 -288 -298 -309 -326 -333 -353 -364 -373 -387 -391 -408 -414 -433 -436 -446 0
-7 -21 -23 -37 -47 -64 -74 -88 -98 -107 -113 -129 -148 -151 -162 -173 -189 -203 -211 -220 -238 -241 -258 -270 -275 -290 -307 -312 -323 -336 -351 -363 -372 -384 -399 -407 -417 -434 -441 -455 0
-7 -14 -30 -34 -52 -64 -68 -82 -101 -107 -120 -135 -141 -150 -166 -182 -184 -198 -214 -220 -228 -246 -253 -268 -274 -288 -303 -315 -326 -336 -354 -362 -372 -387 -399 -407 -422 -428 -438 -451 0
-7 -14 -31 -40 -48 -65 -67 -80 -99 -107 -114 -136 -140 -157 -170 -174 -184 -198 -211 -223 -238 -247 -255 -270 -275 -296 -302 -318 -326 -336 -350 -363 -369 -381 -393 -401 -413 -428 -435 -454 0
-7 -12 -26 -43 -46 -64 -73 -82 -94 -103 -121 -130 -148 -157 -167 -172 -185 -198 -215 -217 -237 -245 -260 -264 -280 -293 -306 -314 -324 -338 -355 -363 -369 -381 -394 -408 -422 -426 -442 -448 0
-7 -13 -28 -42 -48 -56 -77 -87 -91 -110 -116 -130 -139 -159 -168 -175 -188 -199 -212 -226 -227 -242 -252 -269 -275 -287 -303 -312 -321 -339 -346 -361 -374 -379 -392 -404 -412 -431 -443 -447 0
-7 -20 -28 -35 -52 -57 -70 -83 -101 -111 -114 -130 -137 -157 -160 -182 -193 -196 -213 -216 -232 -245 -254 -269 -280 -289 -303 -313 -322 -335 -355 -358 -376 -386 -394 -403 -416 -432 -438 -451 0
-7 -14 -23 -37 -55 -56 -73 -81 -100 -109 -115 -130 -147 -157 -171 -180 -184 -203 -207 -220 -232 -248 -256 -269 -274 -288 -303 -313 -327 -336 -355 -356 -374 -387 -393 -406 -422 -431 -437 -450 0
-7 -12 -31 -44 -48 -62 -68 -87 -94 -110 -115 -126 -147 -153 -164 -175 -183 -201 -212 -226 -229 -248 -256 -271 -283 -296 -300 -312 -331 -341 -352 -359 -369 -379 -392 -410 -418 -428 -440 -447 0
-7 -15 -28 -44 -47 -64 -68 -79 -94 -103 -124 -133 -145 -153 -169 -175 -184 -195 -210 -225 -236 -239 -259 -268 -281 -286 -301 -320 -329 -342 -353 -366 -368 -386 -396 -400 -415 -425 -443 -454 0
-7 -15 -23 -41 -54 -56 -76 -82 -101 -109 -116 -132 -139 -153 -170 -179 -184 -195 -210 -224 -231 -245 -259 -269 -285 -286 -299 -316 -327 -339 -353 -360 -376 -384 -393 -401 -412 -431 -435 -448 0
-7 -18 -23 -44 -48 -63 -68 -82 -100 -105 -122 -135 -137 -153 -168 -181 -189 -194 -211 -217 -238 -241 -251 -266 -280 -289 -303 -308 -328 -343 -349 -364 -369 -382 -393 -402 -416 -429 -443 -456 0
-7 -18 -26 -35 -55 -64 -68 -87 -94 -110 -113 -126 -147 -153 -171 -179 -185 -194 -208 -221 -237 -246 -260 -263 -280 -286 -306 -318 -332 -334 -349 -361 -375 -383 -391 -404 -412 -431 -441 -456 0
-8 -20 -23 -38 -54 -59 -69 -89 -94 -108 -122 -131 -139 -149 -161 -175 -188 -201 -208 -216 -233 -244 -250 -273 -283 -286 -299 -316 -329 -336 -350 -358 -375 -387 -398 -404 -415 -433 -437 -446 0
-8 -14 -23 -38 -53 -59 -69 -89 -100 -108 -124 -127 -143 -149 -171 -174 -190 -199 -214 -221 -233 -246 -250 -266 -276 -286 -305 -316 -329 -339 -350 -360 -374 -384 -392 -404 -419 -431 -435 -447 0
-8 -19 -23 -35 -54 -59 -71 -85 -94 -107 -123 -136 -137 -151 -165 -175 -192 -196 -215 -223 -234 -240 -260 -266 -276 -288 -301 -316 -324 -342 -347 -361 -376 -381 -394 -403 -423 -434 -436 -446 0
-8 -16 -23 -41 -46 -65 -70 -89 -93 -102 -117 -131 -146 -154 -164 -182 -191 -196 -215 -216 -227 -245 -259 -269 -276 -294 -300 -313 -323 -342 -351 -365 -370 -385 -394 -403 -422 -425 -436 -449 0
-8 -21 -23 -37 -46 -58 -67 -88 -100 -112 -115 -130 -142 -155 -166 -180 -191 -199 -209 -216 -238 -241 -250 -264 -276 -290 -302 -310 -325 -341 -350 -364 -367 -385 -395 -405 -420 -427 -438 -451 0
-8 -17 -23 -35 -54 -56 -68 -83 -95 -110 -123 -129 -148 -155 -161 -181 -186 -197 -205 -226 -236 -248 -251 -267 -283 -293 -303 -310 -327 -336 -346 -356 -376 -384 -397 -411 -416 -428 -438 -449 0
-8 -22 -24 -37 -53 -64 -69 -79 -91 -108 -119 -129 -147 -153 -169 -182 -186 -197 -208 -216 -229 -244 -258 -267 -283 -291 -306 -318 -326 -337 -347 -357 -375 -386 -398 -405 -414 -432 -438 -453 0
-8 -21 -24 -37 -45 -64 -70 -89 -95 -110 -119 -125 -140 -154 -162 -177 -188 -203 -213 -217 -228 -249 -250 -269 -279 -296 -306 -312 -327 -338 -351 -363 -374 -386 -395 -410 -422 -427 -442 -450 0
-8 -19 -24 -35 -51 -65 -71 -83 -101 -107 -116 -126 -146 -149 -164 -175 -191 -196 -205 -221 -229 -249 -251 -269 -279 -293 -299 -320 -322 -333 -350 -364 -371 -387 -396 -403 -420 -434 -443 -451 0
-8 -16 -24 -42 -48 -56 -69 -88 -101 -103 -118 -131 -147 -152 -168 -181 -193 -197 -208 -221 -234 -239 -253 -269 -275 -291 -305 -308 -326 -336 -346 -364 -373 -386 -393 -406 -418 -434 -435 -453 0
-8 -19 -24 -44 -48 -57 -70 -84 -100 -104 -119 -125 -147 -153 -163 -177 -193 -204 -211 -217 -228 -242 -260 -269 -274 -289 -304 -309 -325 -338 -354 -356 -377 -384 -398 -404 -414 -429 -442 -451 0
-8 -22 -24 -36 -48 -61 -77 -82 -100 -108 -122 -125 -138 -153 -166 -177 -184 -203 -213 -219 -228 -242 -254 -273 -284 -289 -304 -316 -321 -334 -347 -360 -375 -382 -390 -404 -412 -433 -442 -447 0
-8 -22 -25 -38 -54 -59 -75 -81 -96 -103 -119 -134 -140 -149 -171 -174 -188 -201 -214 -219 -232 -244 -259 -263 -277 -292 -297 -314 -324 -340 -349 -363 -375 -379 -397 -409 -422 -425 -439 -446 0
-8 -22 -25 -39 -54 -59 -76 -80 -92 -108 -122 -128 -137 -153 -163 -178 -193 -201 -206 -217 -237 -247 -255 -266 -283 -294 -300 -310 -326 -342 -348 -357 -367 -381 -398 -405 -419 -424 -435 -448 0
-8 -21 -25 -38 -47 -59 -75 -81 -90 -103 -118 -134 -148 -155 -167 -175 -183 -199 -215 -221 -233 -247 -253 -263 -275 -296 -300 -308 -324 -340 -345 -363 -373 -388 -395 -403 -423 -424 -441 -446 0
-8 -19 -25 -38 -45 -65 -71 -81 -100 -112 -117 -128 -137 -155 -161 -181 -187 -201 -205 -226 -233 -241 -256 -272 -275 -290 -297 -311 -327 -334 -351 -356 -374 -387 -390 -403 -420 -434 -437 -452 0
-8 -13 -25 -41 -49 -56 -77 -84 -101 -103 -117 -127 -146 -155 -169 -178 -185 -199 -205 -217 -228 -246 -258 -272 -279 -296 -305 -318 -329 -333 -354 -360 -372 -386 -390 -404 -418 -425 -441 -447 0
-8 -17 -25 -37 -55 -57 -69 -85 -92 -111 -113 -130 -145 -158 -163 -182 -188 -198 -207 -224 -238 -246 -251 -263 -274 -288 -301 -318 -322 -341 -355 -366 -370 -388 -399 -406 -417 -431 -438 -450 0
-8 -21 -25 -38 -51 -57 -71 -83 -93 -102 -114 -136 -145 -158 -164 -175 -193 -203 -207 -219 -227 -240 -256 -263 -283 -288 -307 -308 -322 -341 -354 -364 -370 -384 -396 -409 -423 -427 -436 -454 0
-8 -17 -26 -35 -54 -58 -72 -80 -95 -112 -122 -125 -139 -158 -169 -173 -192 -198 -207 -221 -233 -240 -250 -265 -283 -291 -297 -318 -330 -343 -344 -359 -368 -382 -391 -408 -418 -430 -438 -455 0
-8 -22 -26 -41 -50 -64 -68 -85 -91 -111 -116 -130 -140 -149 -162 -178 -185 -195 -210 -224 -236 -243 -252 -270 -285 -287 -303 -319 -323 -338 -346 -361 -373 -384 -396 -411 -413 -431 -439 -450 0
-8 -19 -26 -38 -50 -56 -70 -81 -93 -112 -119 -134 -147 -150 -160 -175 -190 -199 -214 -219 -230 -248 -256 -266 -275 -295 -297 -315 -327 -342 -346 -359 -368 -386 -395 -400 -422 -426 -436 -453 0
-8 -14 -26 -38 -54 -56 -69 -84 -92 -110 -119 -136 -146 -150 -160 -176 -188 -201 -214 -216 -230 -246 -261 -266 -280 -286 -304 -316 -329 -343 -353 -360 -368 -383 -392 -404 -413 -433 -445 -446 0
-8 -22 -26 -38 -46 -65 -70 -85 -93 -103 -122 -134 -137 -154 -167 -173 -187 -198 -214 -225 -228 -243 -256 -264 -285 -291 -301 -316 -326 -343 -345 -356 -368 -380 -390 -411 -420 -426 -442 -446 0
-8 -20 -26 -41 -49 -66 -71 -85 -94 -103 -124 -127 -140 -149 -161 -175 -193 -194 -208 -219 -234 -245 -258 -262 -283 -287 -297 -316 -324 -341 -355 -361 -375 -386 -394 -407 -417 -426 -437 -446 0
-8 -19 -26 -42 -49 -61 -78 -81 -90 -105 -118 -128 -147 -150 -170 -175 -187 -196 -214 -221 -232 -240 -252 -269 -279 -292 -300 -308 -331 -334 -345 -365 -371 -380 -392 -409 -418 -424 -442 -446 0
-8 -15 -27 -35 -53 -66 -76 -85 -92 -108 -116 -135 -137 -150 -161 -182 -191 -194 -210 -216 -231 -245 -259 -269 -279 -289 -301 -309 -329 -335 -354 -362 -374 -385 -393 -400 -412 -431 -443 -455 0
-8 -15 -27 -35 -51 -57 -75 -84 -100 -102 -116 -136 -147 -151 -166 -177 -191 -197 -213 -216 -237 -243 -252 -264 -285 -294 -298 -310 -322 -337 -355 -361 -375 -388 -398 -401 -421 -427 -439 -456 0
-8 -19 -27 -35 -51 -59 -76 -89 -91 -105 -114 -135 -137 -154 -166 -174 -183 -198 -214 -219 -234 -248 -251 -273 -276 -292 -298 -309 -331 -333 -350 -362 -369 -379 -396 -410 -421 -424 -436 -446 0
-8 -19 -27 -34 -45 -64 -69 -83 -97 -105 -124 -136 -139 -154 -170 -177 -184 -203 -211 -219 -232 -240 -258 -264 -285 -288 -302 -311 -322 -333 -353 -366 -372 -382 -395 -401 -421 -429 -444 -449 0
-8 -13 -27 -39 -53 -57 -70 -79 -100 -106 -124 -136 -142 -151 -163 -181 -187 -202 -215 -216 -236 -242 -261 -263 -281 -292 -305 -309 -328 -336 -350 -363 -376 -388 -399 -401 -421 -428 -445 -446 0
-8 -22 -27 -35 -53 -65 -72 -80 -96 -102 -117 -127 -146 -152 -167 -174 -186 -198 -215 -224 -231 -245 -261 -262 -280 -291 -298 -318 -323 -343 -351 -365 -367 -379 -391 -408 -423 -424 -436 -455 0
-8 -20 -27 -43 -53 -56 -68 -82 -91 -112 -116 -131 -141 -154 -171 -173 -187 -204 -211 -219 -230 -242 -250 -269 -283 -295 -299 -310 -332 -343 -351 -363 -372 -387 -390 -407 -420 -433 -437 -456 0
-8 -17 -30 -37 -55 -58 -76 -82 -97 -103 -114 -135 -137 -153 -160 -178 -186 -202 -215 -224 -228 -248 -258 -266 -277 -288 -306 -315 -325 -333 -355 -363 -372 -385 -399 -405 -414 -432 -445 -453 0
-8 -15 -30 -36 -51 -64 -71 -81 -101 -103 -115 -130 -147 -149 -171 -172 -185 -201 -207 -224 -234 -243 -252 -270 -281 -290 -297 -308 -332 -341 -350 -358 -375 -388 -392 -409 -412 -434 -440 -449 0
-8 -17 -30 -37 -45 -60 -68 -82 -94 -112 -113 -135 -143 -158 -162 -181 -188 -204 -205 -226 -233 -241 -259 -263 -275 -289 -298 -315 -330 -334 -344 -363 -369 -387 -391 -400 -418 -433 -445 -447 0
-8 -21 -30 -39 -49 -58 -76 -83 -91 -112 -113 -128 -142 -151 -164 -180 -193 -195 -211 -219 -229 -247 -258 -264 -277 -288 -307 -317 -328 -339 -349 -359 -372 -382 -395 -410 -421 -433 -439 -448 0
-8 -17 -30 -37 -47 -61 -77 -80 -95 -112 -116 -125 -146 -151 -161 -181 -186 -198 -213 -223 -238 -240 -254 -272 -281 -287 -303 -311 -331 -340 -345 -365 -372 -378 -399 -400 -422 -428 -442 -453 0
-8 -22 -30 -42 -46 -59 -71 -85 -95 -102 -115 -135 -138 -152 -165 -177 -191 -196 -208 -223 -238 -240 -254 -270 -284 -288 -305 -316 -324 -333 -349 -361 -371 -380 -393 -409 -419 -426 -436 -449 0
-8 -13 -30 -42 -49 -61 -78 -83 -92 -102 -116 -135 -142 -150 -163 -182 -183 -198 -206 -220 -236 -246 -260 -263 -281 -294 -305 -309 -328 -339 -349 -361 -371 -383 -399 -404 -419 -428 -443 -455 0
-8 -17 -30 -35 -48 -61 -68 -89 -95 -105 -123 -125 -147 -150 -166 -182 -191 -197 -207 -217 -228 -243 -250 -266 -283 -294 -305 -312 -324 -335 -350 -357 -371 -384 -398 -405 -416 -427 -445 -449 0
-8 -17 -30 -37 -55 -57 -68 -85 -95 -104 -123 -135 -137 -152 -165 -181 -183 -202 -207 -225 -228 -249 -258 -265 -278 -294 -301 -312 -324 -336 -351 -356 -372 -385 -394 -411 -412 -426 -436 -448 0
-8 -16 -30 -37 -54 -61 -78 -82 -91 -105 -123 -125 -139 -154 -167 -172 -193 -195 -211 -218 -232 -244 -252 -271 -284 -290 -298 -310 -330 -333 -351 -366 -372 -378 -398 -401 -418 -433 -445 -451 0
-8 -22 -31 -36 -50 -65 -68 -85 -90 -110 -117 -128 -138 -153 -165 -175 -184 -199 -215 -225 -236 -247 -251 -270 -278 -292 -302 -317 -327 -337 -344 -357 -371 -381 -391 -408 -419 -424 -436 -452 0
-8 -14 -32 -34 -48 -66 -75 -80 -100 -108 -115 -130 -143 -151 -164 -178 -184 -203 -207 -219 -228 -248 -259 -269 -285 -288 -301 -313 -327 -341 -353 -357 -377 -385 -399 -406 -412 -429 -440 -449 0
-8 -19 -32 -37 -49 -58 -68 -82 -91 -112 -118 -125 -146 -155 -166 -182 -191 -199 -206 -226 -233 -241 -250 -264 -276 -293 -300 -310 -324 -342 -349 -359 -368 -382 -393 -402 -413 -425 -437 -448 0
-8 -15 -32 -41 -47 -66 -76 -85 -90 -103 -118 -129 -139 -153 -167 -182 -193 -197 -210 -217 -228 -243 -260 -267 -274 -291 -299 -313 -323 -339 -352 -362 -368 -380 -397 -405 -414 -430 -441 -447 0
-8 -19 -32 -37 -49 -56 -70 -81 -97 -103 -118 -136 -140 -158 -165 -172 -191 -196 -210 -216 -231 -242 -252 -272 -285 -290 -307 -312 -325 -335 -350 -358 -375 -383 -392 -400 -415 -434 -444 -448 0
-8 -16 -32 -44 -51 -64 -68 -82 -94 -103 -122 -125 -141 -154 -162 -181 -193 -194 -206 -217 -234 -248 -258 -267 -283 -293 -300 -308 -326 -341 -346 -364 -369 -381 -396 -410 -417 -429 -435 -453 0
-8 -20 -33 -41 -50 -61 -70 -83 -92 -102 -115 -126 -147 -153 -170 -180 -193 -195 -210 -219 -236 -242 -254 -267 -276 -287 -299 -310 -327 -339 -349 -363 -375 -380 -389 -402 -420 -428 -439 -452 0
-8 -21 -33 -41 -48 -60 -70 -85 -92 -102 -115 -134 -138 -154 -167 -172 -184 -199 -206 -219 -230 -247 -256 -273 -278 -289 -307 -318 -328 -339 -349 -363 -370 -388 -395 -403 -416 -428 -441 -449 0
-8 -17 -33 -37 -47 -58 -67 -88 -100 -103 -114 -135 -143 -153 -168 -178 -186 -201 -215 -216 -227 -247 -254 -266 -276 -292 -305 -314 -323 -337 -354 -363 -368 -388 -396 -408 -414 -428 -437 -450 0
-8 -19 -33 -38 -50 -61 -70 -83 -93 -102 -114 -135 -138 -158 -162 -172 -192 -203 -215 -217 -231 -240 -255 -267 -279 -288 -300 -315 -332 -342 -353 -360 -371 -383 -396 -401 -416 -433 -440 -449 0
-9 -17 -31 -39 -47 -59 -73 -81 -95 -112 -116 -126 -147 -149 -161 -172 -185 -195 -213 -222 -233 -242 -260 -273 -281 -291 -304 -311 -332 -336 -345 -356 -373 -379 -398 -402 -412 -430 -442 -454 0
-9 -16 -25 -44 -47 -65 -72 -80 -100 -106 -118 -132 -139 -149 -169 -178 -183 -199 -207 -217 -231 -240 -257 -270 -278 -292 -303 -314 -324 -338 -353 -357 -367 -379 -396 -406 -417 -431 -441 -446 0
-9 -17 -33 -42 -47 -60 -72 -86 -90 -105 -114 -135 -141 -150 -162 -176 -185 -194 -214 -221 -229 -240 -257 -270 -284 -292 -297 -312 -331 -340 -353 -358 -371 -387 -396 -410 -420 -427 -437 -450 0
-9 -13 -32 -34 -51 -60 -76 -83 -96 -105 -114 -132 -148 -150 -170 -179 -184 -195 -209 -221 -232 -241 -259 -271 -280 -293 -298 -315 -322 -333 -348 -360 -372 -386 -396 -401 -418 -424 -445 -451 0
-9 -13 -26 -43 -55 -64 -70 -84 -98 -103 -119 -130 -137 -151 -171 -178 -184 -203 -208 -220 -231 -248 -259 -268 -279 -290 -300 -317 -322 -342 -355 -366 -371 -387 -394 -407 -417 -430 -440 -450 0
-9 -13 -26 -42 -54 -60 -71 -79 -94 -112 -119 -132 -138 -151 -165 -179 -184 -204 -208 -226 -228 -241 -260 -270 -280 -293 -307 -318 -322 -339 -349 -361 -370 -386 -395 -407 -413 -432 -436 -453 0
-9 -14 -26 -42 -49 -56 -73 -85 -93 -111 -118 -136 -138 -151 -165 -177 -192 -196 -214 -222 -238 -240 -252 -270 -278 -293 -307 -313 -322 -341 -352 -361 -371 -381 -396 -409 -423 -426 -435 -452 0
-9 -15 -27 -43 -50 -62 -78 -79 -93 -103 -119 -129 -146 -151 -168 -173 -189 -197 -209 -216 -230 -244 -260 -267 -285 -296 -299 -317 -328 -343 -353 -361 -369 -388 -391 -407 -417 -426 -439 -453 0
-9 -20 -28 -36 -54 -60 -71 -83 -93 -112 -119 -125 -138 -151 -165 -177 -193 -197 -207 -222 -228 -242 -252 -270 -284 -287 -297 -320 -327 -337 -349 -365 -370 -386 -391 -407 -422 -426 -439 -446 0
-9 -17 -24 -40 -54 -57 -69 -83 -101 -107 -119 -125 -146 -152 -169 -176 -192 -198 -207 -216 -227 -241 -257 -270 -281 -294 -304 -316 -324 -336 -353 -356 -377 -379 -398 -404 -417 -426 -438 -446 0
-9 -22 -27 -43 -45 -59 -71 -86 -92 -102 -119 -134 -140 -152 -168 -177 -185 -200 -214 -218 -233 -249 -251 -266 -281 -294 -300 -311 -330 -340 -352 -359 -369 -379 -396 -406 -422 -426 -439 -448 0
-9 -12 -28 -39 -47 -64 -71 -83 -91 -107 -124 -127 -148 -152 -162 -180 -185 -203 -211 -219 -235 -244 -261 -273 -274 -289 -307 -310 -324 -341 -349 -359 -373 -379 -399 -407 -422 -424 -436 -449 0
-9 -12 -31 -44 -49 -65 -72 -82 -98 -103 -117 -127 -142 -152 -164 -181 -185 -200 -205 -218 -233 -249 -256 -272 -283 -291 -302 -312 -331 -336 -352 -360 -369 -379 -391 -408 -418 -430 -441 -447 0
-9 -16 -31 -39 -48 -65 -69 -86 -101 -102 -118 -126 -139 -152 -164 -178 -183 -202 -206 -218 -235 -241 -261 -271 -285 -290 -303 -308 -325 -343 -345 -361 -370 -382 -390 -403 -420 -426 -443 -451 0
-9 -16 -31 -40 -54 -61 -69 -83 -101 -102 -118 -126 -139 -152 -170 -178 -185 -198 -213 -222 -234 -240 -253 -271 -285 -290 -297 -308 -331 -341 -347 -361 -370 -379 -391 -402 -418 -431 -435 -453 0
-9 -22 -31 -37 -51 -62 -71 -79 -93 -107 -114 -135 -138 -152 -163 -182 -189 -198 -214 -216 -230 -244 -256 -270 -285 -290 -302 -310 -329 -337 -350 -358 -371 -378 -399 -401 -419 -428 -443 -451 0
-9 -20 -32 -38 -51 -62 -67 -83 -93 -103 -118 -136 -139 -152 -168 -177 -183 -197 -209 -216 -238 -245 -253 -268 -278 -295 -299 -317 -326 -340 -347 -361 -370 -385 -395 -400 -414 -427 -439 -454 0
-9 -12 -23 -44 -54 -59 -76 -82 -98 -105 -118 -131 -139 -153 -164 -175 -183 -200 -209 -217 -237 -249 -260 -267 -283 -288 -303 -319 -327 -342 -347 -362 -376 -383 -395 -405 -422 -431 -437 -454 0
-9 -15 -24 -44 -54 -61 -69 -80 -94 -102 -118 -132 -146 -153 -168 -178 -193 -197 -210 -224 -235 -243 -251 -263 -274 -294 -299 -308 -322 -338 -352 -361 -377 -382 -392 -411 -422 -427 -439 -453 0
-9 -15 -32 -39 -46 -64 -69 -80 -101 -108 -116 -125 -144 -153 -171 -176 -189 -199 -213 -221 -229 -247 -254 -272 -274 -288 -307 -317 -322 -333 -352 -362 -373 -378 -398 -403 -413 -430 -438 -453 0
-9 -20 -33 -35 -51 -57 -73 -84 -94 -106 -114 -135 -137 -153 -170 -180 -189 -198 -209 -220 -238 -240 -256 -265 -276 -290 -297 -309 -329 -336 -348 -362 -372 -387 -396 -401 -418 -428 -440 -446 0
-9 -21 -26 -40 -55 -61 -70 -81 -90 -108 -115 -126 -146 -153 -165 -175 -191 -194 -210 -222 -238 -246 -251 -266 -276 -294 -297 -308 -325 -342 -350 -362 -368 -383 -392 -400 -412 -431 -438 -453 0
-9 -21 -28 -44 -45 -61 -69 -83 -96 -105 -113 -134 -139 -153 -169 -180 -189 -197 -206 -219 -234 -239 -252 -266 -281 -290 -303 -309 -323 -342 -347 -361 -367 -382 -392 -400 -416 -427 -442 -447 0
-9 -13 -33 -39 -48 -56 -76 -80 -92 -111 -116 -130 -144 -154 -164 -180 -189 -195 -209 -224 -238 -239 -256 -263 -284 -289 -302 -311 -332 -339 -352 -357 -375 -378 -396 -409 -413 -427 -439 -452 0
-9 -13 -26 -42 -46 -60 -77 -89 -97 -102 -116 -132 -138 -154 -171 -173 -192 -199 -208 -222 -233 -245 -260 -270 -274 -292 -307 -317 -322 -340 -349 -361 -367 -382 -392 -406 -413 -431 -435 -453 0
-9 -16 -23 -42 -48 -62 -78 -79 -94 -111 -115 -131 -139 -154 -161 -177 -188 -204 -205 -226 -228 -246 -260 -268 -278 -294 -298 -316 -330 -342 -349 -356 -372 -387 -397 -406 -418 -434 -436 -449 0
-9 -16 -31 -39 -55 -62 -67 -82 -94 -103 -114 -135 -141 -154 -162 -180 -192 -194 -215 -217 -228 -247 -255 -267 -282 -286 -304 -314 -324 -341 -355 -362 -373 -382 -390 -410 -420 -433 -445 -456 0
-9 -20 -24 -37 -51 -65 -67 -82 -101 -107 -116 -126 -144 -154 -171 -182 -184 -199 -212 -218 -232 -245 -250 -270 -279 -289 -301 -319 -322 -341 -355 -362 -376 -379 -398 -406 -412 -431 -437 -454 0
-9 -20 -33 -38 -45 -59 -69 -86 -94 -111 -119 -127 -137 -154 -164 -178 -192 -200 -205 -226 -229 -240 -253 -270 -279 -296 -300 -315 -326 -335 -348 -363 -376 -379 -392 -406 -421 -425 -439 -446 0
-9 -20 -33 -39 -49 -56 -77 -86 -93 -103 -116 -127 -141 -154 -162 -180 -189 -199 -205 -226 -228 -248 -252 -267 -279 -290 -297 -320 -329 -337 -350 -362 -375 -382 -390 -409 -412 -433 -443 -447 0
-9 -20 -33 -34 -51 -60 -70 -83 -93 -103 -114 -132 -147 -154 -162 -176 -183 -200 -215 -217 -228 -248 -255 -267 -283 -288 -305 -317 -332 -343 -346 -360 -368 -384 -394 -405 -420 -432 -445 -449 0
-9 -20 -33 -35 -48 -62 -72 -81 -94 -107 -113 -126 -147 -154 -170 -176 -189 -199 -215 -221 -229 -246 -253 -266 -275 -296 -298 -312 -323 -341 -353 -360 -373 -387 -390 -406 -418 -427 -441 -448 0
-9 -12 -27 -42 -55 -62 -68 -82 -91 -105 -118 -135 -141 -155 -160 -181 -186 -202 -212 -218 -238 -248 -256 -265 -280 -292 -303 -310 -330 -343 -351 -358 -372 -382 -399 -402 -420 -432 -440 -452 0
-9 -14 -28 -35 -48 -65 -71 -89 -92 -107 -123 -125 -138 -155 -171 -179 -186 -202 -207 -217 -234 -245 -260 -272 -274 -287 -307 -318 -327 -333 -345 -360 -373 -388 -389 -403 -417 -431 -443 -449 0
-9 -17 -31 -44 -47 -60 -67 -80 -94 -106 -120 -135 -139 -155 -170 -173 -189 -196 -211 -219 -228 -247 -254 -270 -285 -287 -306 -316 -329 -339 -345 -356 -372 -382 -392 -401 -416 -433 -444 -451 0
-9 -21 -28 -38 -50 -57 -68 -79 -93 -105 -117 -134 -148 -155 -169 -180 -189 -194 -207 -220 -228 -241 -252 -267 -279 -291 -307 -313 -325 -334 -345 -356 -373 -385 -390 -411 -412 -426 -444 -451 0
-9 -12 -25 -43 -48 -64 -68 -85 -91 -107 -118 -128 -144 -159 -161 -172 -187 -198 -213 -226 -231 -245 -257 -272 -279 -291 -301 -312 -323 -340 -352 -366 -377 -388 -394 -404 -415 -424 -444 -451 0
-9 -12 -26 -43 -51 -64 -71 -81 -94 -103 -115 -130 -144 -159 -168 -179 -186 -196 -211 -226 -227 -242 -255 -265 -276 -287 -302 -315 -323 -342 -354 -361 -370 -381 -392 -411 -419 -431 -443 -449 0
-9 -12 -27 -39 -47 -64 -70 -80 -98 -106 -118 -135 -139 -159 -163 -180 -189 -204 -211 -218 -238 -242 -250 -263 -280 -291 -301 -312 -323 -340 -352 -357 -370 -382 -391 -400 -422 -426 -444 -451 0
-9 -14 -24 -42 -49 -57 -77 -84 -93 -106 -113 -132 -143 -159 -168 -172 -188 -198 -206 -220 -233 -249 -257 -264 -276 -290 -303 -312 -331 -340 -344 -361 -374 -386 -395 -400 -414 -428 -442 -447 0
-9 -15 -23 -40 -54 -61 -67 -81 -93 -107 -123 -129 -142 -159 -170 -180 -186 -196 -211 -216 -231 -244 -252 -273 -282 -288 -301 -320 -329 -342 -351 -356 -372 -381 -399 -401 -417 -433 -445 -449 0
-9 -16 -24 -40 -50 -57 -76 -83 -90 -111 -116 -131 -140 -159 -170 -175 -189 -202 -207 -217 -232 -240 -255 -267 -285 -291 -306 -320 -328 -334 -346 -359 -373 -383 -395 -411 -417 -433 -440 -450 0
-9 -17 -24 -34 -48 -62 -70 -85 -95 -104 -123 -126 -147 -159 -162 -182 -186 -195 -213 -217 -235 -245 -250 -273 -277 -289 -304 -315 -332 -336 -354 -363 -370 -381 -393 -409 -417 -434 -445 -449 0
-9 -17 -26 -43 -49 -57 -68 -85 -94 -102 -120 -128 -146 -159 -168 -172 -186 -200 -208 -218 -229 -240 -256 -265 -285 -286 -300 -320 -328 -341 -347 -366 -370 -382 -391 -404 -414 -433 -437 -456 0
-9 -17 -28 -39 -46 -64 -70 -83 -95 -111 -115 -125 -138 -159 -162 -176 -188 -194 -212 -226 -228 -246 -252 -265 -284 -288 -298 -318 -322 -333 -355 -359 -373 -386 -389 -401 -415 -433 -439 -450 0
-9 -17 -32 -38 -45 -58 -73 -83 -92 -104 -113 -131 -146 -159 -161 -178 -186 -197 -206 -225 -232 -239 -259 -268 -285 -296 -300 -308 -329 -335 -348 -358 -371 -387 -396 -403 -423 -434 -435 -455 0
-10 -12 -27 -35 -53 -62 -74 -84 -97 -105 -117 -126 -139 -159 -161 -177 -186 -194 -208 -223 -237 -249 -257 -265 -281 -287 -298 -314 -323 -342 -351 -363 -376 -387 -397 -406 -415 -434 -438 -456 0
-10 -12 -24 -35 -53 -59 -74 -80 -95 -112 -118 -129 -144 -155 -170 -179 -186 -196 -211 -223 -238 -247 -252 -265 -280 -296 -302 -318 -330 -343 -346 -361 -373 -386 -393 -406 -419 -432 -440 -456 0
-10 -12 -28 -36 -51 -57 -68 -82 -95 -112 -117 -133 -142 -157 -164 -175 -191 -201 -211 -218 -237 -243 -250 -273 -276 -289 -305 -310 -322 -341 -347 -366 -374 -388 -398 -407 -421 -425 -437 -456 0
-10 -12 -27 -35 -50 -62 -70 -85 -92 -110 -117 -126 -148 -156 -163 -174 -189 -194 -208 -226 -236 -244 -260 -263 -284 -296 -305 -315 -328 -336 -354 -358 -369 -382 -391 -400 -418 -430 -442 -451 0
-10 -12 -27 -39 -52 -57 -70 -86 -92 -110 -117 -128 -148 -154 -162 -176 -189 -194 -215 -223 -237 -247 -255 -263 -281 -294 -307 -315 -324 -340 -345 -357 -375 -382 -389 -400 -415 -433 -439 -456 0
-10 -12 -30 -37 -45 -62 -70 -89 -92 -107 -121 -128 -142 -155 -163 -177 -193 -204 -212 -217 -230 -245 -260 -269 -274 -287 -307 -314 -326 -335 -351 -363 -376 -387 -394 -406 -422 -434 -444 -448 0
-10 -13 -26 -38 -50 -62 -68 -87 -101 -105 -119 -125 -145 -150 -170 -173 -188 -199 -212 -224 -236 -243 -254 -266 -275 -295 -304 -316 -326 -334 -347 -363 -373 -378 -397 -400 -422 -430 -438 -453 0
-10 -13 -33 -36 -50 -62 -68 -87 -97 -103 -117 -130 -137 -157 -164 -181 -188 -197 -205 -219 -236 -249 -251 -263 -284 -289 -306 -313 -322 -342 -347 -362 -370 -383 -397 -402 -417 -430 -444 -452 0
-10 -13 -25 -37 -50 -61 -73 -81 -95 -112 -113 -133 -138 -157 -169 -172 -187 -195 -211 -225 -229 -242 -258 -265 -279 -289 -305 -318 -332 -341 -351 -360 -367 -386 -394 -407 -415 -425 -442 -452 0
-10 -13 -27 -39 -45 -66 -67 -81 -99 -110 -120 -129 -141 -154 -170 -181 -184 -199 -208 -222 -233 -249 -251 -269 -281 -293 -301 -318 -327 -341 -346 -356 -376 -388 -399 -406 -415 -431 -438 -456 0
-10 -13 -27 -44 -52 -57 -70 -84 -92 -106 -120 -125 -143 -157 -170 -178 -191 -199 -206 -217 -233 -242 -258 -273 -277 -289 -306 -319 -324 -333 -355 -363 -374 -384 -396 -402 -417 -425 -437 -448 0
-10 -13 -33 -34 -48 -57 -71 -81 -99 -110 -119 -130 -144 -152 -166 -181 -192 -197 -212 -220 -232 -243 -250 -262 -285 -293 -300 -317 -325 -339 -348 -358 -376 -381 -392 -403 -421 -434 -438 -449 0
-10 -13 -28 -38 -45 -58 -71 -87 -97 -110 -114 -125 -141 -159 -166 -176 -192 -200 -208 -216 -229 -239 -254 -273 -280 -290 -304 -308 -332 -341 -348 -358 -376 -388 -392 -404 -415 -434 -438 -456 0
-10 -13 -27 -40 -45 -63 -71 -89 -92 -105 -119 -125 -141 -157 -170 -181 -186 -197 -208 -217 -238 -244 -258 -267 -275 -291 -304 -319 -328 -333 -348 -358 -371 -384 -392 -405 -420 -424 -438 -449 0
-10 -13 -30 -44 -50 -57 -73 -85 -95 -109 -117 -125 -139 -152 -163 -182 -188 -200 -208 -223 -238 -240 -255 -271 -274 -289 -303 -311 -331 -340 -347 -360 -373 -388 -391 -405 -414 -429 -439 -452 0
-10 -14 -23 -38 -52 -59 -71 -85 -92 -112 -120 -128 -145 -149 -160 -181 -187 -195 -212 -223 -230 -243 -256 -266 -285 -286 -302 -319 -329 -337 -347 -360 -373 -385 -392 -403 -421 -431 -442 -452 0
-10 -14 -27 -44 -45 -63 -71 -88 -98 -104 -117 -127 -137 -155 -171 -178 -184 -196 -210 -224 -233 -239 -257 -269 -284 -296 -301 -308 -325 -335 -350 -366 -374 -379 -395 -401 -419 -431 -441 -448 0
-10 -14 -23 -37 -51 -60 -78 -86 -99 -108 -115 -125 -145 -151 -165 -174 -191 -200 -206 -223 -232 -248 -255 -273 -276 -292 -305 -313 -323 -341 -351 -359 -376 -384 -392 -410 -415 -425 -436 -450 0
-10 -14 -23 -37 -51 -66 -73 -81 -99 -108 -122 -130 -140 -149 -169 -177 -190 -200 -205 -218 -233 -240 -252 -267 -278 -289 -304 -319 -326 -341 -347 -362 -377 -382 -394 -406 -414 -434 -445 -456 0
-10 -15 -23 -40 -49 -63 -78 -79 -93 -105 -118 -131 -139 -157 -170 -175 -186 -203 -210 -216 -229 -245 -258 -264 -285 -291 -298 -316 -331 -337 -345 -356 -375 -380 -393 -408 -422 -432 -444 -446 0
-10 -15 -23 -35 -51 -60 -67 -88 -94 -109 -118 -132 -139 -159 -165 -182 -190 -199 -215 -217 -227 -240 -254 -264 -282 -288 -303 -314 -328 -339 -346 -364 -376 -384 -394 -403 -420 -425 -445 -449 0
-10 -15 -24 -40 -50 -57 -75 -89 -99 -104 -116 -131 -137 -153 -166 -181 -187 -197 -212 -225 -228 -243 -250 -263 -285 -291 -306 -309 -326 -333 -348 -362 -373 -387 -393 -411 -420 -428 -444 -446 0
-10 -15 -27 -40 -53 -61 -67 -82 -91 -105 -118 -133 -148 -151 -161 -181 -186 -200 -210 -225 -238 -245 -258 -265 -275 -289 -303 -309 -330 -339 -351 -358 -369 -384 -392 -408 -412 -427 -438 -447 0
-10 -15 -28 -38 -51 -66 -67 -87 -93 -105 -122 -126 -142 -151 -163 -179 -191 -201 -215 -216 -230 -244 -256 -272 -276 -288 -300 -319 -322 -338 -354 -364 -373 -383 -398 -401 -413 -424 -444 -449 0
-10 -15 -28 -39 -45 -63 -71 -79 -93 -107 -122 -129 -139 -159 -163 -182 -190 -195 -207 -220 -235 -245 -250 -263 -285 -291 -298 -309 -326 -337 -345 -366 -373 -388 -391 -408 -419 -426 -438 -455 0
-10 -15 -30 -39 -55 -58 -71 -86 -92 -104 -121 -130 -137 -150 -170 -178 -184 -201 -206 -219 -234 -247 -253 -265 -282 -294 -301 -308 -324 -335 -348 -357 -372 -381 -396 -405 -423 -424 -439 -448 0
-10 -15 -33 -34 -49 -61 -75 -81 -99 -108 -115 -126 -144 -152 -163 -177 -183 -201 -206 -222 -230 -249 -260 -272 -281 -294 -297 -314 -332 -342 -351 -358 -375 -378 -398 -408 -421 -429 -439 -447 0
-10 -16 -24 -36 -52 -66 -75 -83 -96 -103 -119 -132 -140 -149 -171 -172 -185 -198 -207 -221 -236 -244 -252 -271 -282 -291 -301 -320 -328 -336 -346 -365 -374 -385 -390 -408 -422 -426 -442 -454 0
-10 -16 -28 -37 -51 -57 -75 -79 -96 -104 -121 -136 -139 -152 -169 -179 -192 -201 -210 -216 -227 -241 -253 -267 -278 -290 -298 -319 -331 -336 -344 -361 -374 -385 -392 -409 -413 -425 -436 -456 0
-10 -16 -28 -37 -50 -57 -70 -79 -93 -110 -119 -136 -139 -156 -161 -182 -193 -201 -210 -224 -235 -242 -254 -262 -274 -294 -301 -310 -322 -336 -349 -358 -374 -382 -393 -402 -412 -434 -436 -448 0
-10 -16 -28 -37 -52 -66 -72 -80 -94 -108 -122 -128 -137 -151 -161 -181 -189 -204 -208 -220 -228 -241 -258 -267 -285 -287 -303 -313 -323 -339 -354 -361 -370 -383 -392 -407 -413 -428 -444 -452 0
-10 -16 -33 -36 -52 -61 -67 -81 -93 -110 -117 -132 -138 -154 -160 -178 -189 -201 -214 -225 -238 -244 -253 -262 -278 -290 -298 -320 -329 -334 -350 -364 -375 -383 -390 -402 -419 -425 -442 -451 0
-10 -16 -33 -36 -46 -56 -69 -80 -97 -109 -117 -132 -145 -154 -170 -173 -187 -200 -211 -218 -232 -240 -260 -269 -285 -296 -305 -316 -326 -339 -345 -363 -376 -388 -397 -401 -414 -432 -439 -456 0
-10 -16 -33 -35 -48 -61 -74 -80 -98 -105 -118 -127 -137 -157 -164 -178 -183 -197 -207 -226 -236 -240 -252 -271 -284 -296 -300 -313 -325 -342 -345 -358 -376 -379 -389 -405 -418 -432 -435 -454 0
-10 -17 -33 -40 -52 -56 -68 -82 -97 -105 -117 -130 -138 -157 -166 -181 -185 -198 -205 -217 -230 -248 -251 -273 -279 -289 -302 -310 -325 -334 -352 -363 -375 -387 -390 -404 -415 -426 -444 -452 0
-10 -17 -26 -41 -51 -60 -73 -79 -94 -109 -115 -126 -139 -159 -166 -179 -183 -196 -209 -226 -229 -241 -251 -272 -278 -292 -306 -309 -328 -333 -350 -359 -370 -381 -392 -410 -420 -428 -445 -451 0
-10 -17 -25 -44 -48 -63 -67 -82 -98 -107 -122 -126 -139 -155 -161 -179 -188 -204 -214 -219 -236 -249 -250 -265 -275 -293 -301 -309 -321 -335 -346 -364 -372 -381 -394 -410 -420 -428 -438 -447 0
-10 -17 -29 -44 -45 -59 -72 -82 -98 -105 -122 -127 -137 -153 -171 -181 -189 -201 -209 -217 -237 -241 -250 -266 -281 -286 -301 -309 -327 -342 -351 -366 -371 -381 -392 -405 -418 -427 -438 -447 0
-10 -17 -29 -35 -45 -60 -70 -81 -101 -102 -117 -132 -145 -155 -169 -178 -185 -200 -205 -225 -236 -240 -253 -263 -279 -296 -305 -315 -325 -343 -345 -364 -367 -379 -395 -401 -423 -431 -439 -456 0
-10 -17 -26 -41 -45 -60 -78 -79 -98 -104 -121 -131 -139 -152 -165 -182 -193 -197 -205 -222 -236 -240 -260 -264 -278 -291 -302 -315 -325 -343 -346 -364 -375 -385 -397 -404 -418 -425 -439 -446 0
-10 -17 -28 -41 -47 -61 -74 -83 -101 -102 -114 -130 -138 -152 -171 -182 -186 -196 -205 -223 -235 -247 -254 -267 -278 -289 -305 -315 -329 -342 -355 -358 -371 -382 -392 -408 -416 -433 -439 -451 0
-10 -18 -24 -38 -53 -58 -78 -83 -91 -108 -119 -128 -137 -156 -164 -173 -186 -197 -205 -218 -235 -249 -260 -272 -275 -296 -303 -313 -328 -336 -348 -364 -367 -379 -395 -402 -420 -424 -435 -448 0
-10 -18 -23 -37 -53 -58 -71 -82 -97 -107 -121 -136 -137 -151 -171 -173 -186 -204 -211 -220 -230 -241 -260 -266 -282 -288 -303 -316 -325 -342 -355 -366 -372 -387 -396 -406 -417 -426 -437 -448 0
-10 -18 -27 -44 -46 -58 -74 -88 -97 -104 -117 -125 -142 -150 -161 -178 -186 -198 -210 -224 -227 -240 -257 -265 -284 -289 -304 -310 -321 -336 -353 -357 -376 -384 -398 -405 -415 -431 -442 -448 0
-10 -18 -25 -44 -52 -57 -69 -88 -96 -106 -119 -125 -139 -153 -169 -172 -186 -199 -208 -216 -231 -248 -257 -263 -281 -295 -300 -317 -326 -335 -351 -364 -376 -379 -395 -401 -416 -428 -438 -451 0
-10 -18 -27 -35 -51 -59 -71 -80 -99 -105 -113 -127 -145 -159 -160 -179 -185 -198 -215 -220 -230 -245 -251 -272 -279 -286 -302 -318 -332 -337 -354 -357 -371 -386 -391 -406 -421 -427 -436 -449 0
-10 -18 -23 -38 -55 -63 -70 -83 -93 -108 -122 -131 -139 -149 -161 -175 -189 -203 -206 -219 -232 -244 -250 -267 -285 -291 -299 -316 -323 -336 -344 -365 -370 -384 -398 -407 -416 -432 -442 -447 0
-10 -18 -27 -35 -50 -57 -70 -89 -92 -110 -113 -133 -141 -155 -163 -179 -187 -194 -214 -216 -230 -248 -256 -263 -285 -295 -300 -316 -331 -336 -355 -358 -369 -387 -396 -400 -418 -433 -435 -450 0
-10 -18 -23 -41 -48 -60 -78 -87 -90 -108 -115 -129 -139 -155 -165 -173 -189 -197 -207 -224 -237 -239 -255 -262 -285 -286 -303 -313 -327 -340 -347 -365 -376 -380 -392 -403 -418 -430 -445 -455 0
-10 -18 -26 -41 -51 -60 -74 -84 -93 -112 -116 -126 -139 -149 -164 -173 -183 -196 -211 -224 -228 -243 -254 -273 -282 -287 -305 -308 -323 -341 -351 -361 -374 -382 -390 -406 -414 -434 -441 -456 0
-10 -18 -23 -41 -48 -60 -74 -84 -93 -112 -116 -127 -143 -149 -169 -178 -184 -199 -209 -216 -230 -242 -254 -268 -274 -288 -307 -311 -327 -341 -344 -360 -374 -386 -389 -407 -417 -430 -441 -447 0
-10 -18 -24 -37 -51 -58 -67 -88 -91 -107 -121 -128 -148 -154 -165 -174 -184 -198 -210 -224 -238 -240 -250 -272 -282 -291 -305 -320 -328 -333 -346 -366 -368 -388 -395 -408 -418 -427 -444 -454 0
-10 -22 -29 -41 -50 -62 -72 -80 -94 -106 -114 -130 -140 -149 -162 -178 -185 -201 -215 -217 -233 -240 -255 -271 -282 -289 -304 -310 -330 -334 -346 -359 -373 -379 -397 -410 -422 -429 -439 -456 0
-10 -22 -26 -34 -46 -58 -73 -85 -95 -103 -121 -128 -145 -154 -161 -182 -190 -199 -208 -226 -235 -245 -260 -262 -279 -292 -305 -316 -329 -335 -354 -360 -368 -382 -392 -408 -416 -430 -440 -454 0
-10 -22 -29 -38 -50 -56 -72 -80 -92 -105 -120 -128 -141 -157 -163 -182 -190 -199 -214 -217 -230 -245 -251 -273 -278 -289 -302 -311 -326 -342 -354 -365 -371 -378 -398 -406 -416 -429 -443 -455 0
-11 -17 -30 -35 -49 -61 -74 -80 -100 -105 -120 -135 -141 -151 -166 -174 -191 -202 -206 -219 -235 -242 -254 -272 -276 -294 -301 -310 -324 -340 -347 -365 -372 -388 -398 -404 -417 -424 -441 -455 0
-11 -15 -27 -40 -51 -63 -77 -80 -93 -108 -122 -129 -146 -151 -166 -180 -184 -203 -207 -220 -233 -241 -257 -262 -284 -293 -298 -310 -322 -337 -350 -364 -377 -379 -398 -409 -423 -425 -444 -448 0
-11 -19 -25 -38 -52 -61 -77 -82 -96 -106 -120 -134 -138 -151 -161 -176 -191 -195 -208 -221 -236 -244 -261 -268 -277 -288 -305 -316 -326 -339 -346 -364 -377 -384 -396 -409 -413 -427 -445 -454 0
-11 -18 -31 -43 -52 -61 -69 -83 -95 -103 -122 -129 -142 -151 -161 -175 -187 -203 -213 -216 -233 -242 -261 -268 -281 -287 -302 -317 -331 -335 -355 -361 -374 -379 -399 -408 -419 -428 -441 -452 0
-11 -14 -23 -43 -51 -64 -74 -83 -98 -108 -115 -130 -145 -151 -164 -174 -184 -203 -206 -219 -236 -248 -259 -267 -282 -294 -302 -315 -323 -342 -355 -359 -375 -382 -399 -408 -421 -424 -439 -450 0
-11 -21 -27 -40 -52 -61 -69 -84 -91 -105 -122 -134 -141 -151 -165 -181 -184 -202 -206 -222 -230 -242 -258 -265 -280 -294 -301 -318 -323 -337 -351 -361 -370 -384 -398 -408 -423 -427 -441 -447 0
-11 -14 -28 -38 -53 -65 -69 -84 -91 -109 -117 -134 -143 -151 -167 -174 -184 -198 -211 -224 -234 -243 -261 -262 -282 -291 -306 -318 -323 -339 -353 -357 -377 -380 -398 -411 -421 -424 -444 -449 0
-11 -15 -30 -35 -45 -65 -71 -85 -100 -107 -121 -129 -144 -151 -168 -174 -186 -200 -210 -221 -236 -241 -260 -262 -276 -293 -303 -311 -322 -339 -350 -366 -369 -380 -396 -403 -413 -430 -441 -455 0
-11 -14 -30 -39 -47 -64 -77 -86 -95 -109 -118 -126 -141 -151 -168 -176 -188 -201 -208 -218 -234 -240 -260 -268 -276 -290 -303 -310 -331 -340 -348 -359 -375 -379 -399 -405 -414 -424 -442 -449 0
-11 -17 -30 -38 -54 -63 -69 -86 -97 -105 -123 -126 -141 -151 -167 -179 -186 -197 -214 -218 -229 -248 -251 -267 -278 -293 -301 -320 -331 -337 -350 -359 -370 -381 -390 -410 -423 -426 -438 -453 0
-11 -13 -30 -42 -50 -62 -77 -87 -95 -103 -116 -131 -141 -151 -163 -179 -188 -202 -206 -225 -236 -242 -260 -263 -280 -289 -305 -311 -332 -343 -349 -362 -373 -383 -395 -400 -423 -428 -443 -447 0
-11 -13 -26 -42 -45 -60 -75 -81 -96 -109 -124 -131 -144 -152 -164 -176 -183 -203 -212 -221 -236 -241 -259 -272 -275 -292 -303 -319 -332 -333 -346 -362 -371 -383 -395 -411 -420 -424 -439 -447 0
-11 -18 -27 -43 -53 -59 -68 -87 -91 -104 -118 -134 -143 -152 -165 -182 -183 -200 -206 -218 -234 -241 -259 -271 -278 -291 -304 -311 -331 -337 -353 -362 -377 -388 -389 -407 -421 -426 -439 -446 0
-11 -17 -30 -37 -54 -62 -72 -81 -95 -103 -121 -128 -146 -152 -167 -176 -185 -195 -214 -218 -235 -248 -256 -266 -274 -286 -302 -312 -329 -336 -355 -366 -370 -379 -398 -402 -418 -432 -443 -454 0
-11 -15 -23 -42 -46 -62 -71 -85 -99 -105 -122 -135 -140 -153 -168 -175 -189 -194 -214 -219 -234 -240 -258 -267 -276 -289 -303 -316 -330 -339 -354 -364 -369 -380 -396 -402 -417 -429 -443 -452 0
-11 -15 -24 -36 -54 -61 -74 -84 -98 -110 -123 -126 -140 -153 -170 -179 -184 -195 -213 -220 -231 -243 -260 -269 -281 -296 -304 -315 -330 -340 -350 -360 -376 -383 -397 -404 -413 -430 -440 -446 0
-11 -19 -26 -40 -50 -58 -76 -85 -91 -111 -121 -127 -140 -153 -165 -175 -183 -204 -212 -223 -229 -244 -260 -262 -278 -293 -301 -320 -331 -342 -350 -357 -371 -381 -394 -408 -423 -426 -440 -448 0
-11 -19 -32 -40 -52 -61 -69 -84 -91 -105 -123 -127 -141 -153 -165 -181 -184 -195 -212 -225 -227 -242 -258 -265 -280 -290 -305 -318 -323 -337 -351 -361 -367 -381 -394 -408 -423 -427 -436 -452 0
-11 -20 -26 -40 -54 -57 -68 -82 -96 -109 -116 -131 -145 -153 -168 -178 -187 -198 -212 -219 -236 -239 -251 -263 -277 -290 -305 -310 -321 -336 -354 -363 -377 -388 -399 -404 -417 -425 -435 -453 0
-11 -21 -28 -41 -46 -58 -71 -87 -91 -104 -123 -131 -141 -153 -160 -181 -188 -197 -213 -219 -234 -242 -258 -268 -275 -292 -303 -312 -327 -333 -347 -360 -369 -388 -397 -405 -418 -427 -439 -454 0
-11 -18 -30 -38 -52 -58 -76 -82 -91 -106 -114 -131 -147 -154 -161 -172 -192 -198 -212 -220 -233 -245 -260 -270 -275 -289 -297 -313 -330 -341 -355 -358 -367 -379 -399 -410 -422 -430 -436 -454 0
-11 -19 -24 -37 -45 -58 -76 -87 -95 -111 -119 -128 -144 -154 -162 -176 -188 -204 -212 -220 -229 -239 -258 -271 -275 -295 -302 -312 -332 -339 -346 -357 -374 -379 -389 -408 -421 -434 -441 -453 0
-11 -20 -27 -36 -52 -65 -72 -80 -98 -106 -114 -128 -145 -154 -160 -178 -189 -204 -207 -220 -233 -240 -258 -266 -283 -288 -298 -320 -330 -334 -354 -363 -367 -385 -392 -400 -422 -430 -444 -454 0
-11 -13 -30 -37 -49 -62 -68 -87 -94 -111 -118 -134 -138 -155 -167 -179 -191 -204 -210 -217 -233 -241 -251 -267 -274 -290 -307 -308 -327 -334 -346 -362 -371 -384 -392 -409 -417 -424 -445 -456 0
-11 -14 -30 -42 -45 -63 -71 -83 -95 -104 -120 -127 -147 -155 -165 -179 -192 -196 -206 -223 -234 -239 -260 -270 -276 -290 -306 -308 -323 -334 -347 -361 -375 -380 -392 -409 -423 -427 -440 -455 0
-11 -17 -23 -41 -49 -63 -70 -81 -100 -104 -117 -132 -147 -155 -161 -181 -192 -195 -205 -222 -236 -241 -259 -267 -279 -292 -300 -317 -325 -333 -354 -365 -369 -384 -398 -405 -418 -426 -439 -454 0
-11 -17 -25 -40 -48 -63 -75 -80 -95 -111 -114 -128 -146 -155 -166 -180 -189 -195 -205 -218 -231 -243 -260 -263 -284 -296 -297 -311 -330 -340 -344 -364 -372 -388 -389 -401 -421 -428 -435 -456 0
-11 -17 -28 -37 -54 -63 -76 -82 -95 -110 -116 -126 -139 -155 -161 -172 -190 -197 -206 -222 -233 -247 -256 -270 -284 -292 -300 -310 -330 -333 -346 -366 -371 -378 -393 -410 -419 -428 -437 -454 0
-11 -18 -27 -41 -50 -63 -70 -80 -100 -104 -117 -127 -147 -155 -161 -179 -185 -195 -213 -219 -237 -239 -256 -271 -280 -296 -304 -310 -331 -333 -350 -365 -370 -388 -394 -403 -420 -426 -436 -455 0
-11 -19 -25 -40 -46 -60 -76 -84 -91 -109 -124 -128 -141 -155 -166 -182 -187 -196 -212 -224 -231 -243 -251 -263 -274 -292 -297 -311 -328 -343 -350 -360 -377 -388 -389 -405 -415 -432 -435 -453 0
-11 -19 -26 -38 -46 -58 -71 -86 -97 -104 -123 -126 -147 -156 -164 -172 -190 -197 -212 -218 -228 -248 -260 -263 -279 -292 -306 -320 -330 -338 -347 -356 -369 -378 -397 -401 -418 -430 -442 -454 0
-11 -16 -23 -37 -54 -58 -73 -81 -93 -110 -118 -131 -146 -156 -167 -181 -183 -199 -206 -222 -231 -248 -253 -263 -278 -294 -305 -311 -326 -333 -347 -362 -374 -386 -393 -405 -422 -432 -443 -454 0
-11 -20 -32 -37 -53 -62 -69 -84 -91 -107 -116 -131 -139 -156 -160 -182 -189 -199 -213 -216 -230 -243 -258 -266 -277 -290 -303 -311 -323 -337 -351 -365 -371 -382 -395 -403 -418 -432 -443 -447 0
-11 -14 -32 -41 -50 -59 -72 -82 -95 -103 -114 -134 -144 -156 -167 -182 -189 -194 -214 -218 -228 -243 -255 -266 -276 -288 -304 -315 -322 -340 -353 -363 -371 -381 -389 -403 -414 -434 -435 -450 0
-11 -17 -29 -42 -48 -57 -73 -81 -93 -111 -116 -130 -143 -157 -170 -178 -190 -198 -207 -224 -233 -246 -252 -265 -275 -288 -298 -319 -327 -334 -355 -356 -374 -378 -399 -406 -416 -431 -439 -448 0
-11 -20 -28 -37 -52 -60 -70 -80 -92 -108 -124 -128 -143 -157 -170 -173 -185 -201 -210 -219 -230 -245 -259 -262 -278 -296 -306 -319 -327 -338 -348 -363 -367 -378 -391 -407 -420 -429 -442 -455 0
-11 -20 -25 -39 -52 -60 -77 -80 -92 -108 -115 -132 -141 -157 -168 -173 -185 -199 -208 -219 -236 -245 -251 -264 -274 -289 -302 -308 -332 -338 -354 -363 -369 -385 -397 -406 -413 -427 -438 -449 0
-11 -20 -23 -40 -46 -59 -77 -87 -97 -104 -116 -130 -142 -157 -166 -182 -185 -196 -209 -216 -232 -239 -259 -263 -280 -294 -302 -312 -326 -335 -353 -361 -377 -387 -395 -411 -416 -427 -440 -454 0
-11 -21 -23 -40 -48 -64 -69 -85 -95 -105 -118 -133 -139 -157 -160 -180 -190 -198 -209 -221 -230 -240 -254 -271 -280 -288 -303 -316 -324 -333 -349 -361 -374 -380 -393 -408 -422 -426 -444 -453 0
-11 -14 -29 -35 -53 -59 -71 -86 -97 -107 -114 -135 -138 -158 -160 -182 -186 -200 -213 -216 -230 -247 -256 -266 -280 -296 -304 -310 -326 -337 -350 -365 -373 -388 -397 -403 -417 -432 -436 -446 0
-11 -16 -32 -40 -53 -57 -72 -82 -96 -106 -121 -129 -139 -158 -161 -182 -185 -203 -208 -222 -228 -239 -256 -270 -280 -292 -297 -314 -324 -341 -349 -357 -375 -379 -398 -409 -414 -431 -437 -452 0
